NAME: 11,12-EET; LC-ESI-QIT; MS2; CE
PRECURSORMZ: 319.227868
PRECURSORTYPE: [M-H]-
FORMULA: C20H32O3
Ontology: Hepoxilins
INCHIKEY: DXOYQVHGIODESM-KROJNAHFNA-N
SMILES: CCCCC\C=C/CC1OC1C\C=C/C\C=C/CCCC(O)=O
RETENTIONTIME: 
CCS: 187.8131649
IONMODE: Negative
INSTRUMENTTYPE: LC-ESI-QIT
INSTRUMENT: 
COLLISIONENERGY: 20
Comment: registered in MassBank
Num Peaks: 15
149.136	39
163.155	43
167.145	230
169.06	7
175.177	8
179.114	92
179.509	5
203.235	23
208.088	13
219.23199	14
257.28299	255
275.26801	97
291.25101	9
301.242	255
319.155	1000

NAME: 11,12-EET; LC-ESI-QIT; MS2; CE
PRECURSORMZ: 319.227868
PRECURSORTYPE: [M-H]-
FORMULA: C20H32O3
Ontology: Hepoxilins
INCHIKEY: DXOYQVHGIODESM-KROJNAHFNA-N
SMILES: CCCCC\C=C/CC1OC1C\C=C/C\C=C/CCCC(O)=O
RETENTIONTIME: 
CCS: 187.8131649
IONMODE: Negative
INSTRUMENTTYPE: LC-ESI-QIT
INSTRUMENT: 
COLLISIONENERGY: 25
Comment: registered in MassBank
Num Peaks: 33
135.056	9
139.14999	11
147.02699	6
149.10201	114
153.11099	21
155.12	8
161.03999	15
163.112	81
167.116	460
169.048	19
169.2	6
175.16701	16
177.091	38
179.175	141
181.144	23
189.12	8
203.16299	45
203.36	7
205.067	8
207.105	19
211.07201	11
219.14	20
221.131	28
223.12	8
229.149	36
257.211	507
273.20001	7
275.207	181
283.12	13
283.30701	8
291.18301	58
301.177	397
319.155	1000

NAME: 11,12-EET; LC-ESI-QIT; MS2; CE
PRECURSORMZ: 319.227868
PRECURSORTYPE: [M-H]-
FORMULA: C20H32O3
Ontology: Hepoxilins
INCHIKEY: DXOYQVHGIODESM-KROJNAHFNA-N
SMILES: CCCCC\C=C/CC1OC1C\C=C/C\C=C/CCCC(O)=O
RETENTIONTIME: 
CCS: 187.8131649
IONMODE: Negative
INSTRUMENTTYPE: LC-ESI-QIT
INSTRUMENT: 
COLLISIONENERGY: 30
Comment: registered in MassBank
Num Peaks: 35
127.2	34
139.28	20
147.2	34
149.16299	243
151.03999	20
153.2	54
159.03999	14
161.2	41
163.112	169
167.064	1000
169.02	20
177.09599	88
179.12	135
181.12	27
191.12	20
193.2	27
201.28	20
203.12	122
207.03999	14
219.36	27
221.03999	27
223.28	14
229.17599	142
247.2	20
255.12	14
257.19601	804
262.95999	14
275.12701	189
275.28	68
283.04001	20
283.20001	14
291.15399	68
301.064	351
301.24799	101
319.189	966

NAME: 11,12-EET; LC-ESI-QIT; MS2; CE
PRECURSORMZ: 319.227868
PRECURSORTYPE: [M-H]-
FORMULA: C20H32O3
Ontology: Hepoxilins
INCHIKEY: DXOYQVHGIODESM-KROJNAHFNA-N
SMILES: CCCCC\C=C/CC1OC1C\C=C/C\C=C/CCCC(O)=O
RETENTIONTIME: 
CCS: 187.8131649
IONMODE: Negative
INSTRUMENTTYPE: LC-ESI-QIT
INSTRUMENT: 
COLLISIONENERGY: 35
Comment: registered in MassBank
Num Peaks: 14
147.12	143
148.96001	500
149.138	857
159.03999	214
163.03999	286
167.12	857
181.03999	214
203.08	214
221.12	143
255.03999	143
257.20001	500
275.22	214
301.20001	357
319.07999	1000

NAME: 11,12-EET; LC-ESI-QIT; MS2; CE
PRECURSORMZ: 319.227868
PRECURSORTYPE: [M-H]-
FORMULA: C20H32O3
Ontology: Hepoxilins
INCHIKEY: DXOYQVHGIODESM-KROJNAHFNA-N
SMILES: CCCCC\C=C/CC1OC1C\C=C/C\C=C/CCCC(O)=O
RETENTIONTIME: 
CCS: 187.8131649
IONMODE: Negative
INSTRUMENTTYPE: LC-ESI-QIT
INSTRUMENT: 
COLLISIONENERGY: 40
Comment: registered in MassBank
Num Peaks: 3
149.03999	667
167.2	1000
319.04001	667

NAME: 11,12-EET; LC-ESI-QIT; MS2; CE
PRECURSORMZ: 319.227868
PRECURSORTYPE: [M-H]-
FORMULA: C20H32O3
Ontology: Hepoxilins
INCHIKEY: DXOYQVHGIODESM-KROJNAHFNA-N
SMILES: CCCCC\C=C/CC1OC1C\C=C/C\C=C/CCCC(O)=O
RETENTIONTIME: 
CCS: 187.8131649
IONMODE: Negative
INSTRUMENTTYPE: LC-ESI-QIT
INSTRUMENT: 
COLLISIONENERGY: 45
Comment: registered in MassBank
Num Peaks: 19
120.96	500
129.12	1000
131.36	500
147.12	500
148.8	500
149.2	500
153.2	500
161.2	500
163.28	500
167.03999	500
185.03999	500
189.03999	500
195.75999	1000
215.03999	500
229.2	500
232.08	500
257.12	1000
277.92001	500
319.04001	500

NAME: 11,12-EET; LC-ESI-QIT; MS2; CE
PRECURSORMZ: 319.227868
PRECURSORTYPE: [M-H]-
FORMULA: C20H32O3
Ontology: Hepoxilins
INCHIKEY: DXOYQVHGIODESM-KROJNAHFNA-N
SMILES: CCCCC\C=C/CC1OC1C\C=C/C\C=C/CCCC(O)=O
RETENTIONTIME: 
CCS: 187.8131649
IONMODE: Negative
INSTRUMENTTYPE: LC-ESI-QIT
INSTRUMENT: 
COLLISIONENERGY: 50
Comment: registered in MassBank
Num Peaks: 19
51.6	1000
67.28	667
70.8	667
101.12	333
107.2	333
128.08	333
128.96001	333
129.03999	333
129.28	667
130.96001	1000
131.12	333
133.03999	333
147.03999	1000
148.96001	333
149.2	1000
152.96001	333
159.2	333
273.12	333
288.16	333

NAME: 11,12-EET; LC-ESI-QIT; MS2; CE
PRECURSORMZ: 319.227868
PRECURSORTYPE: [M-H]-
FORMULA: C20H32O3
Ontology: Hepoxilins
INCHIKEY: DXOYQVHGIODESM-KROJNAHFNA-N
SMILES: CCCCC\C=C/CC1OC1C\C=C/C\C=C/CCCC(O)=O
RETENTIONTIME: 
CCS: 187.8131649
IONMODE: Negative
INSTRUMENTTYPE: LC-ESI-QIT
INSTRUMENT: 
COLLISIONENERGY: 55
Comment: registered in MassBank
Num Peaks: 9
71.2	333
97.36	1000
115.12	333
146.8	667
149.12	333
161.12	333
163.12	333
163.2	667
257.20001	333

NAME: 11,12-EET; LC-ESI-QIT; MS2; CE
PRECURSORMZ: 319.227868
PRECURSORTYPE: [M-H]-
FORMULA: C20H32O3
Ontology: Hepoxilins
INCHIKEY: DXOYQVHGIODESM-KROJNAHFNA-N
SMILES: CCCCC\C=C/CC1OC1C\C=C/C\C=C/CCCC(O)=O
RETENTIONTIME: 
CCS: 187.8131649
IONMODE: Negative
INSTRUMENTTYPE: LC-ESI-QIT
INSTRUMENT: 
COLLISIONENERGY: 60
Comment: registered in MassBank
Num Peaks: 1
66.72	1000

NAME: 12,13-EODE; LC-ESI-QIT; MS2; CE
PRECURSORMZ: 295.227868
PRECURSORTYPE: [M-H]-
FORMULA: C18H32O3
Ontology: Long-chain fatty acids
INCHIKEY: CCPPLLJZDQAOHD-DHZHZOJONA-N
SMILES: CCCCCC1OC1C\C=C\CCCCCCCC(O)=O
RETENTIONTIME: 
CCS: 182.2775267
IONMODE: Negative
INSTRUMENTTYPE: LC-ESI-QIT
INSTRUMENT: 
COLLISIONENERGY: 10
Comment: registered in MassBank
Num Peaks: 3
195.24699	22
277.39499	59
295.164	1000

NAME: 12,13-EODE; LC-ESI-QIT; MS2; CE
PRECURSORMZ: 295.227868
PRECURSORTYPE: [M-H]-
FORMULA: C18H32O3
Ontology: Long-chain fatty acids
INCHIKEY: CCPPLLJZDQAOHD-DHZHZOJONA-N
SMILES: CCCCCC1OC1C\C=C\CCCCCCCC(O)=O
RETENTIONTIME: 
CCS: 182.2775267
IONMODE: Negative
INSTRUMENTTYPE: LC-ESI-QIT
INSTRUMENT: 
COLLISIONENERGY: 15
Comment: registered in MassBank
Num Peaks: 3
195.25999	37
277.36401	77
295.15701	1000

NAME: 12,13-EODE; LC-ESI-QIT; MS2; CE
PRECURSORMZ: 295.227868
PRECURSORTYPE: [M-H]-
FORMULA: C18H32O3
Ontology: Long-chain fatty acids
INCHIKEY: CCPPLLJZDQAOHD-DHZHZOJONA-N
SMILES: CCCCCC1OC1C\C=C\CCCCCCCC(O)=O
RETENTIONTIME: 
CCS: 182.2775267
IONMODE: Negative
INSTRUMENTTYPE: LC-ESI-QIT
INSTRUMENT: 
COLLISIONENERGY: 20
Comment: registered in MassBank
Num Peaks: 11
183.244	20
195.25101	162
196.13699	14
233.35201	5
277.33801	212
277.996	18
278.16	14
278.39099	14
278.72	9
293.366	7
295.164	1000

NAME: 12,13-EODE; LC-ESI-QIT; MS2; CE
PRECURSORMZ: 295.227868
PRECURSORTYPE: [M-H]-
FORMULA: C18H32O3
Ontology: Long-chain fatty acids
INCHIKEY: CCPPLLJZDQAOHD-DHZHZOJONA-N
SMILES: CCCCCC1OC1C\C=C\CCCCCCCC(O)=O
RETENTIONTIME: 
CCS: 182.2775267
IONMODE: Negative
INSTRUMENTTYPE: LC-ESI-QIT
INSTRUMENT: 
COLLISIONENERGY: 25
Comment: registered in MassBank
Num Peaks: 14
177.19501	9
179.19	11
183.205	56
195.203	296
196.188	15
196.39999	6
233.27299	18
251.366	12
277.25201	459
277.98099	17
278.31799	5
278.59399	6
293.237	14
295.15799	1000

NAME: 12,13-EODE; LC-ESI-QIT; MS2; CE
PRECURSORMZ: 295.227868
PRECURSORTYPE: [M-H]-
FORMULA: C18H32O3
Ontology: Long-chain fatty acids
INCHIKEY: CCPPLLJZDQAOHD-DHZHZOJONA-N
SMILES: CCCCCC1OC1C\C=C\CCCCCCCC(O)=O
RETENTIONTIME: 
CCS: 182.2775267
IONMODE: Negative
INSTRUMENTTYPE: LC-ESI-QIT
INSTRUMENT: 
COLLISIONENERGY: 30
Comment: registered in MassBank
Num Peaks: 14
177.17999	18
179.17799	29
181.08299	13
183.19	109
195.146	418
195.84801	5
233.237	26
251.25101	20
259.22101	13
275.35999	6
277.20999	804
278.349	8
293.19501	23
295.16699	1000

NAME: 12,13-EODE; LC-ESI-QIT; MS2; CE
PRECURSORMZ: 295.227868
PRECURSORTYPE: [M-H]-
FORMULA: C18H32O3
Ontology: Long-chain fatty acids
INCHIKEY: CCPPLLJZDQAOHD-DHZHZOJONA-N
SMILES: CCCCCC1OC1C\C=C\CCCCCCCC(O)=O
RETENTIONTIME: 
CCS: 182.2775267
IONMODE: Negative
INSTRUMENTTYPE: LC-ESI-QIT
INSTRUMENT: 
COLLISIONENERGY: 35
Comment: registered in MassBank
Num Peaks: 24
99.12	6
113.07	10
127.12	5
175.12	5
176.96001	6
177.14	20
179.12	29
179.28	13
181.2	7
183.116	187
195.118	516
203.12	7
205.25	12
220.08	17
227.03999	11
233.17999	35
249.03999	6
251.22701	19
259.12	50
259.28	11
275.14301	6
277.168	1000
293.194	35
295.155	769

NAME: 12,13-EODE; LC-ESI-QIT; MS2; CE
PRECURSORMZ: 295.227868
PRECURSORTYPE: [M-H]-
FORMULA: C18H32O3
Ontology: Long-chain fatty acids
INCHIKEY: CCPPLLJZDQAOHD-DHZHZOJONA-N
SMILES: CCCCCC1OC1C\C=C\CCCCCCCC(O)=O
RETENTIONTIME: 
CCS: 182.2775267
IONMODE: Negative
INSTRUMENTTYPE: LC-ESI-QIT
INSTRUMENT: 
COLLISIONENERGY: 40
Comment: registered in MassBank
Num Peaks: 17
98.96	30
99.28	22
112.96	30
162.96001	22
177.03999	59
179.03999	30
183.09801	259
195.078	363
205.12	22
222.08	22
223.03999	15
233.03999	52
233.17999	52
259.22299	22
277.18799	1000
293.28	44
295.20801	511

NAME: 12,13-EODE; LC-ESI-QIT; MS2; CE
PRECURSORMZ: 295.227868
PRECURSORTYPE: [M-H]-
FORMULA: C18H32O3
Ontology: Long-chain fatty acids
INCHIKEY: CCPPLLJZDQAOHD-DHZHZOJONA-N
SMILES: CCCCCC1OC1C\C=C\CCCCCCCC(O)=O
RETENTIONTIME: 
CCS: 182.2775267
IONMODE: Negative
INSTRUMENTTYPE: LC-ESI-QIT
INSTRUMENT: 
COLLISIONENERGY: 45
Comment: registered in MassBank
Num Peaks: 6
113.04	231
183.12	385
195.132	1000
221.12	308
227.2	231
277.10199	769

NAME: 12,13-EODE; LC-ESI-QIT; MS2; CE
PRECURSORMZ: 295.227868
PRECURSORTYPE: [M-H]-
FORMULA: C18H32O3
Ontology: Long-chain fatty acids
INCHIKEY: CCPPLLJZDQAOHD-DHZHZOJONA-N
SMILES: CCCCCC1OC1C\C=C\CCCCCCCC(O)=O
RETENTIONTIME: 
CCS: 182.2775267
IONMODE: Negative
INSTRUMENTTYPE: LC-ESI-QIT
INSTRUMENT: 
COLLISIONENERGY: 50
Comment: registered in MassBank
Num Peaks: 4
113.12	667
179.12	1000
183.12	667
194.88	667

NAME: 12-HEPE; LC-ESI-QIT; MS2; CE
PRECURSORMZ: 317.212218
PRECURSORTYPE: [M-H]-
FORMULA: C20H30O3
Ontology: Hydroxyeicosapentaenoic acids
INCHIKEY: MCRJLMXYVFDXLS-UOLHMMFFSA-N
SMILES: CC\C=C/C\C=C/C[C@H](O)\C=C\C=C/C\C=C/CCCC(O)=O
RETENTIONTIME: 
CCS: 226.1498472
IONMODE: Negative
INSTRUMENTTYPE: LC-ESI-QIT
INSTRUMENT: 
COLLISIONENERGY: 10
Comment: registered in MassBank
Num Peaks: 7
163.185	10
179.118	30
208.267	9
255.21899	47
273.20001	9
299.224	44
317.13199	1000

NAME: 12-HEPE; LC-ESI-QIT; MS2; CE
PRECURSORMZ: 317.212218
PRECURSORTYPE: [M-H]-
FORMULA: C20H30O3
Ontology: Hydroxyeicosapentaenoic acids
INCHIKEY: MCRJLMXYVFDXLS-UOLHMMFFSA-N
SMILES: CC\C=C/C\C=C/C[C@H](O)\C=C\C=C/C\C=C/CCCC(O)=O
RETENTIONTIME: 
CCS: 226.1498472
IONMODE: Negative
INSTRUMENTTYPE: LC-ESI-QIT
INSTRUMENT: 
COLLISIONENERGY: 15
Comment: registered in MassBank
Num Peaks: 7
163.132	13
179.11301	40
208.172	5
255.22099	89
273.23999	11
299.198	44
317.129	1000

NAME: 12-HEPE; LC-ESI-QIT; MS2; CE
PRECURSORMZ: 317.212218
PRECURSORTYPE: [M-H]-
FORMULA: C20H30O3
Ontology: Hydroxyeicosapentaenoic acids
INCHIKEY: MCRJLMXYVFDXLS-UOLHMMFFSA-N
SMILES: CC\C=C/C\C=C/C[C@H](O)\C=C\C=C/C\C=C/CCCC(O)=O
RETENTIONTIME: 
CCS: 226.1498472
IONMODE: Negative
INSTRUMENTTYPE: LC-ESI-QIT
INSTRUMENT: 
COLLISIONENERGY: 20
Comment: registered in MassBank
Num Peaks: 10
161.03999	5
163.2	21
177.03999	5
179.09599	95
201.22701	9
207.08701	15
255.18201	225
273.168	39
299.18301	129
317.13699	1000

NAME: 12-HEPE; LC-ESI-QIT; MS2; CE
PRECURSORMZ: 317.212218
PRECURSORTYPE: [M-H]-
FORMULA: C20H30O3
Ontology: Hydroxyeicosapentaenoic acids
INCHIKEY: MCRJLMXYVFDXLS-UOLHMMFFSA-N
SMILES: CC\C=C/C\C=C/C[C@H](O)\C=C\C=C/C\C=C/CCCC(O)=O
RETENTIONTIME: 
CCS: 226.1498472
IONMODE: Negative
INSTRUMENTTYPE: LC-ESI-QIT
INSTRUMENT: 
COLLISIONENERGY: 25
Comment: registered in MassBank
Num Peaks: 21
145.12	10
161.08	10
163.06799	91
175.2	5
177.12	7
179.086	257
181.03999	7
188.96001	5
201.03999	20
207.149	25
208.16	12
213.2	7
223.12	5
227.12	5
227.28	7
231.2	7
255.17	452
255.52	15
273.16	140
299.12299	188
317.16	1000

NAME: 12-HEPE; LC-ESI-QIT; MS2; CE
PRECURSORMZ: 317.212218
PRECURSORTYPE: [M-H]-
FORMULA: C20H30O3
Ontology: Hydroxyeicosapentaenoic acids
INCHIKEY: MCRJLMXYVFDXLS-UOLHMMFFSA-N
SMILES: CC\C=C/C\C=C/C[C@H](O)\C=C\C=C/C\C=C/CCCC(O)=O
RETENTIONTIME: 
CCS: 226.1498472
IONMODE: Negative
INSTRUMENTTYPE: LC-ESI-QIT
INSTRUMENT: 
COLLISIONENERGY: 30
Comment: registered in MassBank
Num Peaks: 16
152.96001	10
159.03999	10
161.12	20
163.2	39
177.03999	69
179.10001	147
189.24001	10
191.12	39
201.13	34
207.12	15
213.2	20
243.12	25
255.16299	402
273.091	108
299.12	98
317.20901	1000

NAME: 12-HEPE; LC-ESI-QIT; MS2; CE
PRECURSORMZ: 317.212218
PRECURSORTYPE: [M-H]-
FORMULA: C20H30O3
Ontology: Hydroxyeicosapentaenoic acids
INCHIKEY: MCRJLMXYVFDXLS-UOLHMMFFSA-N
SMILES: CC\C=C/C\C=C/C[C@H](O)\C=C\C=C/C\C=C/CCCC(O)=O
RETENTIONTIME: 
CCS: 226.1498472
IONMODE: Negative
INSTRUMENTTYPE: LC-ESI-QIT
INSTRUMENT: 
COLLISIONENERGY: 35
Comment: registered in MassBank
Num Peaks: 9
147.28	21
161.093	41
178.96001	34
179.12	55
187.12	28
201.12	28
255.03999	124
255.28	34
317.22299	1000

NAME: 12-HEPE; LC-ESI-QIT; MS2; CE
PRECURSORMZ: 317.212218
PRECURSORTYPE: [M-H]-
FORMULA: C20H30O3
Ontology: Hydroxyeicosapentaenoic acids
INCHIKEY: MCRJLMXYVFDXLS-UOLHMMFFSA-N
SMILES: CC\C=C/C\C=C/C[C@H](O)\C=C\C=C/C\C=C/CCCC(O)=O
RETENTIONTIME: 
CCS: 226.1498472
IONMODE: Negative
INSTRUMENTTYPE: LC-ESI-QIT
INSTRUMENT: 
COLLISIONENERGY: 40
Comment: registered in MassBank
Num Peaks: 7
119.04	36
119.2	36
163.03999	48
173.03999	24
179.03999	24
245.03999	36
317.21399	1000

NAME: 12-HEPE; LC-ESI-QIT; MS2; CE
PRECURSORMZ: 317.212218
PRECURSORTYPE: [M-H]-
FORMULA: C20H30O3
Ontology: Hydroxyeicosapentaenoic acids
INCHIKEY: MCRJLMXYVFDXLS-UOLHMMFFSA-N
SMILES: CC\C=C/C\C=C/C[C@H](O)\C=C\C=C/C\C=C/CCCC(O)=O
RETENTIONTIME: 
CCS: 226.1498472
IONMODE: Negative
INSTRUMENTTYPE: LC-ESI-QIT
INSTRUMENT: 
COLLISIONENERGY: 45
Comment: registered in MassBank
Num Peaks: 2
245.12	100
317.15601	1000

NAME: 12-HEPE; LC-ESI-QIT; MS2; CE
PRECURSORMZ: 317.212218
PRECURSORTYPE: [M-H]-
FORMULA: C20H30O3
Ontology: Hydroxyeicosapentaenoic acids
INCHIKEY: MCRJLMXYVFDXLS-UOLHMMFFSA-N
SMILES: CC\C=C/C\C=C/C[C@H](O)\C=C\C=C/C\C=C/CCCC(O)=O
RETENTIONTIME: 
CCS: 226.1498472
IONMODE: Negative
INSTRUMENTTYPE: LC-ESI-QIT
INSTRUMENT: 
COLLISIONENERGY: 50
Comment: registered in MassBank
Num Peaks: 2
245.12	1000
317.20001	750

NAME: 12-HETE; LC-ESI-QIT; MS2; CE
PRECURSORMZ: 319.227868
PRECURSORTYPE: [M-H]-
FORMULA: C20H32O3
Ontology: Hydroxyeicosatetraenoic acids
INCHIKEY: ZNHVWPKMFKADKW-LQWMCKPYSA-N
SMILES: CCCCC\C=C/C[C@H](O)\C=C\C=C/C\C=C/CCCC(O)=O
RETENTIONTIME: 
CCS: 185.505402
IONMODE: Negative
INSTRUMENTTYPE: LC-ESI-QIT
INSTRUMENT: 
COLLISIONENERGY: 20
Comment: registered in MassBank
Num Peaks: 20
135.30099	15
139.258	7
163.245	45
177.12	8
179.215	180
180.16	14
181.27	6
203.27499	16
203.44	5
207.237	5
208.32001	12
257.37299	370
258.02701	20
258.32001	6
258.64001	10
275.35999	29
301.32501	291
301.98001	18
302.31299	6
319.16901	1000

NAME: 12-HETE; LC-ESI-QIT; MS2; CE
PRECURSORMZ: 319.227868
PRECURSORTYPE: [M-H]-
FORMULA: C20H32O3
Ontology: Hydroxyeicosatetraenoic acids
INCHIKEY: ZNHVWPKMFKADKW-LQWMCKPYSA-N
SMILES: CCCCC\C=C/C[C@H](O)\C=C\C=C/C\C=C/CCCC(O)=O
RETENTIONTIME: 
CCS: 185.505402
IONMODE: Negative
INSTRUMENTTYPE: LC-ESI-QIT
INSTRUMENT: 
COLLISIONENERGY: 25
Comment: registered in MassBank
Num Peaks: 28
135.144	22
139.28	8
145.155	7
153.233	22
161.14	20
162.88	10
163.203	68
176.96001	6
177.18401	15
179.161	342
180.11	39
181.138	24
189.213	8
191.155	8
203.215	102
207.132	20
208.15401	21
215.269	8
223.136	13
229.314	40
257.259	821
257.94601	23
258.39999	5
275.284	112
283.31699	23
291.32401	25
301.22601	559
319.159	1000

NAME: 12-HETE; LC-ESI-QIT; MS2; CE
PRECURSORMZ: 319.227868
PRECURSORTYPE: [M-H]-
FORMULA: C20H32O3
Ontology: Hydroxyeicosatetraenoic acids
INCHIKEY: ZNHVWPKMFKADKW-LQWMCKPYSA-N
SMILES: CCCCC\C=C/C[C@H](O)\C=C\C=C/C\C=C/CCCC(O)=O
RETENTIONTIME: 
CCS: 185.505402
IONMODE: Negative
INSTRUMENTTYPE: LC-ESI-QIT
INSTRUMENT: 
COLLISIONENERGY: 30
Comment: registered in MassBank
Num Peaks: 24
139.15199	30
153.14	34
159.12	12
161.112	38
163.058	107
177.138	52
179.11	366
181.108	47
189.15601	32
203.159	166
205.12	7
207.03999	28
215.133	26
217.12	6
223.28	6
229.186	129
255.12	11
257.19299	1000
257.84	6
275.25101	106
283.14099	76
291.228	38
301.159	552
319.15399	532

NAME: 12-HETE; LC-ESI-QIT; MS2; CE
PRECURSORMZ: 319.227868
PRECURSORTYPE: [M-H]-
FORMULA: C20H32O3
Ontology: Hydroxyeicosatetraenoic acids
INCHIKEY: ZNHVWPKMFKADKW-LQWMCKPYSA-N
SMILES: CCCCC\C=C/C[C@H](O)\C=C\C=C/C\C=C/CCCC(O)=O
RETENTIONTIME: 
CCS: 185.505402
IONMODE: Negative
INSTRUMENTTYPE: LC-ESI-QIT
INSTRUMENT: 
COLLISIONENERGY: 35
Comment: registered in MassBank
Num Peaks: 29
56.64	14
81.12	21
119.12	14
139.03999	21
139.2	28
153.2	41
161.12	83
163.138	228
175.2	28
177.03999	48
177.2	69
179.112	366
181.03999	28
187.03999	28
189.16	28
203.16901	303
203.44	28
205.2	21
215.16	41
229.125	324
257.18201	1000
257.51999	28
275.04001	28
275.20001	55
283.20001	34
283.35999	28
301.16	248
301.44	14
319.17999	166

NAME: 12-HETE; LC-ESI-QIT; MS2; CE
PRECURSORMZ: 319.227868
PRECURSORTYPE: [M-H]-
FORMULA: C20H32O3
Ontology: Hydroxyeicosatetraenoic acids
INCHIKEY: ZNHVWPKMFKADKW-LQWMCKPYSA-N
SMILES: CCCCC\C=C/C[C@H](O)\C=C\C=C/C\C=C/CCCC(O)=O
RETENTIONTIME: 
CCS: 185.505402
IONMODE: Negative
INSTRUMENTTYPE: LC-ESI-QIT
INSTRUMENT: 
COLLISIONENERGY: 40
Comment: registered in MassBank
Num Peaks: 7
160.96001	250
163.03999	500
189.12	1000
203.12	1000
229.12	750
229.36	250
257.04001	750

NAME: 12-HETE; LC-ESI-QIT; MS2; CE
PRECURSORMZ: 319.227868
PRECURSORTYPE: [M-H]-
FORMULA: C20H32O3
Ontology: Hydroxyeicosatetraenoic acids
INCHIKEY: ZNHVWPKMFKADKW-LQWMCKPYSA-N
SMILES: CCCCC\C=C/C[C@H](O)\C=C\C=C/C\C=C/CCCC(O)=O
RETENTIONTIME: 
CCS: 185.505402
IONMODE: Negative
INSTRUMENTTYPE: LC-ESI-QIT
INSTRUMENT: 
COLLISIONENERGY: 45
Comment: registered in MassBank
Num Peaks: 1
203.12	1000

NAME: 12-HETE; LC-ESI-QIT; MS2; CE
PRECURSORMZ: 319.227868
PRECURSORTYPE: [M-H]-
FORMULA: C20H32O3
Ontology: Hydroxyeicosatetraenoic acids
INCHIKEY: ZNHVWPKMFKADKW-LQWMCKPYSA-N
SMILES: CCCCC\C=C/C[C@H](O)\C=C\C=C/C\C=C/CCCC(O)=O
RETENTIONTIME: 
CCS: 185.505402
IONMODE: Negative
INSTRUMENTTYPE: LC-ESI-QIT
INSTRUMENT: 
COLLISIONENERGY: 50
Comment: registered in MassBank
Num Peaks: 1
109.2	1000

NAME: 12-HETE; LC-ESI-QIT; MS2; CE
PRECURSORMZ: 319.227868
PRECURSORTYPE: [M-H]-
FORMULA: C20H32O3
Ontology: Hydroxyeicosatetraenoic acids
INCHIKEY: ZNHVWPKMFKADKW-LQWMCKPYSA-N
SMILES: CCCCC\C=C/C[C@H](O)\C=C\C=C/C\C=C/CCCC(O)=O
RETENTIONTIME: 
CCS: 185.505402
IONMODE: Negative
INSTRUMENTTYPE: LC-ESI-QIT
INSTRUMENT: 
COLLISIONENERGY: 55
Comment: registered in MassBank
Num Peaks: 1
56	1000

NAME: 12-HETE; LC-ESI-QIT; MS2; CE
PRECURSORMZ: 319.227868
PRECURSORTYPE: [M-H]-
FORMULA: C20H32O3
Ontology: Hydroxyeicosatetraenoic acids
INCHIKEY: ZNHVWPKMFKADKW-LQWMCKPYSA-N
SMILES: CCCCC\C=C/C[C@H](O)\C=C\C=C/C\C=C/CCCC(O)=O
RETENTIONTIME: 
CCS: 185.505402
IONMODE: Negative
INSTRUMENTTYPE: LC-ESI-QIT
INSTRUMENT: 
COLLISIONENERGY: 60
Comment: registered in MassBank
Num Peaks: 1
157.03999	1000

NAME: 13-HODE; LC-ESI-QIT; MS2; CE
PRECURSORMZ: 295.227868
PRECURSORTYPE: [M-H]-
FORMULA: C18H32O3
Ontology: Lineolic acids and derivatives
INCHIKEY: HNICUWMFWZBIFP-KDFHGORWNA-N
SMILES: CCCCCC(O)\C=C\C=C\CCCCCCCC(O)=O
RETENTIONTIME: 
CCS: 180.0192178
IONMODE: Negative
INSTRUMENTTYPE: LC-ESI-QIT
INSTRUMENT: 
COLLISIONENERGY: 10
Comment: registered in MassBank
Num Peaks: 2
277.29099	7
295.16101	1000

NAME: 13-HODE; LC-ESI-QIT; MS2; CE
PRECURSORMZ: 295.227868
PRECURSORTYPE: [M-H]-
FORMULA: C18H32O3
Ontology: Lineolic acids and derivatives
INCHIKEY: HNICUWMFWZBIFP-KDFHGORWNA-N
SMILES: CCCCCC(O)\C=C\C=C\CCCCCCCC(O)=O
RETENTIONTIME: 
CCS: 180.0192178
IONMODE: Negative
INSTRUMENTTYPE: LC-ESI-QIT
INSTRUMENT: 
COLLISIONENERGY: 15
Comment: registered in MassBank
Num Peaks: 3
195.177	8
277.27499	19
295.16199	1000

NAME: 13-HODE; LC-ESI-QIT; MS2; CE
PRECURSORMZ: 295.227868
PRECURSORTYPE: [M-H]-
FORMULA: C18H32O3
Ontology: Lineolic acids and derivatives
INCHIKEY: HNICUWMFWZBIFP-KDFHGORWNA-N
SMILES: CCCCCC(O)\C=C\C=C\CCCCCCCC(O)=O
RETENTIONTIME: 
CCS: 180.0192178
IONMODE: Negative
INSTRUMENTTYPE: LC-ESI-QIT
INSTRUMENT: 
COLLISIONENERGY: 20
Comment: registered in MassBank
Num Peaks: 3
195.211	56
277.293	94
295.16	1000

NAME: 13-HODE; LC-ESI-QIT; MS2; CE
PRECURSORMZ: 295.227868
PRECURSORTYPE: [M-H]-
FORMULA: C18H32O3
Ontology: Lineolic acids and derivatives
INCHIKEY: HNICUWMFWZBIFP-KDFHGORWNA-N
SMILES: CCCCCC(O)\C=C\C=C\CCCCCCCC(O)=O
RETENTIONTIME: 
CCS: 180.0192178
IONMODE: Negative
INSTRUMENTTYPE: LC-ESI-QIT
INSTRUMENT: 
COLLISIONENERGY: 25
Comment: registered in MassBank
Num Peaks: 8
195.16701	188
195.75999	7
196.353	7
233.24699	10
251.3	5
277.25101	294
278.034	13
295.16101	1000

NAME: 13-HODE; LC-ESI-QIT; MS2; CE
PRECURSORMZ: 295.227868
PRECURSORTYPE: [M-H]-
FORMULA: C18H32O3
Ontology: Lineolic acids and derivatives
INCHIKEY: HNICUWMFWZBIFP-KDFHGORWNA-N
SMILES: CCCCCC(O)\C=C\C=C\CCCCCCCC(O)=O
RETENTIONTIME: 
CCS: 180.0192178
IONMODE: Negative
INSTRUMENTTYPE: LC-ESI-QIT
INSTRUMENT: 
COLLISIONENERGY: 30
Comment: registered in MassBank
Num Peaks: 11
177.155	10
179.20399	15
195.15199	310
233.28999	17
251.03999	6
259.172	5
277.207	566
277.97501	5
278.23999	6
293.12	9
295.16299	1000

NAME: 13-HODE; LC-ESI-QIT; MS2; CE
PRECURSORMZ: 295.227868
PRECURSORTYPE: [M-H]-
FORMULA: C18H32O3
Ontology: Lineolic acids and derivatives
INCHIKEY: HNICUWMFWZBIFP-KDFHGORWNA-N
SMILES: CCCCCC(O)\C=C\C=C\CCCCCCCC(O)=O
RETENTIONTIME: 
CCS: 180.0192178
IONMODE: Negative
INSTRUMENTTYPE: LC-ESI-QIT
INSTRUMENT: 
COLLISIONENERGY: 35
Comment: registered in MassBank
Num Peaks: 18
113.152	13
169.03999	7
177.145	38
179.12	44
181.104	13
195.11099	465
197.12	6
205.132	13
223.16	14
227.17999	10
233.214	34
251.229	13
259.18399	19
275.16599	15
277.17999	1000
292.95999	5
293.14001	6
295.15399	961

NAME: 13-HODE; LC-ESI-QIT; MS2; CE
PRECURSORMZ: 295.227868
PRECURSORTYPE: [M-H]-
FORMULA: C18H32O3
Ontology: Lineolic acids and derivatives
INCHIKEY: HNICUWMFWZBIFP-KDFHGORWNA-N
SMILES: CCCCCC(O)\C=C\C=C\CCCCCCCC(O)=O
RETENTIONTIME: 
CCS: 180.0192178
IONMODE: Negative
INSTRUMENTTYPE: LC-ESI-QIT
INSTRUMENT: 
COLLISIONENERGY: 40
Comment: registered in MassBank
Num Peaks: 21
113.04	9
171.03999	9
177.138	30
179.12	26
181.12	13
194.72	9
195.13699	716
197.12	17
205.2	17
220.16	22
223.03999	17
223.2	17
233.12	13
251.2	13
259.12	47
259.28	22
267.20001	9
275.20001	13
277.142	1000
293.12	9
295.125	534

NAME: 13-HODE; LC-ESI-QIT; MS2; CE
PRECURSORMZ: 295.227868
PRECURSORTYPE: [M-H]-
FORMULA: C18H32O3
Ontology: Lineolic acids and derivatives
INCHIKEY: HNICUWMFWZBIFP-KDFHGORWNA-N
SMILES: CCCCCC(O)\C=C\C=C\CCCCCCCC(O)=O
RETENTIONTIME: 
CCS: 180.0192178
IONMODE: Negative
INSTRUMENTTYPE: LC-ESI-QIT
INSTRUMENT: 
COLLISIONENERGY: 45
Comment: registered in MassBank
Num Peaks: 8
195.2	343
205.12	143
221.12	114
222.08	171
223.03999	114
233.12	86
259.28	114
277.15601	1000

NAME: 13-HODE; LC-ESI-QIT; MS2; CE
PRECURSORMZ: 295.227868
PRECURSORTYPE: [M-H]-
FORMULA: C18H32O3
Ontology: Lineolic acids and derivatives
INCHIKEY: HNICUWMFWZBIFP-KDFHGORWNA-N
SMILES: CCCCCC(O)\C=C\C=C\CCCCCCCC(O)=O
RETENTIONTIME: 
CCS: 180.0192178
IONMODE: Negative
INSTRUMENTTYPE: LC-ESI-QIT
INSTRUMENT: 
COLLISIONENERGY: 50
Comment: registered in MassBank
Num Peaks: 1
195.03999	1000

NAME: 13-HOTrE(r); LC-ESI-QIT; MS2; CE
PRECURSORMZ: 293.212218
PRECURSORTYPE: [M-H]-
FORMULA: C18H30O3
Ontology: Lineolic acids and derivatives
INCHIKEY: HNBLUNXZQNJFRB-KYLWABQHSA-N
SMILES: CCCCC[C@H](O)\C=C\C=C/C\C=C/CCCCC(O)=O
RETENTIONTIME: 
CCS: -1
IONMODE: Negative
INSTRUMENTTYPE: LC-ESI-QIT
INSTRUMENT: 
COLLISIONENERGY: 10
Comment: registered in MassBank
Num Peaks: 7
149.239	8
193.231	60
221.256	11
231.33501	33
236.24001	21
275.306	150
293.15201	1000

NAME: 13-HOTrE(r); LC-ESI-QIT; MS2; CE
PRECURSORMZ: 293.212218
PRECURSORTYPE: [M-H]-
FORMULA: C18H30O3
Ontology: Lineolic acids and derivatives
INCHIKEY: HNBLUNXZQNJFRB-KYLWABQHSA-N
SMILES: CCCCC[C@H](O)\C=C\C=C/C\C=C/CCCCC(O)=O
RETENTIONTIME: 
CCS: -1
IONMODE: Negative
INSTRUMENTTYPE: LC-ESI-QIT
INSTRUMENT: 
COLLISIONENERGY: 15
Comment: registered in MassBank
Num Peaks: 8
149.194	13
193.214	79
221.25999	20
231.325	75
236.198	38
275.28601	209
275.936	10
293.14801	1000

NAME: 13-HOTrE(r); LC-ESI-QIT; MS2; CE
PRECURSORMZ: 293.212218
PRECURSORTYPE: [M-H]-
FORMULA: C18H30O3
Ontology: Lineolic acids and derivatives
INCHIKEY: HNBLUNXZQNJFRB-KYLWABQHSA-N
SMILES: CCCCC[C@H](O)\C=C\C=C/C\C=C/CCCCC(O)=O
RETENTIONTIME: 
CCS: -1
IONMODE: Negative
INSTRUMENTTYPE: LC-ESI-QIT
INSTRUMENT: 
COLLISIONENERGY: 20
Comment: registered in MassBank
Num Peaks: 15
149.209	45
175.11301	6
177.24001	9
193.188	188
194.39301	9
220.205	12
221.20599	59
231.286	185
231.737	7
231.92	7
236.118	78
249.28	18
275.22699	449
275.966	7
293.14899	1000

NAME: 13-HOTrE(r); LC-ESI-QIT; MS2; CE
PRECURSORMZ: 293.212218
PRECURSORTYPE: [M-H]-
FORMULA: C18H30O3
Ontology: Lineolic acids and derivatives
INCHIKEY: HNBLUNXZQNJFRB-KYLWABQHSA-N
SMILES: CCCCC[C@H](O)\C=C\C=C/C\C=C/CCCCC(O)=O
RETENTIONTIME: 
CCS: -1
IONMODE: Negative
INSTRUMENTTYPE: LC-ESI-QIT
INSTRUMENT: 
COLLISIONENERGY: 25
Comment: registered in MassBank
Num Peaks: 20
113.084	9
149.16499	66
175.142	19
177.202	29
191.147	17
193.164	388
194.48	6
195.257	10
203.09599	5
220.16	55
221.17599	179
221.92	8
231.24001	399
231.85699	6
232.116	7
236.073	141
249.245	46
257.194	19
275.18399	754
293.146	1000

NAME: 13-HOTrE(r); LC-ESI-QIT; MS2; CE
PRECURSORMZ: 293.212218
PRECURSORTYPE: [M-H]-
FORMULA: C18H30O3
Ontology: Lineolic acids and derivatives
INCHIKEY: HNBLUNXZQNJFRB-KYLWABQHSA-N
SMILES: CCCCC[C@H](O)\C=C\C=C/C\C=C/CCCCC(O)=O
RETENTIONTIME: 
CCS: -1
IONMODE: Negative
INSTRUMENTTYPE: LC-ESI-QIT
INSTRUMENT: 
COLLISIONENERGY: 30
Comment: registered in MassBank
Num Peaks: 27
113.12	36
149.129	44
162.96001	6
163.213	5
167.12	14
173.03999	11
175.14799	55
177.164	65
191.03999	26
191.29201	5
192.16	20
193.127	393
195.10201	29
203.151	40
218.16	6
220.121	235
221.14301	466
231.181	442
236.08701	284
239.12	6
249.155	41
255.12	5
257.14001	74
257.44	5
273.07999	10
275.142	1000
293.13199	629

NAME: 13-HOTrE(r); LC-ESI-QIT; MS2; CE
PRECURSORMZ: 293.212218
PRECURSORTYPE: [M-H]-
FORMULA: C18H30O3
Ontology: Lineolic acids and derivatives
INCHIKEY: HNBLUNXZQNJFRB-KYLWABQHSA-N
SMILES: CCCCC[C@H](O)\C=C\C=C/C\C=C/CCCCC(O)=O
RETENTIONTIME: 
CCS: -1
IONMODE: Negative
INSTRUMENTTYPE: LC-ESI-QIT
INSTRUMENT: 
COLLISIONENERGY: 35
Comment: registered in MassBank
Num Peaks: 32
97.12	9
113.12	50
139.12	9
149.12	23
157.10001	9
163.12	11
173.03999	11
175.03999	27
177.12	77
189.03999	7
190.94	7
191.24001	7
192.08	56
193.07899	253
193.41	11
194.96001	36
195.138	36
203.15199	79
204.88	7
205.12	7
218.24001	9
220.133	564
221.12199	1000
231.174	262
236.052	273
249.12	11
249.28	11
255.03999	7
257.108	63
275.12399	384
293.138	167
293.35999	38

NAME: 13-HOTrE(r); LC-ESI-QIT; MS2; CE
PRECURSORMZ: 293.212218
PRECURSORTYPE: [M-H]-
FORMULA: C18H30O3
Ontology: Lineolic acids and derivatives
INCHIKEY: HNBLUNXZQNJFRB-KYLWABQHSA-N
SMILES: CCCCC[C@H](O)\C=C\C=C/C\C=C/CCCCC(O)=O
RETENTIONTIME: 
CCS: -1
IONMODE: Negative
INSTRUMENTTYPE: LC-ESI-QIT
INSTRUMENT: 
COLLISIONENERGY: 40
Comment: registered in MassBank
Num Peaks: 26
97.093	24
113.12	10
119.2	10
164.08	7
173.12	10
174.8	12
175.12	17
177.063	72
191.2	7
192.13499	129
193.132	84
201.2	7
203.12	24
205.08	48
218	12
218.16	7
220.117	662
221.118	1000
221.75999	7
231.03999	41
231.177	65
236.03999	65
255.03999	7
257.05301	26
275.04001	46
293.21301	14

NAME: 13-HOTrE(r); LC-ESI-QIT; MS2; CE
PRECURSORMZ: 293.212218
PRECURSORTYPE: [M-H]-
FORMULA: C18H30O3
Ontology: Lineolic acids and derivatives
INCHIKEY: HNBLUNXZQNJFRB-KYLWABQHSA-N
SMILES: CCCCC[C@H](O)\C=C\C=C/C\C=C/CCCCC(O)=O
RETENTIONTIME: 
CCS: -1
IONMODE: Negative
INSTRUMENTTYPE: LC-ESI-QIT
INSTRUMENT: 
COLLISIONENERGY: 45
Comment: registered in MassBank
Num Peaks: 18
96.96	20
139.03999	7
148	31
149.12	7
164.08	24
177.077	153
192.11301	153
193.03999	20
203.2	20
205.08	228
217.03999	10
217.92	10
220.09599	694
220.56	10
221.118	1000
222.48	14
229.2	7
236	14

NAME: 13-HOTrE(r); LC-ESI-QIT; MS2; CE
PRECURSORMZ: 293.212218
PRECURSORTYPE: [M-H]-
FORMULA: C18H30O3
Ontology: Lineolic acids and derivatives
INCHIKEY: HNBLUNXZQNJFRB-KYLWABQHSA-N
SMILES: CCCCC[C@H](O)\C=C\C=C/C\C=C/CCCCC(O)=O
RETENTIONTIME: 
CCS: -1
IONMODE: Negative
INSTRUMENTTYPE: LC-ESI-QIT
INSTRUMENT: 
COLLISIONENERGY: 50
Comment: registered in MassBank
Num Peaks: 13
97.063	37
99.28	11
113.04	11
148.02299	74
156.96001	11
165.03999	11
177.02901	212
190	11
192.08	127
192.32001	21
205.05901	762
220.10699	862
221.133	1000

NAME: 13-HOTrE; LC-ESI-QIT; MS2; CE
PRECURSORMZ: 293.212218
PRECURSORTYPE: [M-H]-
FORMULA: C18H30O3
Ontology: Lineolic acids and derivatives
INCHIKEY: KLLGGGQNRTVBSU-FQSPHKRJSA-N
SMILES: CC\C=C/C[C@H](O)\C=C\C=C/CCCCCCCC(O)=O
RETENTIONTIME: 
CCS: 178.9266346
IONMODE: Negative
INSTRUMENTTYPE: LC-ESI-QIT
INSTRUMENT: 
COLLISIONENERGY: 10
Comment: registered in MassBank
Num Peaks: 4
221.33299	9
236.145	25
275.271	12
293.14899	1000

NAME: 13-HOTrE; LC-ESI-QIT; MS2; CE
PRECURSORMZ: 293.212218
PRECURSORTYPE: [M-H]-
FORMULA: C18H30O3
Ontology: Lineolic acids and derivatives
INCHIKEY: KLLGGGQNRTVBSU-FQSPHKRJSA-N
SMILES: CC\C=C/C[C@H](O)\C=C\C=C/CCCCCCCC(O)=O
RETENTIONTIME: 
CCS: 178.9266346
IONMODE: Negative
INSTRUMENTTYPE: LC-ESI-QIT
INSTRUMENT: 
COLLISIONENERGY: 15
Comment: registered in MassBank
Num Peaks: 5
195.23801	5
221.17599	20
236.16	44
275.267	15
293.15302	1000

NAME: 13-HOTrE; LC-ESI-QIT; MS2; CE
PRECURSORMZ: 293.212218
PRECURSORTYPE: [M-H]-
FORMULA: C18H30O3
Ontology: Lineolic acids and derivatives
INCHIKEY: KLLGGGQNRTVBSU-FQSPHKRJSA-N
SMILES: CC\C=C/C[C@H](O)\C=C\C=C/CCCCCCCC(O)=O
RETENTIONTIME: 
CCS: 178.9266346
IONMODE: Negative
INSTRUMENTTYPE: LC-ESI-QIT
INSTRUMENT: 
COLLISIONENERGY: 20
Comment: registered in MassBank
Num Peaks: 12
195.22701	48
196.157	17
205.155	14
220.12	6
221.202	56
223.22501	21
224.17799	7
231.257	13
236.14999	58
249.28	7
275.263	72
293.147	1000

NAME: 13-HOTrE; LC-ESI-QIT; MS2; CE
PRECURSORMZ: 293.212218
PRECURSORTYPE: [M-H]-
FORMULA: C18H30O3
Ontology: Lineolic acids and derivatives
INCHIKEY: KLLGGGQNRTVBSU-FQSPHKRJSA-N
SMILES: CC\C=C/C[C@H](O)\C=C\C=C/CCCCCCCC(O)=O
RETENTIONTIME: 
CCS: 178.9266346
IONMODE: Negative
INSTRUMENTTYPE: LC-ESI-QIT
INSTRUMENT: 
COLLISIONENERGY: 25
Comment: registered in MassBank
Num Peaks: 16
177.07401	8
179.18401	10
193.246	16
195.17101	141
196.16	14
196.32001	5
205.17	44
220.151	40
221.14799	104
223.15199	65
231.216	43
236.105	100
249.284	12
265.21701	14
275.21201	150
293.15399	1000

NAME: 13-HOTrE; LC-ESI-QIT; MS2; CE
PRECURSORMZ: 293.212218
PRECURSORTYPE: [M-H]-
FORMULA: C18H30O3
Ontology: Lineolic acids and derivatives
INCHIKEY: KLLGGGQNRTVBSU-FQSPHKRJSA-N
SMILES: CC\C=C/C[C@H](O)\C=C\C=C/CCCCCCCC(O)=O
RETENTIONTIME: 
CCS: 178.9266346
IONMODE: Negative
INSTRUMENTTYPE: LC-ESI-QIT
INSTRUMENT: 
COLLISIONENERGY: 30
Comment: registered in MassBank
Num Peaks: 20
169.10201	8
177.2	6
179.146	44
181.093	9
192.064	8
192.24001	6
193.142	39
195.127	291
195.52	6
196.16	6
205.097	149
220.13699	148
221.131	327
223.099	198
231.20799	54
236.08099	206
249.186	44
265.20001	37
275.16901	261
293.13699	1000

NAME: 13-HOTrE; LC-ESI-QIT; MS2; CE
PRECURSORMZ: 293.212218
PRECURSORTYPE: [M-H]-
FORMULA: C18H30O3
Ontology: Lineolic acids and derivatives
INCHIKEY: KLLGGGQNRTVBSU-FQSPHKRJSA-N
SMILES: CC\C=C/C[C@H](O)\C=C\C=C/CCCCCCCC(O)=O
RETENTIONTIME: 
CCS: 178.9266346
IONMODE: Negative
INSTRUMENTTYPE: LC-ESI-QIT
INSTRUMENT: 
COLLISIONENERGY: 35
Comment: registered in MassBank
Num Peaks: 24
96.98	11
166.96001	7
167.12	13
177.2	37
179.03999	37
192.092	94
193.112	70
195.11099	347
205.118	205
218.16	9
220.116	614
220.533	9
221.13	1000
221.58	15
223.089	245
231.2	24
236.101	227
249.24001	22
257.12	9
265.04001	13
265.26001	7
275.155	168
275.44	7
293.14001	631

NAME: 13-HOTrE; LC-ESI-QIT; MS2; CE
PRECURSORMZ: 293.212218
PRECURSORTYPE: [M-H]-
FORMULA: C18H30O3
Ontology: Lineolic acids and derivatives
INCHIKEY: KLLGGGQNRTVBSU-FQSPHKRJSA-N
SMILES: CC\C=C/C[C@H](O)\C=C\C=C/CCCCCCCC(O)=O
RETENTIONTIME: 
CCS: 178.9266346
IONMODE: Negative
INSTRUMENTTYPE: LC-ESI-QIT
INSTRUMENT: 
COLLISIONENERGY: 40
Comment: registered in MassBank
Num Peaks: 26
96.96	13
149.03999	11
167.12	9
177.07001	51
179.03999	11
179.24001	7
190.08	7
192.02699	88
193.03999	27
193.2	13
195.123	119
195.36	11
205.099	106
217.03999	7
218.03	18
220.11	785
221.101	1000
221.60001	13
221.84	9
223.03999	31
235.92	42
236.16	13
274.88	7
275.20001	27
292.88	11
293.142	69

NAME: 13-HOTrE; LC-ESI-QIT; MS2; CE
PRECURSORMZ: 293.212218
PRECURSORTYPE: [M-H]-
FORMULA: C18H30O3
Ontology: Lineolic acids and derivatives
INCHIKEY: KLLGGGQNRTVBSU-FQSPHKRJSA-N
SMILES: CC\C=C/C[C@H](O)\C=C\C=C/CCCCCCCC(O)=O
RETENTIONTIME: 
CCS: 178.9266346
IONMODE: Negative
INSTRUMENTTYPE: LC-ESI-QIT
INSTRUMENT: 
COLLISIONENERGY: 45
Comment: registered in MassBank
Num Peaks: 16
97.02	46
147.92	27
177.03999	179
190	34
190.14	11
192.08	172
195.24001	19
205.06799	317
205.52	15
217.03999	15
220.10699	859
221.11501	1000
223.03999	8
223.2	11
236.24001	8
293.12	23

NAME: 13-HOTrE; LC-ESI-QIT; MS2; CE
PRECURSORMZ: 293.212218
PRECURSORTYPE: [M-H]-
FORMULA: C18H30O3
Ontology: Lineolic acids and derivatives
INCHIKEY: KLLGGGQNRTVBSU-FQSPHKRJSA-N
SMILES: CC\C=C/C[C@H](O)\C=C\C=C/CCCCCCCC(O)=O
RETENTIONTIME: 
CCS: 178.9266346
IONMODE: Negative
INSTRUMENTTYPE: LC-ESI-QIT
INSTRUMENT: 
COLLISIONENERGY: 50
Comment: registered in MassBank
Num Peaks: 12
97.04	35
148.056	146
149.03999	15
164.03	45
177.03999	313
190	10
192	20
192.16	10
205.084	894
218	35
220.089	1000
221.142	773

NAME: 13-HPODE; LC-ESI-QIT; MS2; CE
PRECURSORMZ: 311.222783
PRECURSORTYPE: [M-H]-
FORMULA: C18H32O4
Ontology: Lineolic acids and derivatives
INCHIKEY: JDSRHVWSAMTSSN-KDFHGORWNA-N
SMILES: CCCCCC(OO)\C=C\C=CCCCCCCCC(O)=O
RETENTIONTIME: 
CCS: 182.738858
IONMODE: Negative
INSTRUMENTTYPE: LC-ESI-QIT
INSTRUMENT: 
COLLISIONENERGY: 10
Comment: registered in MassBank
Num Peaks: 5
249.12	8
249.28	8
292.79999	5
293.15302	1000
311.10101	266

NAME: 13-HPODE; LC-ESI-QIT; MS2; CE
PRECURSORMZ: 311.222783
PRECURSORTYPE: [M-H]-
FORMULA: C18H32O4
Ontology: Lineolic acids and derivatives
INCHIKEY: JDSRHVWSAMTSSN-KDFHGORWNA-N
SMILES: CCCCCC(OO)\C=C\C=CCCCCCCCC(O)=O
RETENTIONTIME: 
CCS: 182.738858
IONMODE: Negative
INSTRUMENTTYPE: LC-ESI-QIT
INSTRUMENT: 
COLLISIONENERGY: 15
Comment: registered in MassBank
Num Peaks: 3
249.2	5
293.15201	1000
311.125	282

NAME: 13-HPODE; LC-ESI-QIT; MS2; CE
PRECURSORMZ: 311.222783
PRECURSORTYPE: [M-H]-
FORMULA: C18H32O4
Ontology: Lineolic acids and derivatives
INCHIKEY: JDSRHVWSAMTSSN-KDFHGORWNA-N
SMILES: CCCCCC(OO)\C=C\C=CCCCCCCCC(O)=O
RETENTIONTIME: 
CCS: 182.738858
IONMODE: Negative
INSTRUMENTTYPE: LC-ESI-QIT
INSTRUMENT: 
COLLISIONENERGY: 20
Comment: registered in MassBank
Num Peaks: 10
113.04	13
195.2	18
197.09	8
211.12	15
223.07201	17
223.2	7
249.127	26
249.52	6
293.138	1000
311.164	404

NAME: 13-HPODE; LC-ESI-QIT; MS2; CE
PRECURSORMZ: 311.222783
PRECURSORTYPE: [M-H]-
FORMULA: C18H32O4
Ontology: Lineolic acids and derivatives
INCHIKEY: JDSRHVWSAMTSSN-KDFHGORWNA-N
SMILES: CCCCCC(OO)\C=C\C=CCCCCCCCC(O)=O
RETENTIONTIME: 
CCS: 182.738858
IONMODE: Negative
INSTRUMENTTYPE: LC-ESI-QIT
INSTRUMENT: 
COLLISIONENERGY: 25
Comment: registered in MassBank
Num Peaks: 18
113.02	14
167.12	14
171.2	14
185.12	7
195.187	35
197.12	18
198.96001	15
205.12	18
211.092	94
223.12	25
223.28	28
227.12	11
249.12	62
251.12	7
267.04001	14
275.20001	7
293.15302	1000
311.121	472

NAME: 13-HPODE; LC-ESI-QIT; MS2; CE
PRECURSORMZ: 311.222783
PRECURSORTYPE: [M-H]-
FORMULA: C18H32O4
Ontology: Lineolic acids and derivatives
INCHIKEY: JDSRHVWSAMTSSN-KDFHGORWNA-N
SMILES: CCCCCC(OO)\C=C\C=CCCCCCCCC(O)=O
RETENTIONTIME: 
CCS: 182.738858
IONMODE: Negative
INSTRUMENTTYPE: LC-ESI-QIT
INSTRUMENT: 
COLLISIONENERGY: 30
Comment: registered in MassBank
Num Peaks: 23
125.12	26
155.2	18
167.02	26
171.12	53
180.96001	44
183.08	18
184.96001	35
185.12	26
193.03999	18
193.2	35
195.09	70
197.2	35
205.03999	47
211.145	205
223.11301	326
227.12	62
249.28	35
249.44	35
275.12	26
293.16599	1000
293.51999	35
310.88	26
311.18301	689

NAME: 13-HPODE; LC-ESI-QIT; MS2; CE
PRECURSORMZ: 311.222783
PRECURSORTYPE: [M-H]-
FORMULA: C18H32O4
Ontology: Lineolic acids and derivatives
INCHIKEY: JDSRHVWSAMTSSN-KDFHGORWNA-N
SMILES: CCCCCC(OO)\C=C\C=CCCCCCCCC(O)=O
RETENTIONTIME: 
CCS: 182.738858
IONMODE: Negative
INSTRUMENTTYPE: LC-ESI-QIT
INSTRUMENT: 
COLLISIONENERGY: 35
Comment: registered in MassBank
Num Peaks: 16
141.28	171
149.2	257
183.03999	257
195.12	429
197.12	257
205.011	886
211.12	829
211.28	429
222.88	429
223.104	1000
223.28	171
249.03999	429
265.23999	257
291.20001	171
293.24301	371
311.12	743

NAME: 13-HPODE; LC-ESI-QIT; MS2; CE
PRECURSORMZ: 311.222783
PRECURSORTYPE: [M-H]-
FORMULA: C18H32O4
Ontology: Lineolic acids and derivatives
INCHIKEY: JDSRHVWSAMTSSN-KDFHGORWNA-N
SMILES: CCCCCC(OO)\C=C\C=CCCCCCCCC(O)=O
RETENTIONTIME: 
CCS: 182.738858
IONMODE: Negative
INSTRUMENTTYPE: LC-ESI-QIT
INSTRUMENT: 
COLLISIONENERGY: 40
Comment: registered in MassBank
Num Peaks: 6
171.03999	375
182.96001	375
194.96001	250
205.03999	250
223.067	1000
293.12	375

NAME: 13-HPODE; LC-ESI-QIT; MS2; CE
PRECURSORMZ: 311.222783
PRECURSORTYPE: [M-H]-
FORMULA: C18H32O4
Ontology: Lineolic acids and derivatives
INCHIKEY: JDSRHVWSAMTSSN-KDFHGORWNA-N
SMILES: CCCCCC(OO)\C=C\C=CCCCCCCCC(O)=O
RETENTIONTIME: 
CCS: 182.738858
IONMODE: Negative
INSTRUMENTTYPE: LC-ESI-QIT
INSTRUMENT: 
COLLISIONENERGY: 45
Comment: registered in MassBank
Num Peaks: 3
166.96001	1000
183.02	667
183.2	667

NAME: 13-HPODE; LC-ESI-QIT; MS2; CE
PRECURSORMZ: 311.222783
PRECURSORTYPE: [M-H]-
FORMULA: C18H32O4
Ontology: Lineolic acids and derivatives
INCHIKEY: JDSRHVWSAMTSSN-KDFHGORWNA-N
SMILES: CCCCCC(OO)\C=C\C=CCCCCCCCC(O)=O
RETENTIONTIME: 
CCS: 182.738858
IONMODE: Negative
INSTRUMENTTYPE: LC-ESI-QIT
INSTRUMENT: 
COLLISIONENERGY: 50
Comment: registered in MassBank
Num Peaks: 1
195.03999	1000

NAME: 13-HpOTrE(r); LC-ESI-QIT; MS2; CE
PRECURSORMZ: 309.207133
PRECURSORTYPE: [M-H]-
FORMULA: C18H30O4
Ontology: Lineolic acids and derivatives
INCHIKEY: LYFGXCQTRBQQMX-KYLWABQHSA-N
SMILES: CCCCC[C@H](OO)\C=C\C=C/C\C=C/CCCCC(O)=O
RETENTIONTIME: 
CCS: -1
IONMODE: Negative
INSTRUMENTTYPE: LC-ESI-QIT
INSTRUMENT: 
COLLISIONENERGY: 10
Comment: registered in MassBank
Num Peaks: 11
113.04	7
177.017	65
191.12	7
209.077	69
229.2	7
246.96001	14
247.189	229
273.20001	7
275.12	12
291.14301	1000
309.112	912

NAME: 13-HpOTrE(r); LC-ESI-QIT; MS2; CE
PRECURSORMZ: 309.207133
PRECURSORTYPE: [M-H]-
FORMULA: C18H30O4
Ontology: Lineolic acids and derivatives
INCHIKEY: LYFGXCQTRBQQMX-KYLWABQHSA-N
SMILES: CCCCC[C@H](OO)\C=C\C=C/C\C=C/CCCCC(O)=O
RETENTIONTIME: 
CCS: -1
IONMODE: Negative
INSTRUMENTTYPE: LC-ESI-QIT
INSTRUMENT: 
COLLISIONENERGY: 15
Comment: registered in MassBank
Num Peaks: 19
113.153	20
139.11099	19
165.22701	6
176.96001	27
177.2	39
193.03999	26
193.2	17
209.15601	308
209.36	22
219.2	9
227.08	92
227.44	9
229.2	30
247.116	424
273.18701	22
289.28	9
291.12601	801
308.79999	161
309.10999	1000

NAME: 13-HpOTrE(r); LC-ESI-QIT; MS2; CE
PRECURSORMZ: 309.207133
PRECURSORTYPE: [M-H]-
FORMULA: C18H30O4
Ontology: Lineolic acids and derivatives
INCHIKEY: LYFGXCQTRBQQMX-KYLWABQHSA-N
SMILES: CCCCC[C@H](OO)\C=C\C=C/C\C=C/CCCCC(O)=O
RETENTIONTIME: 
CCS: -1
IONMODE: Negative
INSTRUMENTTYPE: LC-ESI-QIT
INSTRUMENT: 
COLLISIONENERGY: 20
Comment: registered in MassBank
Num Peaks: 16
99.06	40
113.12	32
139.12	47
165.44	24
177.2	40
191.12	32
193.091	24
209.155	565
227.192	472
229.2	13
241.2	24
247.252	401
290.88	8
291.17599	332
291.44	40
309.10901	1000

NAME: 13-HpOTrE(r); LC-ESI-QIT; MS2; CE
PRECURSORMZ: 309.207133
PRECURSORTYPE: [M-H]-
FORMULA: C18H30O4
Ontology: Lineolic acids and derivatives
INCHIKEY: LYFGXCQTRBQQMX-KYLWABQHSA-N
SMILES: CCCCC[C@H](OO)\C=C\C=C/C\C=C/CCCCC(O)=O
RETENTIONTIME: 
CCS: -1
IONMODE: Negative
INSTRUMENTTYPE: LC-ESI-QIT
INSTRUMENT: 
COLLISIONENERGY: 25
Comment: registered in MassBank
Num Peaks: 12
113.04	27
139.03999	27
165.11301	74
175.12	23
193.12	35
209.166	1000
227.177	584
229.03999	23
241.2	39
247.12	167
291.21799	105
309.172	148

NAME: 13-HpOTrE(r); LC-ESI-QIT; MS2; CE
PRECURSORMZ: 309.207133
PRECURSORTYPE: [M-H]-
FORMULA: C18H30O4
Ontology: Lineolic acids and derivatives
INCHIKEY: LYFGXCQTRBQQMX-KYLWABQHSA-N
SMILES: CCCCC[C@H](OO)\C=C\C=C/C\C=C/CCCCC(O)=O
RETENTIONTIME: 
CCS: -1
IONMODE: Negative
INSTRUMENTTYPE: LC-ESI-QIT
INSTRUMENT: 
COLLISIONENERGY: 30
Comment: registered in MassBank
Num Peaks: 15
138.96001	185
163.12	34
197.12	51
208.08	17
209.049	871
219.03999	45
220.08	51
227.19299	1000
247.09801	152
252.08	84
255.28	34
291.04001	67
291.20001	101
309.04001	331
309.194	135

NAME: 13-HpOTrE(r); LC-ESI-QIT; MS2; CE
PRECURSORMZ: 309.207133
PRECURSORTYPE: [M-H]-
FORMULA: C18H30O4
Ontology: Lineolic acids and derivatives
INCHIKEY: LYFGXCQTRBQQMX-KYLWABQHSA-N
SMILES: CCCCC[C@H](OO)\C=C\C=C/C\C=C/CCCCC(O)=O
RETENTIONTIME: 
CCS: -1
IONMODE: Negative
INSTRUMENTTYPE: LC-ESI-QIT
INSTRUMENT: 
COLLISIONENERGY: 35
Comment: registered in MassBank
Num Peaks: 9
139.03999	113
167.12	75
190.16	188
193.28	113
209.149	638
227.16	1000
237.03999	75
252.08	175
309.12	212

NAME: 13-HpOTrE(r); LC-ESI-QIT; MS2; CE
PRECURSORMZ: 309.207133
PRECURSORTYPE: [M-H]-
FORMULA: C18H30O4
Ontology: Lineolic acids and derivatives
INCHIKEY: LYFGXCQTRBQQMX-KYLWABQHSA-N
SMILES: CCCCC[C@H](OO)\C=C\C=C/C\C=C/CCCCC(O)=O
RETENTIONTIME: 
CCS: -1
IONMODE: Negative
INSTRUMENTTYPE: LC-ESI-QIT
INSTRUMENT: 
COLLISIONENERGY: 40
Comment: registered in MassBank
Num Peaks: 5
99.04	80
153.03999	80
190.08	160
209.17799	1000
227.18201	440

NAME: 13-HpOTrE(r); LC-ESI-QIT; MS2; CE
PRECURSORMZ: 309.207133
PRECURSORTYPE: [M-H]-
FORMULA: C18H30O4
Ontology: Lineolic acids and derivatives
INCHIKEY: LYFGXCQTRBQQMX-KYLWABQHSA-N
SMILES: CCCCC[C@H](OO)\C=C\C=C/C\C=C/CCCCC(O)=O
RETENTIONTIME: 
CCS: -1
IONMODE: Negative
INSTRUMENTTYPE: LC-ESI-QIT
INSTRUMENT: 
COLLISIONENERGY: 45
Comment: registered in MassBank
Num Peaks: 6
137.12	176
149.12	118
190	314
209.03999	1000
209.2	314
243.03999	118

NAME: 13-HpOTrE(r); LC-ESI-QIT; MS2; CE
PRECURSORMZ: 309.207133
PRECURSORTYPE: [M-H]-
FORMULA: C18H30O4
Ontology: Lineolic acids and derivatives
INCHIKEY: LYFGXCQTRBQQMX-KYLWABQHSA-N
SMILES: CCCCC[C@H](OO)\C=C\C=C/C\C=C/CCCCC(O)=O
RETENTIONTIME: 
CCS: -1
IONMODE: Negative
INSTRUMENTTYPE: LC-ESI-QIT
INSTRUMENT: 
COLLISIONENERGY: 50
Comment: registered in MassBank
Num Peaks: 4
136.96001	667
193.12	1000
209.03999	778
209.2	444

NAME: 13-HpOTrE; LC-ESI-QIT; MS2; CE
PRECURSORMZ: 309.207133
PRECURSORTYPE: [M-H]-
FORMULA: C18H30O4
Ontology: Lineolic acids and derivatives
INCHIKEY: UYQGVDXDXBAABN-SKEAHQKTNA-N
SMILES: CC\C=C/CC(OO)\C=C\C=CCCCCCCCC(O)=O
RETENTIONTIME: 
CCS: 181.4224261
IONMODE: Negative
INSTRUMENTTYPE: LC-ESI-QIT
INSTRUMENT: 
COLLISIONENERGY: 10
Comment: registered in MassBank
Num Peaks: 8
193.28	6
208.96001	8
209.162	15
227.133	8
247.14	30
273.20001	19
291.14099	1000
309.10001	532

NAME: 13-HpOTrE; LC-ESI-QIT; MS2; CE
PRECURSORMZ: 309.207133
PRECURSORTYPE: [M-H]-
FORMULA: C18H30O4
Ontology: Lineolic acids and derivatives
INCHIKEY: UYQGVDXDXBAABN-SKEAHQKTNA-N
SMILES: CC\C=C/CC(OO)\C=C\C=CCCCCCCCC(O)=O
RETENTIONTIME: 
CCS: 181.4224261
IONMODE: Negative
INSTRUMENTTYPE: LC-ESI-QIT
INSTRUMENT: 
COLLISIONENERGY: 15
Comment: registered in MassBank
Num Peaks: 7
209.2	27
227.03999	16
227.23399	17
247.12	10
273.20001	15
291.14099	1000
309.09299	536

NAME: 13-HpOTrE; LC-ESI-QIT; MS2; CE
PRECURSORMZ: 309.207133
PRECURSORTYPE: [M-H]-
FORMULA: C18H30O4
Ontology: Lineolic acids and derivatives
INCHIKEY: UYQGVDXDXBAABN-SKEAHQKTNA-N
SMILES: CC\C=C/CC(OO)\C=C\C=CCCCCCCCC(O)=O
RETENTIONTIME: 
CCS: 181.4224261
IONMODE: Negative
INSTRUMENTTYPE: LC-ESI-QIT
INSTRUMENT: 
COLLISIONENERGY: 20
Comment: registered in MassBank
Num Peaks: 13
177.14	12
179.12	12
195.064	47
197.14	12
209.16299	79
227.214	242
243.12	8
247.164	54
247.36	12
273.12	14
273.35999	6
291.14999	1000
309.086	703

NAME: 13-HpOTrE; LC-ESI-QIT; MS2; CE
PRECURSORMZ: 309.207133
PRECURSORTYPE: [M-H]-
FORMULA: C18H30O4
Ontology: Lineolic acids and derivatives
INCHIKEY: UYQGVDXDXBAABN-SKEAHQKTNA-N
SMILES: CC\C=C/CC(OO)\C=C\C=CCCCCCCCC(O)=O
RETENTIONTIME: 
CCS: 181.4224261
IONMODE: Negative
INSTRUMENTTYPE: LC-ESI-QIT
INSTRUMENT: 
COLLISIONENERGY: 25
Comment: registered in MassBank
Num Peaks: 14
98.88	20
111.12	51
195.118	374
197.24001	10
205.12	61
209.12	238
227.186	1000
241.17999	31
247.03999	88
247.28	92
255.12	61
273.14001	31
291.155	629
309.13501	388

NAME: 13-HpOTrE; LC-ESI-QIT; MS2; CE
PRECURSORMZ: 309.207133
PRECURSORTYPE: [M-H]-
FORMULA: C18H30O4
Ontology: Lineolic acids and derivatives
INCHIKEY: UYQGVDXDXBAABN-SKEAHQKTNA-N
SMILES: CC\C=C/CC(OO)\C=C\C=CCCCCCCCC(O)=O
RETENTIONTIME: 
CCS: 181.4224261
IONMODE: Negative
INSTRUMENTTYPE: LC-ESI-QIT
INSTRUMENT: 
COLLISIONENERGY: 30
Comment: registered in MassBank
Num Peaks: 11
152.96001	38
190.16	51
195.14101	267
196.96001	21
209.12	186
227.12	1000
237.2	17
241.03999	51
241.38	38
277.12	25
308.88	445

NAME: 13-HpOTrE; LC-ESI-QIT; MS2; CE
PRECURSORMZ: 309.207133
PRECURSORTYPE: [M-H]-
FORMULA: C18H30O4
Ontology: Lineolic acids and derivatives
INCHIKEY: UYQGVDXDXBAABN-SKEAHQKTNA-N
SMILES: CC\C=C/CC(OO)\C=C\C=CCCCCCCCC(O)=O
RETENTIONTIME: 
CCS: 181.4224261
IONMODE: Negative
INSTRUMENTTYPE: LC-ESI-QIT
INSTRUMENT: 
COLLISIONENERGY: 35
Comment: registered in MassBank
Num Peaks: 9
136.88	60
152.08	77
153.12	51
208.16	103
209.03999	222
209.2	94
227.149	1000
308.95999	410
309.20001	111

NAME: 13-HpOTrE; LC-ESI-QIT; MS2; CE
PRECURSORMZ: 309.207133
PRECURSORTYPE: [M-H]-
FORMULA: C18H30O4
Ontology: Lineolic acids and derivatives
INCHIKEY: UYQGVDXDXBAABN-SKEAHQKTNA-N
SMILES: CC\C=C/CC(OO)\C=C\C=CCCCCCCCC(O)=O
RETENTIONTIME: 
CCS: 181.4224261
IONMODE: Negative
INSTRUMENTTYPE: LC-ESI-QIT
INSTRUMENT: 
COLLISIONENERGY: 40
Comment: registered in MassBank
Num Peaks: 4
209.05	1000
227.2	800
227.36	100
308.95999	367

NAME: 13-HpOTrE; LC-ESI-QIT; MS2; CE
PRECURSORMZ: 309.207133
PRECURSORTYPE: [M-H]-
FORMULA: C18H30O4
Ontology: Lineolic acids and derivatives
INCHIKEY: UYQGVDXDXBAABN-SKEAHQKTNA-N
SMILES: CC\C=C/CC(OO)\C=C\C=CCCCCCCCC(O)=O
RETENTIONTIME: 
CCS: 181.4224261
IONMODE: Negative
INSTRUMENTTYPE: LC-ESI-QIT
INSTRUMENT: 
COLLISIONENERGY: 45
Comment: registered in MassBank
Num Peaks: 2
197.03999	200
209.02	1000

NAME: 13-HpOTrE; LC-ESI-QIT; MS2; CE
PRECURSORMZ: 309.207133
PRECURSORTYPE: [M-H]-
FORMULA: C18H30O4
Ontology: Lineolic acids and derivatives
INCHIKEY: UYQGVDXDXBAABN-SKEAHQKTNA-N
SMILES: CC\C=C/CC(OO)\C=C\C=CCCCCCCCC(O)=O
RETENTIONTIME: 
CCS: 181.4224261
IONMODE: Negative
INSTRUMENTTYPE: LC-ESI-QIT
INSTRUMENT: 
COLLISIONENERGY: 50
Comment: registered in MassBank
Num Peaks: 2
137.03999	1000
209.03999	1000

NAME: 13-KODE; LC-ESI-QIT; MS2; CE
PRECURSORMZ: 293.212218
PRECURSORTYPE: [M-H]-
FORMULA: C18H30O3
Ontology: Lineolic acids and derivatives
INCHIKEY: JHXAZBBVQSRKJR-KDFHGORWSA-N
SMILES: CCCCCC(=O)\C=C\C=CCCCCCCCC(O)=O
RETENTIONTIME: 
CCS: 179.5372767
IONMODE: Negative
INSTRUMENTTYPE: LC-ESI-QIT
INSTRUMENT: 
COLLISIONENERGY: 10
Comment: registered in MassBank
Num Peaks: 3
221.205	10
236.16499	26
293.14999	1000

NAME: 13-KODE; LC-ESI-QIT; MS2; CE
PRECURSORMZ: 293.212218
PRECURSORTYPE: [M-H]-
FORMULA: C18H30O3
Ontology: Lineolic acids and derivatives
INCHIKEY: JHXAZBBVQSRKJR-KDFHGORWSA-N
SMILES: CCCCCC(=O)\C=C\C=CCCCCCCCC(O)=O
RETENTIONTIME: 
CCS: 179.5372767
IONMODE: Negative
INSTRUMENTTYPE: LC-ESI-QIT
INSTRUMENT: 
COLLISIONENERGY: 15
Comment: registered in MassBank
Num Peaks: 3
221.239	14
236.18201	34
293.14999	1000

NAME: 13-KODE; LC-ESI-QIT; MS2; CE
PRECURSORMZ: 293.212218
PRECURSORTYPE: [M-H]-
FORMULA: C18H30O3
Ontology: Lineolic acids and derivatives
INCHIKEY: JHXAZBBVQSRKJR-KDFHGORWSA-N
SMILES: CCCCCC(=O)\C=C\C=CCCCCCCCC(O)=O
RETENTIONTIME: 
CCS: 179.5372767
IONMODE: Negative
INSTRUMENTTYPE: LC-ESI-QIT
INSTRUMENT: 
COLLISIONENERGY: 20
Comment: registered in MassBank
Num Peaks: 6
193.22	7
220.224	6
221.21201	33
236.2	44
249.336	12
293.15701	1000

NAME: 13-KODE; LC-ESI-QIT; MS2; CE
PRECURSORMZ: 293.212218
PRECURSORTYPE: [M-H]-
FORMULA: C18H30O3
Ontology: Lineolic acids and derivatives
INCHIKEY: JHXAZBBVQSRKJR-KDFHGORWSA-N
SMILES: CCCCCC(=O)\C=C\C=CCCCCCCCC(O)=O
RETENTIONTIME: 
CCS: 179.5372767
IONMODE: Negative
INSTRUMENTTYPE: LC-ESI-QIT
INSTRUMENT: 
COLLISIONENERGY: 25
Comment: registered in MassBank
Num Peaks: 11
113.113	9
167.15401	5
177.23599	5
193.20599	10
195.21001	23
220.198	20
221.20799	57
236.159	52
249.26199	45
275.237	11
293.151	1000

NAME: 13-KODE; LC-ESI-QIT; MS2; CE
PRECURSORMZ: 293.212218
PRECURSORTYPE: [M-H]-
FORMULA: C18H30O3
Ontology: Lineolic acids and derivatives
INCHIKEY: JHXAZBBVQSRKJR-KDFHGORWSA-N
SMILES: CCCCCC(=O)\C=C\C=CCCCCCCCC(O)=O
RETENTIONTIME: 
CCS: 179.5372767
IONMODE: Negative
INSTRUMENTTYPE: LC-ESI-QIT
INSTRUMENT: 
COLLISIONENERGY: 30
Comment: registered in MassBank
Num Peaks: 13
113.096	39
149.131	6
167.106	22
177.162	21
179.092	12
193.13901	15
195.17999	85
220.159	48
221.145	126
236.13699	51
249.217	84
275.15701	15
293.142	1000

NAME: 13-KODE; LC-ESI-QIT; MS2; CE
PRECURSORMZ: 293.212218
PRECURSORTYPE: [M-H]-
FORMULA: C18H30O3
Ontology: Lineolic acids and derivatives
INCHIKEY: JHXAZBBVQSRKJR-KDFHGORWSA-N
SMILES: CCCCCC(=O)\C=C\C=CCCCCCCCC(O)=O
RETENTIONTIME: 
CCS: 179.5372767
IONMODE: Negative
INSTRUMENTTYPE: LC-ESI-QIT
INSTRUMENT: 
COLLISIONENERGY: 35
Comment: registered in MassBank
Num Peaks: 22
97.04	6
113.089	129
113.36	6
139.03999	22
139.18201	36
149.067	30
163.12	6
165.03999	7
167.086	42
177.067	72
179.12	19
192.14	53
193.112	61
195.118	302
205.03999	7
220.117	381
221.103	499
231.03999	7
236.08	161
249.19	161
275.12	17
293.138	1000

NAME: 13-KODE; LC-ESI-QIT; MS2; CE
PRECURSORMZ: 293.212218
PRECURSORTYPE: [M-H]-
FORMULA: C18H30O3
Ontology: Lineolic acids and derivatives
INCHIKEY: JHXAZBBVQSRKJR-KDFHGORWSA-N
SMILES: CCCCCC(=O)\C=C\C=CCCCCCCCC(O)=O
RETENTIONTIME: 
CCS: 179.5372767
IONMODE: Negative
INSTRUMENTTYPE: LC-ESI-QIT
INSTRUMENT: 
COLLISIONENERGY: 40
Comment: registered in MassBank
Num Peaks: 28
96.989	37
112.72	6
113.088	169
113.44	11
138.72	6
139.11501	66
148	6
149.095	33
161.06	6
163.12	20
164.08	15
165.17999	22
167.03999	7
177.097	138
178.96001	7
179.14	6
192.05	85
193.12	31
193.28	9
195.091	224
205.17101	70
218.08	6
220.12399	688
221.097	1000
222	6
236.043	81
249.08	35
293.10999	221

NAME: 13-KODE; LC-ESI-QIT; MS2; CE
PRECURSORMZ: 293.212218
PRECURSORTYPE: [M-H]-
FORMULA: C18H30O3
Ontology: Lineolic acids and derivatives
INCHIKEY: JHXAZBBVQSRKJR-KDFHGORWSA-N
SMILES: CCCCCC(=O)\C=C\C=CCCCCCCCC(O)=O
RETENTIONTIME: 
CCS: 179.5372767
IONMODE: Negative
INSTRUMENTTYPE: LC-ESI-QIT
INSTRUMENT: 
COLLISIONENERGY: 45
Comment: registered in MassBank
Num Peaks: 26
96.88	27
97.2	6
113.067	113
138.88	9
139.03999	6
149.12	15
162.96001	9
163.84	6
164.08	33
164.24001	12
165.03999	24
176	6
177.089	167
179.03999	9
192.05	188
193.03999	6
193.2	18
195.12	21
205.049	293
217.92	9
220.07201	746
221.12	1000
221.52	15
236.08	12
249.2	12
293.04001	9

NAME: 13-KODE; LC-ESI-QIT; MS2; CE
PRECURSORMZ: 293.212218
PRECURSORTYPE: [M-H]-
FORMULA: C18H30O3
Ontology: Lineolic acids and derivatives
INCHIKEY: JHXAZBBVQSRKJR-KDFHGORWSA-N
SMILES: CCCCCC(=O)\C=C\C=CCCCCCCCC(O)=O
RETENTIONTIME: 
CCS: 179.5372767
IONMODE: Negative
INSTRUMENTTYPE: LC-ESI-QIT
INSTRUMENT: 
COLLISIONENERGY: 50
Comment: registered in MassBank
Num Peaks: 17
97.04	26
113.04	56
113.28	22
139.12	22
148.076	208
149.03999	9
164.16	35
165.03999	13
177.078	273
190.16	30
192.10899	173
193.03999	13
205.076	753
205.67999	9
216.96001	9
220.11099	957
221.092	1000

NAME: 15-HEPE; LC-ESI-QIT; MS2; CE
PRECURSORMZ: 317.212218
PRECURSORTYPE: [M-H]-
FORMULA: C20H30O3
Ontology: Hydroxyeicosapentaenoic acids
INCHIKEY: WLKCSMCLEKGITB-DBVSHIMFSA-N
SMILES: CC\C=C/C[C@H](O)\C=C\C=C/C\C=C/C\C=C/CCCC(O)=O
RETENTIONTIME: 
CCS: 224.6378472
IONMODE: Negative
INSTRUMENTTYPE: LC-ESI-QIT
INSTRUMENT: 
COLLISIONENERGY: 10
Comment: registered in MassBank
Num Peaks: 10
163.188	10
175.216	23
203.224	8
205.129	7
219.16499	45
247.18201	12
255.23199	132
273.33301	6
299.203	65
317.13599	1000

NAME: 15-HEPE; LC-ESI-QIT; MS2; CE
PRECURSORMZ: 317.212218
PRECURSORTYPE: [M-H]-
FORMULA: C20H30O3
Ontology: Hydroxyeicosapentaenoic acids
INCHIKEY: WLKCSMCLEKGITB-DBVSHIMFSA-N
SMILES: CC\C=C/C[C@H](O)\C=C\C=C/C\C=C/C\C=C/CCCC(O)=O
RETENTIONTIME: 
CCS: 224.6378472
IONMODE: Negative
INSTRUMENTTYPE: LC-ESI-QIT
INSTRUMENT: 
COLLISIONENERGY: 15
Comment: registered in MassBank
Num Peaks: 10
163.20599	11
175.161	46
203.175	9
219.186	58
247.18201	16
248.153	9
255.228	205
273.23599	9
299.215	87
317.133	1000

NAME: 15-HEPE; LC-ESI-QIT; MS2; CE
PRECURSORMZ: 317.212218
PRECURSORTYPE: [M-H]-
FORMULA: C20H30O3
Ontology: Hydroxyeicosapentaenoic acids
INCHIKEY: WLKCSMCLEKGITB-DBVSHIMFSA-N
SMILES: CC\C=C/C[C@H](O)\C=C\C=C/C\C=C/C\C=C/CCCC(O)=O
RETENTIONTIME: 
CCS: 224.6378472
IONMODE: Negative
INSTRUMENTTYPE: LC-ESI-QIT
INSTRUMENT: 
COLLISIONENERGY: 20
Comment: registered in MassBank
Num Peaks: 15
162.91	5
163.12	18
175.185	126
175.44	9
201.164	15
203.218	10
219.14301	121
221.03999	10
221.26401	10
247.14	56
248.08	15
255.205	419
273.18301	35
299.181	187
317.12799	1000

NAME: 15-HEPE; LC-ESI-QIT; MS2; CE
PRECURSORMZ: 317.212218
PRECURSORTYPE: [M-H]-
FORMULA: C20H30O3
Ontology: Hydroxyeicosapentaenoic acids
INCHIKEY: WLKCSMCLEKGITB-DBVSHIMFSA-N
SMILES: CC\C=C/C[C@H](O)\C=C\C=C/C\C=C/C\C=C/CCCC(O)=O
RETENTIONTIME: 
CCS: 224.6378472
IONMODE: Negative
INSTRUMENTTYPE: LC-ESI-QIT
INSTRUMENT: 
COLLISIONENERGY: 25
Comment: registered in MassBank
Num Peaks: 19
111.12	9
121	9
147.10699	11
149.03999	6
175.12	220
177.12	17
201.16299	53
203.03999	36
219.10201	183
221.03999	30
221.175	47
229.2	15
247.09801	104
248.12801	32
255.17999	621
273.20001	36
281.21301	9
299.12299	265
317.13599	1000

NAME: 15-HEPE; LC-ESI-QIT; MS2; CE
PRECURSORMZ: 317.212218
PRECURSORTYPE: [M-H]-
FORMULA: C20H30O3
Ontology: Hydroxyeicosapentaenoic acids
INCHIKEY: WLKCSMCLEKGITB-DBVSHIMFSA-N
SMILES: CC\C=C/C[C@H](O)\C=C\C=C/C\C=C/C\C=C/CCCC(O)=O
RETENTIONTIME: 
CCS: 224.6378472
IONMODE: Negative
INSTRUMENTTYPE: LC-ESI-QIT
INSTRUMENT: 
COLLISIONENERGY: 30
Comment: registered in MassBank
Num Peaks: 26
111.12	15
121.04	34
147.36	15
149.36	15
161.10001	15
163.03999	24
173.12	29
175.11099	335
177.12	15
190.96001	15
191.12	15
201.133	121
203.2	34
218.96001	44
219.17799	121
221.01601	53
229.03999	19
245.12	10
247.088	150
255.19299	432
255.44	29
273.04001	44
281.12	44
289.28	10
299.112	204
317.15701	1000

NAME: 15-HEPE; LC-ESI-QIT; MS2; CE
PRECURSORMZ: 317.212218
PRECURSORTYPE: [M-H]-
FORMULA: C20H30O3
Ontology: Hydroxyeicosapentaenoic acids
INCHIKEY: WLKCSMCLEKGITB-DBVSHIMFSA-N
SMILES: CC\C=C/C[C@H](O)\C=C\C=C/C\C=C/C\C=C/CCCC(O)=O
RETENTIONTIME: 
CCS: 224.6378472
IONMODE: Negative
INSTRUMENTTYPE: LC-ESI-QIT
INSTRUMENT: 
COLLISIONENERGY: 35
Comment: registered in MassBank
Num Peaks: 26
83.04	13
111.2	38
121.04	13
172.88	19
173.03999	44
173.28	13
175.12	101
177.12	13
187.16	13
191.12	31
200.96001	31
201.12	50
202.96001	19
203.12	25
218.96001	13
221.12	19
221.28	25
227.2	19
229.03999	38
245.2	13
246.96001	25
247.12	25
255.104	88
273.14001	31
299.28	25
317.20901	1000

NAME: 15-HEPE; LC-ESI-QIT; MS2; CE
PRECURSORMZ: 317.212218
PRECURSORTYPE: [M-H]-
FORMULA: C20H30O3
Ontology: Hydroxyeicosapentaenoic acids
INCHIKEY: WLKCSMCLEKGITB-DBVSHIMFSA-N
SMILES: CC\C=C/C[C@H](O)\C=C\C=C/C\C=C/C\C=C/CCCC(O)=O
RETENTIONTIME: 
CCS: 224.6378472
IONMODE: Negative
INSTRUMENTTYPE: LC-ESI-QIT
INSTRUMENT: 
COLLISIONENERGY: 40
Comment: registered in MassBank
Num Peaks: 4
110.88	31
147.03999	46
198.96001	31
317.224	1000

NAME: 15-HEPE; LC-ESI-QIT; MS2; CE
PRECURSORMZ: 317.212218
PRECURSORTYPE: [M-H]-
FORMULA: C20H30O3
Ontology: Hydroxyeicosapentaenoic acids
INCHIKEY: WLKCSMCLEKGITB-DBVSHIMFSA-N
SMILES: CC\C=C/C[C@H](O)\C=C\C=C/C\C=C/C\C=C/CCCC(O)=O
RETENTIONTIME: 
CCS: 224.6378472
IONMODE: Negative
INSTRUMENTTYPE: LC-ESI-QIT
INSTRUMENT: 
COLLISIONENERGY: 45
Comment: registered in MassBank
Num Peaks: 5
120.96	200
147.03999	200
245.03999	120
245.28	160
317.23999	1000

NAME: 15-HEPE; LC-ESI-QIT; MS2; CE
PRECURSORMZ: 317.212218
PRECURSORTYPE: [M-H]-
FORMULA: C20H30O3
Ontology: Hydroxyeicosapentaenoic acids
INCHIKEY: WLKCSMCLEKGITB-DBVSHIMFSA-N
SMILES: CC\C=C/C[C@H](O)\C=C\C=C/C\C=C/C\C=C/CCCC(O)=O
RETENTIONTIME: 
CCS: 224.6378472
IONMODE: Negative
INSTRUMENTTYPE: LC-ESI-QIT
INSTRUMENT: 
COLLISIONENERGY: 50
Comment: registered in MassBank
Num Peaks: 2
119.04	333
245.2	1000

NAME: 15-HETE; LC-ESI-QIT; MS2; CE
PRECURSORMZ: 319.227868
PRECURSORTYPE: [M-H]-
FORMULA: C20H32O3
Ontology: Hydroxyeicosatetraenoic acids
INCHIKEY: JSFATNQSLKRBCI-VAEKSGALSA-N
SMILES: CCCCC[C@H](O)\C=C\C=C/C\C=C/C\C=C/CCCC(O)=O
RETENTIONTIME: 
CCS: 185.6776995
IONMODE: Negative
INSTRUMENTTYPE: LC-ESI-QIT
INSTRUMENT: 
COLLISIONENERGY: 20
Comment: registered in MassBank
Num Peaks: 26
163.258	7
175.314	260
175.85699	8
176.31799	31
177.22501	17
193.44	5
201.30499	6
203.21001	40
203.36	21
203.562	6
205.32201	20
219.29201	194
219.937	18
220.608	11
221.37399	12
257.409	550
258.035	42
258.336	32
258.72	19
275.409	63
283.34299	5
301.34601	473
302.00299	23
302.23999	8
302.67999	7
319.17001	1000

NAME: 15-HETE; LC-ESI-QIT; MS2; CE
PRECURSORMZ: 319.227868
PRECURSORTYPE: [M-H]-
FORMULA: C20H32O3
Ontology: Hydroxyeicosatetraenoic acids
INCHIKEY: JSFATNQSLKRBCI-VAEKSGALSA-N
SMILES: CCCCC[C@H](O)\C=C\C=C/C\C=C/C\C=C/CCCC(O)=O
RETENTIONTIME: 
CCS: 185.6776995
IONMODE: Negative
INSTRUMENTTYPE: LC-ESI-QIT
INSTRUMENT: 
COLLISIONENERGY: 25
Comment: registered in MassBank
Num Peaks: 38
113.034	18
121.029	6
139.20599	6
161.16	6
163.19	21
167.23399	11
175.231	364
175.856	9
176.366	9
177.22701	38
181.276	8
183.265	17
191.244	8
193.16901	24
201.218	29
203.243	120
205.217	34
215.03999	8
215.23399	8
219.218	259
220.00999	14
220.16	11
221.214	35
223.16	10
229.22099	17
245.245	13
257.272	979
258.01999	35
258.23999	19
258.577	7
258.83301	6
273.20001	15
275.04001	17
275.27399	116
283.26901	34
301.22299	789
317.23401	14
319.164	1000

NAME: 15-HETE; LC-ESI-QIT; MS2; CE
PRECURSORMZ: 319.227868
PRECURSORTYPE: [M-H]-
FORMULA: C20H32O3
Ontology: Hydroxyeicosatetraenoic acids
INCHIKEY: JSFATNQSLKRBCI-VAEKSGALSA-N
SMILES: CCCCC[C@H](O)\C=C\C=C/C\C=C/C\C=C/CCCC(O)=O
RETENTIONTIME: 
CCS: 185.6776995
IONMODE: Negative
INSTRUMENTTYPE: LC-ESI-QIT
INSTRUMENT: 
COLLISIONENERGY: 30
Comment: registered in MassBank
Num Peaks: 36
113.08	37
139.142	21
147.2	5
149.03999	12
162.85001	7
163.114	20
167.12	14
175.146	360
177.12	37
181.12	7
183.11	9
185.03999	5
189.175	34
191.12	16
193.132	21
195.14	10
199.147	12
201.065	59
201.2	21
203.198	188
205.177	14
215.17101	15
217.12801	11
219.13901	173
221.13499	87
223.16	35
229.2	59
245.16	16
257.20599	1000
265.04001	6
273.08401	19
275.18799	120
283.186	63
301.15399	642
316.95999	5
319.15302	576

NAME: 15-HETE; LC-ESI-QIT; MS2; CE
PRECURSORMZ: 319.227868
PRECURSORTYPE: [M-H]-
FORMULA: C20H32O3
Ontology: Hydroxyeicosatetraenoic acids
INCHIKEY: JSFATNQSLKRBCI-VAEKSGALSA-N
SMILES: CCCCC[C@H](O)\C=C\C=C/C\C=C/C\C=C/CCCC(O)=O
RETENTIONTIME: 
CCS: 185.6776995
IONMODE: Negative
INSTRUMENTTYPE: LC-ESI-QIT
INSTRUMENT: 
COLLISIONENERGY: 35
Comment: registered in MassBank
Num Peaks: 35
82.96	22
98.96	22
113.074	133
139.03999	111
147.133	104
160.96001	89
161.093	89
163.02699	104
167.06	22
175.03999	474
177.12	52
177.28	30
183.03999	37
189.2	22
193.03999	37
199.12	30
200.96001	37
201.147	30
201.28	37
203.09599	185
205.12	37
215.2	59
219.08	74
221.12	104
223.03999	30
229.16	215
255.12	15
257.17801	1000
257.51999	22
259.04001	15
273.12	15
275.28	52
283.28	37
301.142	319
319.099	437

NAME: 15-HETE; LC-ESI-QIT; MS2; CE
PRECURSORMZ: 319.227868
PRECURSORTYPE: [M-H]-
FORMULA: C20H32O3
Ontology: Hydroxyeicosatetraenoic acids
INCHIKEY: JSFATNQSLKRBCI-VAEKSGALSA-N
SMILES: CCCCC[C@H](O)\C=C\C=C/C\C=C/C\C=C/CCCC(O)=O
RETENTIONTIME: 
CCS: 185.6776995
IONMODE: Negative
INSTRUMENTTYPE: LC-ESI-QIT
INSTRUMENT: 
COLLISIONENERGY: 40
Comment: registered in MassBank
Num Peaks: 13
97.04	500
113.12	500
113.28	300
175.03999	700
175.28	300
189.16	300
201.03999	300
203.12	800
215.03999	200
221.12	500
229.12	1000
257.28	900
319.12	500

NAME: 15-HETE; LC-ESI-QIT; MS2; CE
PRECURSORMZ: 319.227868
PRECURSORTYPE: [M-H]-
FORMULA: C20H32O3
Ontology: Hydroxyeicosatetraenoic acids
INCHIKEY: JSFATNQSLKRBCI-VAEKSGALSA-N
SMILES: CCCCC[C@H](O)\C=C\C=C/C\C=C/C\C=C/CCCC(O)=O
RETENTIONTIME: 
CCS: 185.6776995
IONMODE: Negative
INSTRUMENTTYPE: LC-ESI-QIT
INSTRUMENT: 
COLLISIONENERGY: 45
Comment: registered in MassBank
Num Peaks: 3
175.177	1000
201.12	118
203.12	118

NAME: 15-HETE; LC-ESI-QIT; MS2; CE
PRECURSORMZ: 319.227868
PRECURSORTYPE: [M-H]-
FORMULA: C20H32O3
Ontology: Hydroxyeicosatetraenoic acids
INCHIKEY: JSFATNQSLKRBCI-VAEKSGALSA-N
SMILES: CCCCC[C@H](O)\C=C\C=C/C\C=C/C\C=C/CCCC(O)=O
RETENTIONTIME: 
CCS: 185.6776995
IONMODE: Negative
INSTRUMENTTYPE: LC-ESI-QIT
INSTRUMENT: 
COLLISIONENERGY: 50
Comment: registered in MassBank
Num Peaks: 3
95.12	667
113.04	667
147.03999	1000

NAME: 15-HETE; LC-ESI-QIT; MS2; CE
PRECURSORMZ: 319.227868
PRECURSORTYPE: [M-H]-
FORMULA: C20H32O3
Ontology: Hydroxyeicosatetraenoic acids
INCHIKEY: JSFATNQSLKRBCI-VAEKSGALSA-N
SMILES: CCCCC[C@H](O)\C=C\C=C/C\C=C/C\C=C/CCCC(O)=O
RETENTIONTIME: 
CCS: 185.6776995
IONMODE: Negative
INSTRUMENTTYPE: LC-ESI-QIT
INSTRUMENT: 
COLLISIONENERGY: 55
Comment: registered in MassBank
Num Peaks: 3
96.96	667
109.28	667
142.88	1000

NAME: 15-HETE; LC-ESI-QIT; MS2; CE
PRECURSORMZ: 319.227868
PRECURSORTYPE: [M-H]-
FORMULA: C20H32O3
Ontology: Hydroxyeicosatetraenoic acids
INCHIKEY: JSFATNQSLKRBCI-VAEKSGALSA-N
SMILES: CCCCC[C@H](O)\C=C\C=C/C\C=C/C\C=C/CCCC(O)=O
RETENTIONTIME: 
CCS: 185.6776995
IONMODE: Negative
INSTRUMENTTYPE: LC-ESI-QIT
INSTRUMENT: 
COLLISIONENERGY: 60
Comment: registered in MassBank
Num Peaks: 3
83.04	1000
109.04	1000
165.12	667

NAME: 15-OxoETE; LC-ESI-QIT; MS2; CE
PRECURSORMZ: 317.212218
PRECURSORTYPE: [M-H]-
FORMULA: C20H30O3
Ontology: Long-chain fatty acids
INCHIKEY: YGJTUEISKATQSM-USWFWKISSA-N
SMILES: CCCCCC(=O)\C=C\C=C/C\C=C/C\C=C/CCCC(O)=O
RETENTIONTIME: 
CCS: 184.9305388
IONMODE: Negative
INSTRUMENTTYPE: LC-ESI-QIT
INSTRUMENT: 
COLLISIONENERGY: 20
Comment: registered in MassBank
Num Peaks: 26
113.087	95
139.187	37
147.235	19
151.16701	8
153.17101	8
159.218	9
163.12	10
165.241	28
175.23599	23
177.12	22
179.22501	11
191.17101	24
201.12399	13
203.20599	66
219.274	57
231.317	5
239.293	20
245.326	18
255.343	17
273.328	604
273.95999	26
274.32001	9
274.60001	21
274.85001	15
299.272	106
317.14301	1000

NAME: 15-OxoETE; LC-ESI-QIT; MS2; CE
PRECURSORMZ: 317.212218
PRECURSORTYPE: [M-H]-
FORMULA: C20H30O3
Ontology: Long-chain fatty acids
INCHIKEY: YGJTUEISKATQSM-USWFWKISSA-N
SMILES: CCCCCC(=O)\C=C\C=C/C\C=C/C\C=C/CCCC(O)=O
RETENTIONTIME: 
CCS: 184.9305388
IONMODE: Negative
INSTRUMENTTYPE: LC-ESI-QIT
INSTRUMENT: 
COLLISIONENERGY: 25
Comment: registered in MassBank
Num Peaks: 37
97.084	7
113.107	238
139.161	129
141.215	6
147.147	44
149.12	9
151.194	30
153.166	21
159.155	27
163.14799	26
165.147	183
165.75999	6
167.34	6
173.08	9
175.153	73
177.153	36
179.12	31
185.2	15
189.14301	10
191.16701	78
201.11301	28
203.172	81
205.211	8
217.155	21
219.18201	198
219.787	6
231.265	5
239.181	35
245.257	51
255.283	21
271.29999	10
273.21701	1000
273.871	10
274.056	14
281.14001	7
299.211	127
317.13	912

NAME: 15-OxoETE; LC-ESI-QIT; MS2; CE
PRECURSORMZ: 317.212218
PRECURSORTYPE: [M-H]-
FORMULA: C20H30O3
Ontology: Long-chain fatty acids
INCHIKEY: YGJTUEISKATQSM-USWFWKISSA-N
SMILES: CCCCCC(=O)\C=C\C=C/C\C=C/C\C=C/CCCC(O)=O
RETENTIONTIME: 
CCS: 184.9305388
IONMODE: Negative
INSTRUMENTTYPE: LC-ESI-QIT
INSTRUMENT: 
COLLISIONENERGY: 30
Comment: registered in MassBank
Num Peaks: 51
56.82	8
57.067	8
84.93	12
96.96	38
97.09	38
112.32	8
113.091	628
132.96001	8
138.72	8
139.153	410
147.138	49
151.136	45
153.133	33
155.16	5
159.12	59
162.88	5
163.095	25
165.12199	609
174.88	15
175.123	149
177.112	35
179.077	72
181.28	5
185.03999	18
189.095	52
191.12199	271
195.2	7
201.09599	56
201.827	7
202.24001	5
202.39999	5
203.077	53
203.36	10
205.12	7
207.12	7
217.12	50
219.089	358
220.96001	7
227.2	5
229.2	5
231.12	26
239.12	7
243.2	5
244.96001	11
245.12	59
255.24001	49
271.12	33
273.17001	1000
275.16	5
299.14001	123
317.14499	621

NAME: 15-OxoETE; LC-ESI-QIT; MS2; CE
PRECURSORMZ: 317.212218
PRECURSORTYPE: [M-H]-
FORMULA: C20H30O3
Ontology: Long-chain fatty acids
INCHIKEY: YGJTUEISKATQSM-USWFWKISSA-N
SMILES: CCCCCC(=O)\C=C\C=C/C\C=C/C\C=C/CCCC(O)=O
RETENTIONTIME: 
CCS: 184.9305388
IONMODE: Negative
INSTRUMENTTYPE: LC-ESI-QIT
INSTRUMENT: 
COLLISIONENERGY: 35
Comment: registered in MassBank
Num Peaks: 40
56.96	12
85.2	24
95.04	8
96.88	12
97.2	16
108.96	8
111.04	24
112.72	16
113.101	598
133.03999	12
139.10899	639
147.09	44
149.2	28
151.2	48
153.03999	20
153.24001	8
158.96001	44
163.03999	32
165.108	1000
173.12	16
175.164	153
177.06	56
179.2	16
189.08299	149
191.14301	394
199.2	8
201.12	52
202	24
203.03999	44
205.03999	16
215.12	28
219.12	213
245.12	28
255.12	20
255.28	12
273.13501	329
273.44	12
299.20001	32
316.95999	20
317.19601	133

NAME: 15-OxoETE; LC-ESI-QIT; MS2; CE
PRECURSORMZ: 317.212218
PRECURSORTYPE: [M-H]-
FORMULA: C20H30O3
Ontology: Long-chain fatty acids
INCHIKEY: YGJTUEISKATQSM-USWFWKISSA-N
SMILES: CCCCCC(=O)\C=C\C=C/C\C=C/C\C=C/CCCC(O)=O
RETENTIONTIME: 
CCS: 184.9305388
IONMODE: Negative
INSTRUMENTTYPE: LC-ESI-QIT
INSTRUMENT: 
COLLISIONENERGY: 40
Comment: registered in MassBank
Num Peaks: 16
96.98	146
113.138	683
139.145	695
147.08	73
148.96001	37
151.03999	85
158.88	37
165.108	1000
189.12	207
191.12	305
201.25999	37
217.03999	37
219.03999	24
219.28	37
273.12	73
317.13599	110

NAME: 15-OxoETE; LC-ESI-QIT; MS2; CE
PRECURSORMZ: 317.212218
PRECURSORTYPE: [M-H]-
FORMULA: C20H30O3
Ontology: Long-chain fatty acids
INCHIKEY: YGJTUEISKATQSM-USWFWKISSA-N
SMILES: CCCCCC(=O)\C=C\C=C/C\C=C/C\C=C/CCCC(O)=O
RETENTIONTIME: 
CCS: 184.9305388
IONMODE: Negative
INSTRUMENTTYPE: LC-ESI-QIT
INSTRUMENT: 
COLLISIONENERGY: 45
Comment: registered in MassBank
Num Peaks: 14
56.72	69
84.96	69
96.4	103
97.04	345
113.04	931
139.03999	1000
139.25	172
149.12	138
165.12	552
177.12	138
189.03999	207
189.2	138
191.2	138
215.12	103

NAME: 15-OxoETE; LC-ESI-QIT; MS2; CE
PRECURSORMZ: 317.212218
PRECURSORTYPE: [M-H]-
FORMULA: C20H30O3
Ontology: Long-chain fatty acids
INCHIKEY: YGJTUEISKATQSM-USWFWKISSA-N
SMILES: CCCCCC(=O)\C=C\C=C/C\C=C/C\C=C/CCCC(O)=O
RETENTIONTIME: 
CCS: 184.9305388
IONMODE: Negative
INSTRUMENTTYPE: LC-ESI-QIT
INSTRUMENT: 
COLLISIONENERGY: 50
Comment: registered in MassBank
Num Peaks: 13
54	59
56.96	59
84.96	59
92.88	59
97.08	59
113.04	1000
139.03	412
164.96001	382
165.12801	265
165.36	88
189.03999	265
191.03999	206
191.2	88

NAME: 15-OxoETE; LC-ESI-QIT; MS2; CE
PRECURSORMZ: 317.212218
PRECURSORTYPE: [M-H]-
FORMULA: C20H30O3
Ontology: Long-chain fatty acids
INCHIKEY: YGJTUEISKATQSM-USWFWKISSA-N
SMILES: CCCCCC(=O)\C=C\C=C/C\C=C/C\C=C/CCCC(O)=O
RETENTIONTIME: 
CCS: 184.9305388
IONMODE: Negative
INSTRUMENTTYPE: LC-ESI-QIT
INSTRUMENT: 
COLLISIONENERGY: 55
Comment: registered in MassBank
Num Peaks: 9
56.24	158
94.88	158
96.96	211
119.2	105
139.10899	1000
149.12	158
162.96001	158
189.03999	263
215.03999	158

NAME: 15-OxoETE; LC-ESI-QIT; MS2; CE
PRECURSORMZ: 317.212218
PRECURSORTYPE: [M-H]-
FORMULA: C20H30O3
Ontology: Long-chain fatty acids
INCHIKEY: YGJTUEISKATQSM-USWFWKISSA-N
SMILES: CCCCCC(=O)\C=C\C=C/C\C=C/C\C=C/CCCC(O)=O
RETENTIONTIME: 
CCS: 184.9305388
IONMODE: Negative
INSTRUMENTTYPE: LC-ESI-QIT
INSTRUMENT: 
COLLISIONENERGY: 60
Comment: registered in MassBank
Num Peaks: 11
55.92	500
92.88	400
93.12	300
96.88	400
112.96	500
113.12	800
119.12	200
139.11	1000
158.96001	200
165.16	200
189.03999	700

NAME: 17-HDoHE; LC-ESI-QIT; MS2; CE
PRECURSORMZ: 343.227868
PRECURSORTYPE: [M-H]-
FORMULA: C22H32O3
Ontology: Very long-chain fatty acids
INCHIKEY: SWTYBBUBEPPYCX-BQRHHIOENA-N
SMILES: CC\C=C\CC(O)\C=C\C=C/C\C=C/C\C=C/C\C=C/CCC(O)=O
RETENTIONTIME: 
CCS: 240.2354187
IONMODE: Negative
INSTRUMENTTYPE: LC-ESI-QIT
INSTRUMENT: 
COLLISIONENERGY: 10
Comment: registered in MassBank
Num Peaks: 8
201.188	73
229.187	16
245.187	43
273.20001	6
281.21799	175
299.24399	26
325.19901	73
343.12399	1000

NAME: 17-HDoHE; LC-ESI-QIT; MS2; CE
PRECURSORMZ: 343.227868
PRECURSORTYPE: [M-H]-
FORMULA: C22H32O3
Ontology: Very long-chain fatty acids
INCHIKEY: SWTYBBUBEPPYCX-BQRHHIOENA-N
SMILES: CC\C=C\CC(O)\C=C\C=C/C\C=C/C\C=C/C\C=C/CCC(O)=O
RETENTIONTIME: 
CCS: 240.2354187
IONMODE: Negative
INSTRUMENTTYPE: LC-ESI-QIT
INSTRUMENT: 
COLLISIONENERGY: 15
Comment: registered in MassBank
Num Peaks: 11
189.23199	7
201.149	94
229.19299	16
231.2	5
245.15401	35
274	7
274.20599	7
281.224	217
299.20999	26
325.16501	71
343.12399	1000

NAME: 17-HDoHE; LC-ESI-QIT; MS2; CE
PRECURSORMZ: 343.227868
PRECURSORTYPE: [M-H]-
FORMULA: C22H32O3
Ontology: Very long-chain fatty acids
INCHIKEY: SWTYBBUBEPPYCX-BQRHHIOENA-N
SMILES: CC\C=C\CC(O)\C=C\C=C/C\C=C/C\C=C/C\C=C/CCC(O)=O
RETENTIONTIME: 
CCS: 240.2354187
IONMODE: Negative
INSTRUMENTTYPE: LC-ESI-QIT
INSTRUMENT: 
COLLISIONENERGY: 20
Comment: registered in MassBank
Num Peaks: 15
147.12	14
189.18401	17
201.158	271
227.12	20
229.03999	12
229.23599	22
245.132	90
247.09	10
255.16	9
273.14801	26
274.133	22
281.18201	512
299.20001	68
325.15201	145
343.134	1000

NAME: 17-HDoHE; LC-ESI-QIT; MS2; CE
PRECURSORMZ: 343.227868
PRECURSORTYPE: [M-H]-
FORMULA: C22H32O3
Ontology: Very long-chain fatty acids
INCHIKEY: SWTYBBUBEPPYCX-BQRHHIOENA-N
SMILES: CC\C=C\CC(O)\C=C\C=C/C\C=C/C\C=C/C\C=C/CCC(O)=O
RETENTIONTIME: 
CCS: 240.2354187
IONMODE: Negative
INSTRUMENTTYPE: LC-ESI-QIT
INSTRUMENT: 
COLLISIONENERGY: 25
Comment: registered in MassBank
Num Peaks: 24
147.03999	34
149.03999	9
163.10001	17
173.14999	30
187.03999	22
201.14	677
211.10001	22
227.12	73
227.28	17
229.14	86
245.108	263
245.44	13
246.16	17
247.12	13
255.12	47
271.20001	13
273.12	30
281.14999	858
281.505	30
283.06	22
299.20499	293
315.23999	13
325.09601	250
343.12399	1000

NAME: 17-HDoHE; LC-ESI-QIT; MS2; CE
PRECURSORMZ: 343.227868
PRECURSORTYPE: [M-H]-
FORMULA: C22H32O3
Ontology: Very long-chain fatty acids
INCHIKEY: SWTYBBUBEPPYCX-BQRHHIOENA-N
SMILES: CC\C=C\CC(O)\C=C\C=C/C\C=C/C\C=C/C\C=C/CCC(O)=O
RETENTIONTIME: 
CCS: 240.2354187
IONMODE: Negative
INSTRUMENTTYPE: LC-ESI-QIT
INSTRUMENT: 
COLLISIONENERGY: 30
Comment: registered in MassBank
Num Peaks: 20
118.96	49
119.12	33
162.96001	82
172.96001	49
173.12	49
175.2	49
201.14101	885
203.2	98
227.099	328
229.136	148
245	131
245.24001	66
247.2	49
272.95999	66
273.20001	98
281.17599	1000
299.12	82
325.10001	148
343.09698	475
343.28	98

NAME: 17-HDoHE; LC-ESI-QIT; MS2; CE
PRECURSORMZ: 343.227868
PRECURSORTYPE: [M-H]-
FORMULA: C22H32O3
Ontology: Very long-chain fatty acids
INCHIKEY: SWTYBBUBEPPYCX-BQRHHIOENA-N
SMILES: CC\C=C\CC(O)\C=C\C=C/C\C=C/C\C=C/C\C=C/CCC(O)=O
RETENTIONTIME: 
CCS: 240.2354187
IONMODE: Negative
INSTRUMENTTYPE: LC-ESI-QIT
INSTRUMENT: 
COLLISIONENERGY: 35
Comment: registered in MassBank
Num Peaks: 9
147.03999	800
173.147	800
199.03999	300
201.2	1000
216.96001	200
227.12	200
281.20001	500
325.12	200
342.88	200

NAME: 17-HDoHE; LC-ESI-QIT; MS2; CE
PRECURSORMZ: 343.227868
PRECURSORTYPE: [M-H]-
FORMULA: C22H32O3
Ontology: Very long-chain fatty acids
INCHIKEY: SWTYBBUBEPPYCX-BQRHHIOENA-N
SMILES: CC\C=C\CC(O)\C=C\C=C/C\C=C/C\C=C/C\C=C/CCC(O)=O
RETENTIONTIME: 
CCS: 240.2354187
IONMODE: Negative
INSTRUMENTTYPE: LC-ESI-QIT
INSTRUMENT: 
COLLISIONENERGY: 40
Comment: registered in MassBank
Num Peaks: 7
118.933	1000
119.12	833
120.96	333
121.28	500
173.2	1000
187.03999	500
253.12	500

NAME: 17-HDoHE; LC-ESI-QIT; MS2; CE
PRECURSORMZ: 343.227868
PRECURSORTYPE: [M-H]-
FORMULA: C22H32O3
Ontology: Very long-chain fatty acids
INCHIKEY: SWTYBBUBEPPYCX-BQRHHIOENA-N
SMILES: CC\C=C\CC(O)\C=C\C=C/C\C=C/C\C=C/C\C=C/CCC(O)=O
RETENTIONTIME: 
CCS: 240.2354187
IONMODE: Negative
INSTRUMENTTYPE: LC-ESI-QIT
INSTRUMENT: 
COLLISIONENERGY: 45
Comment: registered in MassBank
Num Peaks: 2
118.96	1000
172.96001	1000

NAME: 17-HDoHE; LC-ESI-QIT; MS2; CE
PRECURSORMZ: 343.227868
PRECURSORTYPE: [M-H]-
FORMULA: C22H32O3
Ontology: Very long-chain fatty acids
INCHIKEY: SWTYBBUBEPPYCX-BQRHHIOENA-N
SMILES: CC\C=C\CC(O)\C=C\C=C/C\C=C/C\C=C/C\C=C/CCC(O)=O
RETENTIONTIME: 
CCS: 240.2354187
IONMODE: Negative
INSTRUMENTTYPE: LC-ESI-QIT
INSTRUMENT: 
COLLISIONENERGY: 50
Comment: registered in MassBank
Num Peaks: 3
114.96	500
118.88	750
211.28	1000

NAME: 18-HEPE; LC-ESI-QIT; MS2; CE
PRECURSORMZ: 317.212218
PRECURSORTYPE: [M-H]-
FORMULA: C20H30O3
Ontology: Hydroxyeicosapentaenoic acids
INCHIKEY: LRWYBGFSVUBWMO-UXNZXXPINA-N
SMILES: CCC(O)\C=C\C=C/C\C=C/C\C=C/C\C=C/CCCC(O)=O
RETENTIONTIME: 
CCS: 183.2671813
IONMODE: Negative
INSTRUMENTTYPE: LC-ESI-QIT
INSTRUMENT: 
COLLISIONENERGY: 10
Comment: registered in MassBank
Num Peaks: 8
163.243	11
215.2	61
239.22501	6
255.242	122
259.21799	43
273.19501	29
299.20099	89
317.138	1000

NAME: 18-HEPE; LC-ESI-QIT; MS2; CE
PRECURSORMZ: 317.212218
PRECURSORTYPE: [M-H]-
FORMULA: C20H30O3
Ontology: Hydroxyeicosapentaenoic acids
INCHIKEY: LRWYBGFSVUBWMO-UXNZXXPINA-N
SMILES: CCC(O)\C=C\C=C/C\C=C/C\C=C/C\C=C/CCCC(O)=O
RETENTIONTIME: 
CCS: 183.2671813
IONMODE: Negative
INSTRUMENTTYPE: LC-ESI-QIT
INSTRUMENT: 
COLLISIONENERGY: 15
Comment: registered in MassBank
Num Peaks: 7
163.157	9
215.194	121
255.214	191
259.164	52
273.194	37
299.21301	123
317.125	1000

NAME: 18-HEPE; LC-ESI-QIT; MS2; CE
PRECURSORMZ: 317.212218
PRECURSORTYPE: [M-H]-
FORMULA: C20H30O3
Ontology: Hydroxyeicosapentaenoic acids
INCHIKEY: LRWYBGFSVUBWMO-UXNZXXPINA-N
SMILES: CCC(O)\C=C\C=C/C\C=C/C\C=C/C\C=C/CCCC(O)=O
RETENTIONTIME: 
CCS: 183.2671813
IONMODE: Negative
INSTRUMENTTYPE: LC-ESI-QIT
INSTRUMENT: 
COLLISIONENERGY: 20
Comment: registered in MassBank
Num Peaks: 12
161.164	10
163.12	11
201.166	21
215.188	273
239.2	10
245.17	14
255.17599	372
259.15201	128
271.12701	11
273.18399	89
299.15701	198
317.12701	1000

NAME: 18-HEPE; LC-ESI-QIT; MS2; CE
PRECURSORMZ: 317.212218
PRECURSORTYPE: [M-H]-
FORMULA: C20H30O3
Ontology: Hydroxyeicosapentaenoic acids
INCHIKEY: LRWYBGFSVUBWMO-UXNZXXPINA-N
SMILES: CCC(O)\C=C\C=C/C\C=C/C\C=C/C\C=C/CCCC(O)=O
RETENTIONTIME: 
CCS: 183.2671813
IONMODE: Negative
INSTRUMENTTYPE: LC-ESI-QIT
INSTRUMENT: 
COLLISIONENERGY: 25
Comment: registered in MassBank
Num Peaks: 23
149.12	9
161.11	15
163.12	20
173.2	7
181.03999	5
189.145	22
201.16499	69
202.96001	9
215.16701	370
217.03999	7
233.14999	8
241.12	11
245.12	32
245.44	5
255.186	490
259.09601	227
261.12	24
271.12	7
273.14001	213
281.12	9
299.151	266
315.14001	8
317.14401	1000

NAME: 18-HEPE; LC-ESI-QIT; MS2; CE
PRECURSORMZ: 317.212218
PRECURSORTYPE: [M-H]-
FORMULA: C20H30O3
Ontology: Hydroxyeicosapentaenoic acids
INCHIKEY: LRWYBGFSVUBWMO-UXNZXXPINA-N
SMILES: CCC(O)\C=C\C=C/C\C=C/C\C=C/C\C=C/CCCC(O)=O
RETENTIONTIME: 
CCS: 183.2671813
IONMODE: Negative
INSTRUMENTTYPE: LC-ESI-QIT
INSTRUMENT: 
COLLISIONENERGY: 30
Comment: registered in MassBank
Num Peaks: 26
147.28	9
157.12	9
160.96001	18
163.03999	13
173.28	18
175.06	13
181.147	18
187.22	13
189.03999	13
191.12	40
201.12	63
201.36	18
203.03999	9
207.12	31
215.127	296
217.12	13
219.2	13
243.2	9
255.14999	466
259.14301	148
261.04001	22
271.04001	9
273.14899	108
273.35999	31
299.12	143
317.173	1000

NAME: 18-HEPE; LC-ESI-QIT; MS2; CE
PRECURSORMZ: 317.212218
PRECURSORTYPE: [M-H]-
FORMULA: C20H30O3
Ontology: Hydroxyeicosapentaenoic acids
INCHIKEY: LRWYBGFSVUBWMO-UXNZXXPINA-N
SMILES: CCC(O)\C=C\C=C/C\C=C/C\C=C/C\C=C/CCCC(O)=O
RETENTIONTIME: 
CCS: 183.2671813
IONMODE: Negative
INSTRUMENTTYPE: LC-ESI-QIT
INSTRUMENT: 
COLLISIONENERGY: 35
Comment: registered in MassBank
Num Peaks: 22
97.04	16
118.96	16
146.88	24
160.96001	24
161.12	56
167.03999	16
167.2	16
173.03999	32
173.2	24
187.03999	32
189.03999	24
189.2	24
215.03999	40
215.22701	105
221.12	40
254.96001	32
255.12	105
258.88	24
259.04001	32
273.23999	32
299.14999	73
317.20999	1000

NAME: 18-HEPE; LC-ESI-QIT; MS2; CE
PRECURSORMZ: 317.212218
PRECURSORTYPE: [M-H]-
FORMULA: C20H30O3
Ontology: Hydroxyeicosapentaenoic acids
INCHIKEY: LRWYBGFSVUBWMO-UXNZXXPINA-N
SMILES: CCC(O)\C=C\C=C/C\C=C/C\C=C/C\C=C/CCCC(O)=O
RETENTIONTIME: 
CCS: 183.2671813
IONMODE: Negative
INSTRUMENTTYPE: LC-ESI-QIT
INSTRUMENT: 
COLLISIONENERGY: 40
Comment: registered in MassBank
Num Peaks: 4
187.2	47
245.12	47
245.28	47
317.21399	1000

NAME: 18-HEPE; LC-ESI-QIT; MS2; CE
PRECURSORMZ: 317.212218
PRECURSORTYPE: [M-H]-
FORMULA: C20H30O3
Ontology: Hydroxyeicosapentaenoic acids
INCHIKEY: LRWYBGFSVUBWMO-UXNZXXPINA-N
SMILES: CCC(O)\C=C\C=C/C\C=C/C\C=C/C\C=C/CCCC(O)=O
RETENTIONTIME: 
CCS: 183.2671813
IONMODE: Negative
INSTRUMENTTYPE: LC-ESI-QIT
INSTRUMENT: 
COLLISIONENERGY: 45
Comment: registered in MassBank
Num Peaks: 3
177.12	83
245.2	208
317.17001	1000

NAME: 18-HEPE; LC-ESI-QIT; MS2; CE
PRECURSORMZ: 317.212218
PRECURSORTYPE: [M-H]-
FORMULA: C20H30O3
Ontology: Hydroxyeicosapentaenoic acids
INCHIKEY: LRWYBGFSVUBWMO-UXNZXXPINA-N
SMILES: CCC(O)\C=C\C=C/C\C=C/C\C=C/C\C=C/CCCC(O)=O
RETENTIONTIME: 
CCS: 183.2671813
IONMODE: Negative
INSTRUMENTTYPE: LC-ESI-QIT
INSTRUMENT: 
COLLISIONENERGY: 50
Comment: registered in MassBank
Num Peaks: 1
245.17	1000

NAME: 20-HDoHE; LC-ESI-QIT; MS2; CE
PRECURSORMZ: 343.227868
PRECURSORTYPE: [M-H]-
FORMULA: C22H32O3
Ontology: Very long-chain fatty acids
INCHIKEY: YUZXOJOCNGKDNI-LFVREGEGNA-N
SMILES: CCC(O)\C=C\C=C/C\C=C/C\C=C/C\C=C/C\C=C/CCC(O)=O
RETENTIONTIME: 
CCS: 243.4850187
IONMODE: Negative
INSTRUMENTTYPE: LC-ESI-QIT
INSTRUMENT: 
COLLISIONENERGY: 10
Comment: registered in MassBank
Num Peaks: 8
189.287	5
241.291	88
265.24701	10
281.284	198
285.242	37
299.284	141
325.22601	118
343.133	1000

NAME: 20-HDoHE; LC-ESI-QIT; MS2; CE
PRECURSORMZ: 343.227868
PRECURSORTYPE: [M-H]-
FORMULA: C22H32O3
Ontology: Very long-chain fatty acids
INCHIKEY: YUZXOJOCNGKDNI-LFVREGEGNA-N
SMILES: CCC(O)\C=C\C=C/C\C=C/C\C=C/C\C=C/C\C=C/CCC(O)=O
RETENTIONTIME: 
CCS: 243.4850187
IONMODE: Negative
INSTRUMENTTYPE: LC-ESI-QIT
INSTRUMENT: 
COLLISIONENERGY: 15
Comment: registered in MassBank
Num Peaks: 11
149.215	8
163.20399	9
187.28	7
241.25	140
265.18201	17
271.33301	6
281.26501	268
285.22299	58
299.26801	161
325.22101	130
343.134	1000

NAME: 20-HDoHE; LC-ESI-QIT; MS2; CE
PRECURSORMZ: 343.227868
PRECURSORTYPE: [M-H]-
FORMULA: C22H32O3
Ontology: Very long-chain fatty acids
INCHIKEY: YUZXOJOCNGKDNI-LFVREGEGNA-N
SMILES: CCC(O)\C=C\C=C/C\C=C/C\C=C/C\C=C/C\C=C/CCC(O)=O
RETENTIONTIME: 
CCS: 243.4850187
IONMODE: Negative
INSTRUMENTTYPE: LC-ESI-QIT
INSTRUMENT: 
COLLISIONENERGY: 20
Comment: registered in MassBank
Num Peaks: 22
149.2	15
163.09801	7
187.19	42
189.138	11
215.144	7
227.214	27
241.222	384
241.87199	6
242.24001	7
245.164	9
265.12	9
271.14401	17
281.24799	555
281.92001	11
282.414	13
285.202	159
287.25299	7
297.233	7
299.24301	337
300.02301	5
325.203	232
343.146	1000

NAME: 20-HDoHE; LC-ESI-QIT; MS2; CE
PRECURSORMZ: 343.227868
PRECURSORTYPE: [M-H]-
FORMULA: C22H32O3
Ontology: Very long-chain fatty acids
INCHIKEY: YUZXOJOCNGKDNI-LFVREGEGNA-N
SMILES: CCC(O)\C=C\C=C/C\C=C/C\C=C/C\C=C/C\C=C/CCC(O)=O
RETENTIONTIME: 
CCS: 243.4850187
IONMODE: Negative
INSTRUMENTTYPE: LC-ESI-QIT
INSTRUMENT: 
COLLISIONENERGY: 25
Comment: registered in MassBank
Num Peaks: 39
133.03999	9
147.2	15
148.96001	8
157.03999	8
159.216	17
161.15199	13
163.03999	15
163.28	7
173.12	23
177.16	7
187.11	105
189.069	25
199.2	7
199.36	6
200.96001	11
207.12	16
213.12	9
215.15199	16
217.03999	6
227.2	85
229.28	6
233.2	7
239.12	7
241.185	728
243.03999	6
245.12	28
253.138	13
259.12	6
265.20001	16
267.224	14
271.21701	66
281.18799	883
285.15302	332
287.20001	33
297.18399	15
299.18799	614
325.14801	392
342.79999	16
343.134	1000

NAME: 20-HDoHE; LC-ESI-QIT; MS2; CE
PRECURSORMZ: 343.227868
PRECURSORTYPE: [M-H]-
FORMULA: C22H32O3
Ontology: Very long-chain fatty acids
INCHIKEY: YUZXOJOCNGKDNI-LFVREGEGNA-N
SMILES: CCC(O)\C=C\C=C/C\C=C/C\C=C/C\C=C/C\C=C/CCC(O)=O
RETENTIONTIME: 
CCS: 243.4850187
IONMODE: Negative
INSTRUMENTTYPE: LC-ESI-QIT
INSTRUMENT: 
COLLISIONENERGY: 30
Comment: registered in MassBank
Num Peaks: 52
119.04	16
133.03999	44
143.16	16
145.12	24
147.03999	28
147.28	16
153.03999	8
159.069	40
161.12	64
163.12	24
171.03999	8
173.03999	32
173.17999	12
175.03999	28
175.2	28
181.03999	8
183.03999	8
187.104	265
189.12	20
193.12	8
193.28	12
199.12	44
201.12	20
207.12	40
211.12	40
213.2	28
215.10699	56
227.093	185
229.2	16
239.12	8
241.129	675
243.173	24
245.11	40
253.12	28
259.04001	8
265.20001	12
269.20001	12
271.16	12
273.20001	8
281.17499	1000
282.88	8
283.133	20
285.08301	281
285.44	20
287.20001	76
297.12	28
299.16901	759
307.20001	12
315.20001	8
325.15601	249
325.44	20
343.13	815

NAME: 20-HDoHE; LC-ESI-QIT; MS2; CE
PRECURSORMZ: 343.227868
PRECURSORTYPE: [M-H]-
FORMULA: C22H32O3
Ontology: Very long-chain fatty acids
INCHIKEY: YUZXOJOCNGKDNI-LFVREGEGNA-N
SMILES: CCC(O)\C=C\C=C/C\C=C/C\C=C/C\C=C/C\C=C/CCC(O)=O
RETENTIONTIME: 
CCS: 243.4850187
IONMODE: Negative
INSTRUMENTTYPE: LC-ESI-QIT
INSTRUMENT: 
COLLISIONENERGY: 35
Comment: registered in MassBank
Num Peaks: 25
119.06	58
133.03999	173
147.2	58
159.12	250
161.03999	38
163	115
163.24001	38
169.08	154
173.067	96
175.2	38
187.13	462
189.12	58
199.12	115
207.03999	77
213.2	77
227.10699	115
241.158	1000
245.12	135
253.12	173
271.28	58
281.15302	635
285.12	77
299.19	423
325.12	212
343.14001	692

NAME: 20-HDoHE; LC-ESI-QIT; MS2; CE
PRECURSORMZ: 343.227868
PRECURSORTYPE: [M-H]-
FORMULA: C22H32O3
Ontology: Very long-chain fatty acids
INCHIKEY: YUZXOJOCNGKDNI-LFVREGEGNA-N
SMILES: CCC(O)\C=C\C=C/C\C=C/C\C=C/C\C=C/C\C=C/CCC(O)=O
RETENTIONTIME: 
CCS: 243.4850187
IONMODE: Negative
INSTRUMENTTYPE: LC-ESI-QIT
INSTRUMENT: 
COLLISIONENERGY: 40
Comment: registered in MassBank
Num Peaks: 19
71.2	250
133.03999	625
143.14	375
145.03999	500
173.03999	1000
173.2	875
185.03999	250
187.2	1000
213.03999	375
227.2	250
230.96001	250
241.03999	875
271.04001	625
285.04001	375
285.20001	625
299.12	250
315.20001	250
343.12	875
343.28	250

NAME: 20-HDoHE; LC-ESI-QIT; MS2; CE
PRECURSORMZ: 343.227868
PRECURSORTYPE: [M-H]-
FORMULA: C22H32O3
Ontology: Very long-chain fatty acids
INCHIKEY: YUZXOJOCNGKDNI-LFVREGEGNA-N
SMILES: CCC(O)\C=C\C=C/C\C=C/C\C=C/C\C=C/C\C=C/CCC(O)=O
RETENTIONTIME: 
CCS: 243.4850187
IONMODE: Negative
INSTRUMENTTYPE: LC-ESI-QIT
INSTRUMENT: 
COLLISIONENERGY: 45
Comment: registered in MassBank
Num Peaks: 3
71.2	286
115.2	571
133.013	1000

NAME: 20-HDoHE; LC-ESI-QIT; MS2; CE
PRECURSORMZ: 343.227868
PRECURSORTYPE: [M-H]-
FORMULA: C22H32O3
Ontology: Very long-chain fatty acids
INCHIKEY: YUZXOJOCNGKDNI-LFVREGEGNA-N
SMILES: CCC(O)\C=C\C=C/C\C=C/C\C=C/C\C=C/C\C=C/CCC(O)=O
RETENTIONTIME: 
CCS: 243.4850187
IONMODE: Negative
INSTRUMENTTYPE: LC-ESI-QIT
INSTRUMENT: 
COLLISIONENERGY: 50
Comment: registered in MassBank
Num Peaks: 2
157.12	667
168.96001	1000

NAME: 4-HDoHE; LC-ESI-QIT; MS2; CE
PRECURSORMZ: 343.227868
PRECURSORTYPE: [M-H]-
FORMULA: C22H32O3
Ontology: Very long-chain fatty acids
INCHIKEY: IFRKCNPQVIJFAQ-PQVBWYSWNA-N
SMILES: CC\C=C/C\C=C/C\C=C/C\C=C/C\C=C/C=C/C(O)CCC(O)=O
RETENTIONTIME: 
CCS: 239.7670187
IONMODE: Negative
INSTRUMENTTYPE: LC-ESI-QIT
INSTRUMENT: 
COLLISIONENERGY: 10
Comment: registered in MassBank
Num Peaks: 6
163.136	9
189.211	17
281.23199	535
299.21399	23
325.211	54
343.12601	1000

NAME: 4-HDoHE; LC-ESI-QIT; MS2; CE
PRECURSORMZ: 343.227868
PRECURSORTYPE: [M-H]-
FORMULA: C22H32O3
Ontology: Very long-chain fatty acids
INCHIKEY: IFRKCNPQVIJFAQ-PQVBWYSWNA-N
SMILES: CC\C=C/C\C=C/C\C=C/C\C=C/C\C=C/C=C/C(O)CCC(O)=O
RETENTIONTIME: 
CCS: 239.7670187
IONMODE: Negative
INSTRUMENTTYPE: LC-ESI-QIT
INSTRUMENT: 
COLLISIONENERGY: 15
Comment: registered in MassBank
Num Peaks: 11
100.991	11
163.12	7
173.12	5
189.179	16
227.25301	7
241.157	15
243.164	7
281.22501	544
299.272	43
325.17499	79
343.13101	1000

NAME: 4-HDoHE; LC-ESI-QIT; MS2; CE
PRECURSORMZ: 343.227868
PRECURSORTYPE: [M-H]-
FORMULA: C22H32O3
Ontology: Very long-chain fatty acids
INCHIKEY: IFRKCNPQVIJFAQ-PQVBWYSWNA-N
SMILES: CC\C=C/C\C=C/C\C=C/C\C=C/C\C=C/C=C/C(O)CCC(O)=O
RETENTIONTIME: 
CCS: 239.7670187
IONMODE: Negative
INSTRUMENTTYPE: LC-ESI-QIT
INSTRUMENT: 
COLLISIONENERGY: 20
Comment: registered in MassBank
Num Peaks: 18
101.04	40
133.05499	8
147.12	6
153.03999	6
173.15601	22
175.173	6
189.144	10
193.12	6
215.28	10
227.179	20
241.127	32
241.371	6
243.2	27
265.147	9
281.18701	666
299.20801	180
325.14001	126
343.12399	1000

NAME: 4-HDoHE; LC-ESI-QIT; MS2; CE
PRECURSORMZ: 343.227868
PRECURSORTYPE: [M-H]-
FORMULA: C22H32O3
Ontology: Very long-chain fatty acids
INCHIKEY: IFRKCNPQVIJFAQ-PQVBWYSWNA-N
SMILES: CC\C=C/C\C=C/C\C=C/C\C=C/C\C=C/C=C/C(O)CCC(O)=O
RETENTIONTIME: 
CCS: 239.7670187
IONMODE: Negative
INSTRUMENTTYPE: LC-ESI-QIT
INSTRUMENT: 
COLLISIONENERGY: 25
Comment: registered in MassBank
Num Peaks: 27
83.12	13
96.64	6
97.04	10
101.044	208
115.04	96
122.96	10
132.96001	32
148.96001	10
149.12	6
161.12	10
173.10001	58
175.03999	13
175.2	13
215.136	38
227.03999	16
227.2	22
241.14301	112
243.03999	22
245.2	10
281.16101	997
283.12	16
297.12	6
299.15799	466
307.12	16
325.146	252
341.20001	10
343.12399	1000

NAME: 4-HDoHE; LC-ESI-QIT; MS2; CE
PRECURSORMZ: 343.227868
PRECURSORTYPE: [M-H]-
FORMULA: C22H32O3
Ontology: Very long-chain fatty acids
INCHIKEY: IFRKCNPQVIJFAQ-PQVBWYSWNA-N
SMILES: CC\C=C/C\C=C/C\C=C/C\C=C/C\C=C/C=C/C(O)CCC(O)=O
RETENTIONTIME: 
CCS: 239.7670187
IONMODE: Negative
INSTRUMENTTYPE: LC-ESI-QIT
INSTRUMENT: 
COLLISIONENERGY: 30
Comment: registered in MassBank
Num Peaks: 19
97.04	167
100.44	28
100.72	28
101.067	1000
114.971	208
133.02	69
161.10001	42
173.15199	194
187.03999	28
215.058	97
215.2	153
227.03999	111
241.12	181
241.28	69
281.173	958
299.20001	292
299.44	42
325.15701	403
343.10001	708

NAME: 4-HDoHE; LC-ESI-QIT; MS2; CE
PRECURSORMZ: 343.227868
PRECURSORTYPE: [M-H]-
FORMULA: C22H32O3
Ontology: Very long-chain fatty acids
INCHIKEY: IFRKCNPQVIJFAQ-PQVBWYSWNA-N
SMILES: CC\C=C/C\C=C/C\C=C/C\C=C/C\C=C/C=C/C(O)CCC(O)=O
RETENTIONTIME: 
CCS: 239.7670187
IONMODE: Negative
INSTRUMENTTYPE: LC-ESI-QIT
INSTRUMENT: 
COLLISIONENERGY: 35
Comment: registered in MassBank
Num Peaks: 10
70.96	316
96.96	211
97.12	158
100.8	211
101.03	1000
115.01	421
115.2	158
133.05299	263
241.12	368
324.95999	263

NAME: 4-HDoHE; LC-ESI-QIT; MS2; CE
PRECURSORMZ: 343.227868
PRECURSORTYPE: [M-H]-
FORMULA: C22H32O3
Ontology: Very long-chain fatty acids
INCHIKEY: IFRKCNPQVIJFAQ-PQVBWYSWNA-N
SMILES: CC\C=C/C\C=C/C\C=C/C\C=C/C\C=C/C=C/C(O)CCC(O)=O
RETENTIONTIME: 
CCS: 239.7670187
IONMODE: Negative
INSTRUMENTTYPE: LC-ESI-QIT
INSTRUMENT: 
COLLISIONENERGY: 40
Comment: registered in MassBank
Num Peaks: 5
71.04	909
96.976	455
101.03	1000
114.88	182
115.104	500

NAME: 4-HDoHE; LC-ESI-QIT; MS2; CE
PRECURSORMZ: 343.227868
PRECURSORTYPE: [M-H]-
FORMULA: C22H32O3
Ontology: Very long-chain fatty acids
INCHIKEY: IFRKCNPQVIJFAQ-PQVBWYSWNA-N
SMILES: CC\C=C/C\C=C/C\C=C/C\C=C/C\C=C/C=C/C(O)CCC(O)=O
RETENTIONTIME: 
CCS: 239.7670187
IONMODE: Negative
INSTRUMENTTYPE: LC-ESI-QIT
INSTRUMENT: 
COLLISIONENERGY: 45
Comment: registered in MassBank
Num Peaks: 8
70.96	412
96.88	294
100.984	1000
101.18	176
111.04	118
115.12	118
132.88	118
227.12	118

NAME: 4-HDoHE; LC-ESI-QIT; MS2; CE
PRECURSORMZ: 343.227868
PRECURSORTYPE: [M-H]-
FORMULA: C22H32O3
Ontology: Very long-chain fatty acids
INCHIKEY: IFRKCNPQVIJFAQ-PQVBWYSWNA-N
SMILES: CC\C=C/C\C=C/C\C=C/C\C=C/C\C=C/C=C/C(O)CCC(O)=O
RETENTIONTIME: 
CCS: 239.7670187
IONMODE: Negative
INSTRUMENTTYPE: LC-ESI-QIT
INSTRUMENT: 
COLLISIONENERGY: 50
Comment: registered in MassBank
Num Peaks: 3
70.96	1000
101.12	1000
115.02	1000

NAME: 5-HEPE; LC-ESI-QIT; MS2; CE
PRECURSORMZ: 317.212218
PRECURSORTYPE: [M-H]-
FORMULA: C20H30O3
Ontology: Hydroxyeicosapentaenoic acids
INCHIKEY: FTAGQROYQYQRHF-GHWNLOBHSA-N
SMILES: CC\C=C/C\C=C/C\C=C/C\C=C/C=C/[C@@H](O)CCCC(O)=O
RETENTIONTIME: 
CCS: 226.9431472
IONMODE: Negative
INSTRUMENTTYPE: LC-ESI-QIT
INSTRUMENT: 
COLLISIONENERGY: 10
Comment: registered in MassBank
Num Peaks: 5
163.21001	56
201.093	16
255.21001	657
299.19101	245
317.12701	1000

NAME: 5-HEPE; LC-ESI-QIT; MS2; CE
PRECURSORMZ: 317.212218
PRECURSORTYPE: [M-H]-
FORMULA: C20H30O3
Ontology: Hydroxyeicosapentaenoic acids
INCHIKEY: FTAGQROYQYQRHF-GHWNLOBHSA-N
SMILES: CC\C=C/C\C=C/C\C=C/C\C=C/C=C/[C@@H](O)CCCC(O)=O
RETENTIONTIME: 
CCS: 226.9431472
IONMODE: Negative
INSTRUMENTTYPE: LC-ESI-QIT
INSTRUMENT: 
COLLISIONENERGY: 15
Comment: registered in MassBank
Num Peaks: 8
115.04	17
163.151	47
201.17799	43
203.272	7
255.19701	711
273.177	13
299.16501	258
317.125	1000

NAME: 5-HEPE; LC-ESI-QIT; MS2; CE
PRECURSORMZ: 317.212218
PRECURSORTYPE: [M-H]-
FORMULA: C20H30O3
Ontology: Hydroxyeicosapentaenoic acids
INCHIKEY: FTAGQROYQYQRHF-GHWNLOBHSA-N
SMILES: CC\C=C/C\C=C/C\C=C/C\C=C/C=C/[C@@H](O)CCCC(O)=O
RETENTIONTIME: 
CCS: 226.9431472
IONMODE: Negative
INSTRUMENTTYPE: LC-ESI-QIT
INSTRUMENT: 
COLLISIONENERGY: 20
Comment: registered in MassBank
Num Peaks: 10
115.058	60
163.13	42
201.15401	138
203.25999	12
239.2	7
255.17999	930
255.57001	9
273.15601	18
299.13199	332
317.134	1000

NAME: 5-HEPE; LC-ESI-QIT; MS2; CE
PRECURSORMZ: 317.212218
PRECURSORTYPE: [M-H]-
FORMULA: C20H30O3
Ontology: Hydroxyeicosapentaenoic acids
INCHIKEY: FTAGQROYQYQRHF-GHWNLOBHSA-N
SMILES: CC\C=C/C\C=C/C\C=C/C\C=C/C=C/[C@@H](O)CCCC(O)=O
RETENTIONTIME: 
CCS: 226.9431472
IONMODE: Negative
INSTRUMENTTYPE: LC-ESI-QIT
INSTRUMENT: 
COLLISIONENERGY: 25
Comment: registered in MassBank
Num Peaks: 18
114.8	27
115.077	134
128.89999	11
129.12	7
175.2	16
177.12	9
201.153	227
201.52	7
221.133	11
239.03999	11
243.03999	7
245.2	36
255.16901	1000
257.20001	7
273.17099	45
299.19601	254
315.01999	9
317.16699	889

NAME: 5-HEPE; LC-ESI-QIT; MS2; CE
PRECURSORMZ: 317.212218
PRECURSORTYPE: [M-H]-
FORMULA: C20H30O3
Ontology: Hydroxyeicosapentaenoic acids
INCHIKEY: FTAGQROYQYQRHF-GHWNLOBHSA-N
SMILES: CC\C=C/C\C=C/C\C=C/C\C=C/C=C/[C@@H](O)CCCC(O)=O
RETENTIONTIME: 
CCS: 226.9431472
IONMODE: Negative
INSTRUMENTTYPE: LC-ESI-QIT
INSTRUMENT: 
COLLISIONENERGY: 30
Comment: registered in MassBank
Num Peaks: 11
114.77	31
115.023	190
147.12	22
149.03999	9
163.08	9
175.12	18
201.12	367
255.17799	571
299.07401	66
299.28	27
317.19299	1000

NAME: 5-HEPE; LC-ESI-QIT; MS2; CE
PRECURSORMZ: 317.212218
PRECURSORTYPE: [M-H]-
FORMULA: C20H30O3
Ontology: Hydroxyeicosapentaenoic acids
INCHIKEY: FTAGQROYQYQRHF-GHWNLOBHSA-N
SMILES: CC\C=C/C\C=C/C\C=C/C\C=C/C=C/[C@@H](O)CCCC(O)=O
RETENTIONTIME: 
CCS: 226.9431472
IONMODE: Negative
INSTRUMENTTYPE: LC-ESI-QIT
INSTRUMENT: 
COLLISIONENERGY: 35
Comment: registered in MassBank
Num Peaks: 6
115.04	358
147.12	28
201.15199	147
245.2	46
255.12	55
317.20001	1000

NAME: 5-HEPE; LC-ESI-QIT; MS2; CE
PRECURSORMZ: 317.212218
PRECURSORTYPE: [M-H]-
FORMULA: C20H30O3
Ontology: Hydroxyeicosapentaenoic acids
INCHIKEY: FTAGQROYQYQRHF-GHWNLOBHSA-N
SMILES: CC\C=C/C\C=C/C\C=C/C\C=C/C=C/[C@@H](O)CCCC(O)=O
RETENTIONTIME: 
CCS: 226.9431472
IONMODE: Negative
INSTRUMENTTYPE: LC-ESI-QIT
INSTRUMENT: 
COLLISIONENERGY: 40
Comment: registered in MassBank
Num Peaks: 4
201.12	23
245.03999	45
245.2	34
317.194	1000

NAME: 5-HEPE; LC-ESI-QIT; MS2; CE
PRECURSORMZ: 317.212218
PRECURSORTYPE: [M-H]-
FORMULA: C20H30O3
Ontology: Hydroxyeicosapentaenoic acids
INCHIKEY: FTAGQROYQYQRHF-GHWNLOBHSA-N
SMILES: CC\C=C/C\C=C/C\C=C/C\C=C/C=C/[C@@H](O)CCCC(O)=O
RETENTIONTIME: 
CCS: 226.9431472
IONMODE: Negative
INSTRUMENTTYPE: LC-ESI-QIT
INSTRUMENT: 
COLLISIONENERGY: 45
Comment: registered in MassBank
Num Peaks: 4
114.88	118
115.12	176
245.12	412
317.21301	1000

NAME: 5-HEPE; LC-ESI-QIT; MS2; CE
PRECURSORMZ: 317.212218
PRECURSORTYPE: [M-H]-
FORMULA: C20H30O3
Ontology: Hydroxyeicosapentaenoic acids
INCHIKEY: FTAGQROYQYQRHF-GHWNLOBHSA-N
SMILES: CC\C=C/C\C=C/C\C=C/C\C=C/C=C/[C@@H](O)CCCC(O)=O
RETENTIONTIME: 
CCS: 226.9431472
IONMODE: Negative
INSTRUMENTTYPE: LC-ESI-QIT
INSTRUMENT: 
COLLISIONENERGY: 50
Comment: registered in MassBank
Num Peaks: 2
56.48	286
245.12	1000

NAME: 5-HETE; LC-ESI-QIT; MS2; CE
PRECURSORMZ: 319.227868
PRECURSORTYPE: [M-H]-
FORMULA: C20H32O3
Ontology: Hydroxyeicosatetraenoic acids
INCHIKEY: KGIJOOYOSFUGPC-JGKLHWIESA-N
SMILES: CCCCC\C=C/C\C=C/C\C=C/C=C/[C@@H](O)CCCC(O)=O
RETENTIONTIME: 
CCS: 185.6776995
IONMODE: Negative
INSTRUMENTTYPE: LC-ESI-QIT
INSTRUMENT: 
COLLISIONENERGY: 20
Comment: registered in MassBank
Num Peaks: 17
115.036	122
203.33299	191
204	14
204.293	7
205.187	9
223.347	5
247.42799	8
257.34299	1000
258	92
258.30899	47
259.138	14
275.36499	13
301.271	802
301.90201	14
302.32001	7
302.87201	5
319.15302	980

NAME: 5-HETE; LC-ESI-QIT; MS2; CE
PRECURSORMZ: 319.227868
PRECURSORTYPE: [M-H]-
FORMULA: C20H32O3
Ontology: Hydroxyeicosatetraenoic acids
INCHIKEY: KGIJOOYOSFUGPC-JGKLHWIESA-N
SMILES: CCCCC\C=C/C\C=C/C\C=C/C=C/[C@@H](O)CCCC(O)=O
RETENTIONTIME: 
CCS: 185.6776995
IONMODE: Negative
INSTRUMENTTYPE: LC-ESI-QIT
INSTRUMENT: 
COLLISIONENERGY: 25
Comment: registered in MassBank
Num Peaks: 22
115.028	191
129.03999	9
163.03999	8
177.226	16
191.173	5
203.213	377
203.864	17
204.16	6
205.29401	17
215.3	14
223.12	5
229.2	24
247.26401	37
257.23599	1000
257.90701	13
259.177	18
273.216	8
275.21899	40
283.21701	14
301.181	537
317.189	7
319.14801	633

NAME: 5-HETE; LC-ESI-QIT; MS2; CE
PRECURSORMZ: 319.227868
PRECURSORTYPE: [M-H]-
FORMULA: C20H32O3
Ontology: Hydroxyeicosatetraenoic acids
INCHIKEY: KGIJOOYOSFUGPC-JGKLHWIESA-N
SMILES: CCCCC\C=C/C\C=C/C\C=C/C=C/[C@@H](O)CCCC(O)=O
RETENTIONTIME: 
CCS: 185.6776995
IONMODE: Negative
INSTRUMENTTYPE: LC-ESI-QIT
INSTRUMENT: 
COLLISIONENERGY: 30
Comment: registered in MassBank
Num Peaks: 22
57.1	6
115.026	368
115.36	9
128.88	6
163.10201	20
177.17999	56
189.192	22
203.17	692
205.12	16
215.17799	30
222.88	7
223.24001	6
229.155	122
231.12	7
245.12	7
247.173	68
257.198	1000
259.173	7
275.19601	65
283.16	15
301.17401	409
319.16299	342

NAME: 5-HETE; LC-ESI-QIT; MS2; CE
PRECURSORMZ: 319.227868
PRECURSORTYPE: [M-H]-
FORMULA: C20H32O3
Ontology: Hydroxyeicosatetraenoic acids
INCHIKEY: KGIJOOYOSFUGPC-JGKLHWIESA-N
SMILES: CCCCC\C=C/C\C=C/C\C=C/C=C/[C@@H](O)CCCC(O)=O
RETENTIONTIME: 
CCS: 185.6776995
IONMODE: Negative
INSTRUMENTTYPE: LC-ESI-QIT
INSTRUMENT: 
COLLISIONENERGY: 35
Comment: registered in MassBank
Num Peaks: 15
57.2	14
110.98	22
115.022	683
128.8	14
163.12	22
175.173	43
177.14301	29
203.179	1000
215.093	50
229.168	201
245.12	22
247.16	65
257.16901	590
301.12	122
319.147	29

NAME: 5-HETE; LC-ESI-QIT; MS2; CE
PRECURSORMZ: 319.227868
PRECURSORTYPE: [M-H]-
FORMULA: C20H32O3
Ontology: Hydroxyeicosatetraenoic acids
INCHIKEY: KGIJOOYOSFUGPC-JGKLHWIESA-N
SMILES: CCCCC\C=C/C\C=C/C\C=C/C=C/[C@@H](O)CCCC(O)=O
RETENTIONTIME: 
CCS: 185.6776995
IONMODE: Negative
INSTRUMENTTYPE: LC-ESI-QIT
INSTRUMENT: 
COLLISIONENERGY: 40
Comment: registered in MassBank
Num Peaks: 6
56.88	48
57.12	71
114.994	1000
203.11	238
229.2	95
257.20001	71

NAME: 5-HETE; LC-ESI-QIT; MS2; CE
PRECURSORMZ: 319.227868
PRECURSORTYPE: [M-H]-
FORMULA: C20H32O3
Ontology: Hydroxyeicosatetraenoic acids
INCHIKEY: KGIJOOYOSFUGPC-JGKLHWIESA-N
SMILES: CCCCC\C=C/C\C=C/C\C=C/C=C/[C@@H](O)CCCC(O)=O
RETENTIONTIME: 
CCS: 185.6776995
IONMODE: Negative
INSTRUMENTTYPE: LC-ESI-QIT
INSTRUMENT: 
COLLISIONENERGY: 45
Comment: registered in MassBank
Num Peaks: 4
56.32	1000
58.96	400
115.2	1000
257.12	400

NAME: 5-HETE; LC-ESI-QIT; MS2; CE
PRECURSORMZ: 319.227868
PRECURSORTYPE: [M-H]-
FORMULA: C20H32O3
Ontology: Hydroxyeicosatetraenoic acids
INCHIKEY: KGIJOOYOSFUGPC-JGKLHWIESA-N
SMILES: CCCCC\C=C/C\C=C/C\C=C/C=C/[C@@H](O)CCCC(O)=O
RETENTIONTIME: 
CCS: 185.6776995
IONMODE: Negative
INSTRUMENTTYPE: LC-ESI-QIT
INSTRUMENT: 
COLLISIONENERGY: 50
Comment: registered in MassBank
Num Peaks: 2
115.096	1000
203.28	167

NAME: 5-HETE; LC-ESI-QIT; MS2; CE
PRECURSORMZ: 319.227868
PRECURSORTYPE: [M-H]-
FORMULA: C20H32O3
Ontology: Hydroxyeicosatetraenoic acids
INCHIKEY: KGIJOOYOSFUGPC-JGKLHWIESA-N
SMILES: CCCCC\C=C/C\C=C/C\C=C/C=C/[C@@H](O)CCCC(O)=O
RETENTIONTIME: 
CCS: 185.6776995
IONMODE: Negative
INSTRUMENTTYPE: LC-ESI-QIT
INSTRUMENT: 
COLLISIONENERGY: 55
Comment: registered in MassBank
Num Peaks: 4
56.85	889
111.12	222
114.96	1000
115.2	556

NAME: 5-HETE; LC-ESI-QIT; MS2; CE
PRECURSORMZ: 319.227868
PRECURSORTYPE: [M-H]-
FORMULA: C20H32O3
Ontology: Hydroxyeicosatetraenoic acids
INCHIKEY: KGIJOOYOSFUGPC-JGKLHWIESA-N
SMILES: CCCCC\C=C/C\C=C/C\C=C/C=C/[C@@H](O)CCCC(O)=O
RETENTIONTIME: 
CCS: 185.6776995
IONMODE: Negative
INSTRUMENTTYPE: LC-ESI-QIT
INSTRUMENT: 
COLLISIONENERGY: 60
Comment: registered in MassBank
Num Peaks: 4
56.48	1000
56.84	545
57.36	273
70.96	182

NAME: 5-OxoETE; LC-ESI-QIT; MS2; CE
PRECURSORMZ: 317.212218
PRECURSORTYPE: [M-H]-
FORMULA: C20H30O3
Ontology: Long-chain fatty acids
INCHIKEY: MEASLHGILYBXFO-XTDASVJISA-N
SMILES: CCCCC\C=C/C\C=C/C\C=C/C=C/C(=O)CCCC(O)=O
RETENTIONTIME: 
CCS: 184.9305388
IONMODE: Negative
INSTRUMENTTYPE: LC-ESI-QIT
INSTRUMENT: 
COLLISIONENERGY: 10
Comment: registered in MassBank
Num Peaks: 8
167.103	9
203.22	20
239.192	10
245.25101	6
255.271	16
273.25601	48
299.27701	35
317.14099	1000

NAME: 5-OxoETE; LC-ESI-QIT; MS2; CE
PRECURSORMZ: 317.212218
PRECURSORTYPE: [M-H]-
FORMULA: C20H30O3
Ontology: Long-chain fatty acids
INCHIKEY: MEASLHGILYBXFO-XTDASVJISA-N
SMILES: CCCCC\C=C/C\C=C/C\C=C/C=C/C(=O)CCCC(O)=O
RETENTIONTIME: 
CCS: 184.9305388
IONMODE: Negative
INSTRUMENTTYPE: LC-ESI-QIT
INSTRUMENT: 
COLLISIONENERGY: 15
Comment: registered in MassBank
Num Peaks: 8
167.147	7
203.214	28
239.181	10
245.217	8
255.272	23
273.276	54
299.23801	46
317.14001	1000

NAME: 5-OxoETE; LC-ESI-QIT; MS2; CE
PRECURSORMZ: 317.212218
PRECURSORTYPE: [M-H]-
FORMULA: C20H30O3
Ontology: Long-chain fatty acids
INCHIKEY: MEASLHGILYBXFO-XTDASVJISA-N
SMILES: CCCCC\C=C/C\C=C/C\C=C/C=C/C(=O)CCCC(O)=O
RETENTIONTIME: 
CCS: 184.9305388
IONMODE: Negative
INSTRUMENTTYPE: LC-ESI-QIT
INSTRUMENT: 
COLLISIONENERGY: 20
Comment: registered in MassBank
Num Peaks: 11
109.033	7
163.175	5
167.12	6
203.218	63
239.21201	15
245.23599	20
255.22099	41
257.20801	7
273.258	133
299.242	62
317.13501	1000

NAME: 5-OxoETE; LC-ESI-QIT; MS2; CE
PRECURSORMZ: 317.212218
PRECURSORTYPE: [M-H]-
FORMULA: C20H30O3
Ontology: Long-chain fatty acids
INCHIKEY: MEASLHGILYBXFO-XTDASVJISA-N
SMILES: CCCCC\C=C/C\C=C/C\C=C/C=C/C(=O)CCCC(O)=O
RETENTIONTIME: 
CCS: 184.9305388
IONMODE: Negative
INSTRUMENTTYPE: LC-ESI-QIT
INSTRUMENT: 
COLLISIONENERGY: 25
Comment: registered in MassBank
Num Peaks: 18
109.091	20
123.091	9
129.033	20
149.16701	5
155.084	15
163.16299	14
167.086	6
175.11	26
179.03999	6
203.18401	239
205.2	9
227.16	10
245.174	91
255.242	70
257.16199	28
273.19	297
299.18399	134
317.133	1000

NAME: 5-OxoETE; LC-ESI-QIT; MS2; CE
PRECURSORMZ: 317.212218
PRECURSORTYPE: [M-H]-
FORMULA: C20H30O3
Ontology: Long-chain fatty acids
INCHIKEY: MEASLHGILYBXFO-XTDASVJISA-N
SMILES: CCCCC\C=C/C\C=C/C\C=C/C=C/C(=O)CCCC(O)=O
RETENTIONTIME: 
CCS: 184.9305388
IONMODE: Negative
INSTRUMENTTYPE: LC-ESI-QIT
INSTRUMENT: 
COLLISIONENERGY: 30
Comment: registered in MassBank
Num Peaks: 37
109.098	75
111.04	17
111.28	10
122.88	7
129.056	29
135.2	7
147.12	7
149.12	17
154.96001	19
155.12	17
161.12	17
163.12	61
167.03999	15
175.146	117
177.2	7
178.96001	10
179.12	12
187.10699	34
191.12	7
203.155	1000
205.03999	12
205.2	12
227.03999	12
229.16	27
229.36	10
230.96001	12
231.28	7
239.03999	7
245.151	318
245.52	7
255.16	124
257.10699	165
271.12	12
273.18799	648
273.60001	7
299.17499	226
317.13	990

NAME: 5-OxoETE; LC-ESI-QIT; MS2; CE
PRECURSORMZ: 317.212218
PRECURSORTYPE: [M-H]-
FORMULA: C20H30O3
Ontology: Long-chain fatty acids
INCHIKEY: MEASLHGILYBXFO-XTDASVJISA-N
SMILES: CCCCC\C=C/C\C=C/C\C=C/C=C/C(=O)CCCC(O)=O
RETENTIONTIME: 
CCS: 184.9305388
IONMODE: Negative
INSTRUMENTTYPE: LC-ESI-QIT
INSTRUMENT: 
COLLISIONENERGY: 35
Comment: registered in MassBank
Num Peaks: 20
108.98	12
111.02	40
129.03999	17
140.96001	7
147.12	7
155.03999	10
163.2	42
175.15401	144
187.08	54
203.14301	1000
215.12	10
217.12	12
229.12	17
231.2	7
245.10201	139
255.179	40
257.11499	119
273.202	153
299.05099	52
317.20099	399

NAME: 5-OxoETE; LC-ESI-QIT; MS2; CE
PRECURSORMZ: 317.212218
PRECURSORTYPE: [M-H]-
FORMULA: C20H30O3
Ontology: Long-chain fatty acids
INCHIKEY: MEASLHGILYBXFO-XTDASVJISA-N
SMILES: CCCCC\C=C/C\C=C/C\C=C/C=C/C(=O)CCCC(O)=O
RETENTIONTIME: 
CCS: 184.9305388
IONMODE: Negative
INSTRUMENTTYPE: LC-ESI-QIT
INSTRUMENT: 
COLLISIONENERGY: 40
Comment: registered in MassBank
Num Peaks: 18
70.88	41
94.8	14
94.96	21
106.88	21
108.96	83
111.12	28
129.16	21
175.12	103
187.03999	62
203.145	1000
203.5	21
243.12	28
245.09	131
245.36	28
255.03999	14
257.20001	14
273.28	34
317.20901	462

NAME: 5-OxoETE; LC-ESI-QIT; MS2; CE
PRECURSORMZ: 317.212218
PRECURSORTYPE: [M-H]-
FORMULA: C20H30O3
Ontology: Long-chain fatty acids
INCHIKEY: MEASLHGILYBXFO-XTDASVJISA-N
SMILES: CCCCC\C=C/C\C=C/C\C=C/C=C/C(=O)CCCC(O)=O
RETENTIONTIME: 
CCS: 184.9305388
IONMODE: Negative
INSTRUMENTTYPE: LC-ESI-QIT
INSTRUMENT: 
COLLISIONENERGY: 45
Comment: registered in MassBank
Num Peaks: 11
69.44	43
109.027	217
133.03999	109
141.2	43
160.96001	87
174.96001	87
175.2	43
203.13901	1000
245.12	109
284.79999	87
317.20001	457

NAME: 5-OxoETE; LC-ESI-QIT; MS2; CE
PRECURSORMZ: 317.212218
PRECURSORTYPE: [M-H]-
FORMULA: C20H30O3
Ontology: Long-chain fatty acids
INCHIKEY: MEASLHGILYBXFO-XTDASVJISA-N
SMILES: CCCCC\C=C/C\C=C/C\C=C/C=C/C(=O)CCCC(O)=O
RETENTIONTIME: 
CCS: 184.9305388
IONMODE: Negative
INSTRUMENTTYPE: LC-ESI-QIT
INSTRUMENT: 
COLLISIONENERGY: 50
Comment: registered in MassBank
Num Peaks: 9
95.04	333
109.04	333
110.96	333
161.12	1000
161.28	333
202.88	333
203.12	500
243.2	333
245.12	1000

NAME: 7-HDoHE; LC-ESI-QIT; MS2; CE
PRECURSORMZ: 343.227868
PRECURSORTYPE: [M-H]-
FORMULA: C22H32O3
Ontology: Very long-chain fatty acids
INCHIKEY: OZXAIGIRPOOJTI-XJAVJPOHNA-N
SMILES: CC\C=C/C\C=C/C\C=C/C\C=C/C=C/C(O)C\C=C/CCC(O)=O
RETENTIONTIME: 
CCS: 241.0797187
IONMODE: Negative
INSTRUMENTTYPE: LC-ESI-QIT
INSTRUMENT: 
COLLISIONENERGY: 10
Comment: registered in MassBank
Num Peaks: 10
141.103	30
163.17599	9
189.215	17
201.218	16
245.207	9
281.245	578
281.94199	6
299.28201	26
325.242	98
343.13501	1000

NAME: 7-HDoHE; LC-ESI-QIT; MS2; CE
PRECURSORMZ: 343.227868
PRECURSORTYPE: [M-H]-
FORMULA: C22H32O3
Ontology: Very long-chain fatty acids
INCHIKEY: OZXAIGIRPOOJTI-XJAVJPOHNA-N
SMILES: CC\C=C/C\C=C/C\C=C/C\C=C/C=C/C(O)C\C=C/CCC(O)=O
RETENTIONTIME: 
CCS: 241.0797187
IONMODE: Negative
INSTRUMENTTYPE: LC-ESI-QIT
INSTRUMENT: 
COLLISIONENERGY: 15
Comment: registered in MassBank
Num Peaks: 11
141.10001	12
189.2	18
201.22301	44
227.18201	13
245.224	8
281.23801	666
282	9
282.664	7
299.23801	36
325.189	118
343.12601	1000

NAME: 7-HDoHE; LC-ESI-QIT; MS2; CE
PRECURSORMZ: 343.227868
PRECURSORTYPE: [M-H]-
FORMULA: C22H32O3
Ontology: Very long-chain fatty acids
INCHIKEY: OZXAIGIRPOOJTI-XJAVJPOHNA-N
SMILES: CC\C=C/C\C=C/C\C=C/C\C=C/C=C/C(O)C\C=C/CCC(O)=O
RETENTIONTIME: 
CCS: 241.0797187
IONMODE: Negative
INSTRUMENTTYPE: LC-ESI-QIT
INSTRUMENT: 
COLLISIONENERGY: 20
Comment: registered in MassBank
Num Peaks: 10
175.2	6
189.16	12
201.19501	134
227.209	57
245.158	27
265.12	6
281.19901	1000
299.19699	76
325.17001	181
343.13199	833

NAME: 7-HDoHE; LC-ESI-QIT; MS2; CE
PRECURSORMZ: 343.227868
PRECURSORTYPE: [M-H]-
FORMULA: C22H32O3
Ontology: Very long-chain fatty acids
INCHIKEY: OZXAIGIRPOOJTI-XJAVJPOHNA-N
SMILES: CC\C=C/C\C=C/C\C=C/C\C=C/C=C/C(O)C\C=C/CCC(O)=O
RETENTIONTIME: 
CCS: 241.0797187
IONMODE: Negative
INSTRUMENTTYPE: LC-ESI-QIT
INSTRUMENT: 
COLLISIONENERGY: 25
Comment: registered in MassBank
Num Peaks: 26
96.96	7
113.08	20
121.12	7
133.03999	7
141.03999	5
147.2	12
157.12	8
161.12	5
163.22301	8
173.136	8
175.16	32
189.12	13
200.8	9
201.13699	371
211.03999	12
227.144	135
229.10001	9
239.12	8
245.16	72
253.12	5
253.28	12
271.18701	11
281.168	1000
299.198	138
325.16599	150
343.16199	404

NAME: 7-HDoHE; LC-ESI-QIT; MS2; CE
PRECURSORMZ: 343.227868
PRECURSORTYPE: [M-H]-
FORMULA: C22H32O3
Ontology: Very long-chain fatty acids
INCHIKEY: OZXAIGIRPOOJTI-XJAVJPOHNA-N
SMILES: CC\C=C/C\C=C/C\C=C/C\C=C/C=C/C(O)C\C=C/CCC(O)=O
RETENTIONTIME: 
CCS: 241.0797187
IONMODE: Negative
INSTRUMENTTYPE: LC-ESI-QIT
INSTRUMENT: 
COLLISIONENERGY: 30
Comment: registered in MassBank
Num Peaks: 26
113.04	70
119.04	16
146.96001	11
147.12	16
157.2	16
161.2	16
163.28	11
173.03999	43
173.2	32
175.093	86
183.03999	64
187.16	11
189.147	37
201.11301	663
227.10699	230
229.36	16
245.145	86
253.12	21
253.28	27
271.20001	11
281.17401	1000
282.23999	11
282.95999	43
299.21201	75
325.20001	80
343.151	123

NAME: 7-HDoHE; LC-ESI-QIT; MS2; CE
PRECURSORMZ: 343.227868
PRECURSORTYPE: [M-H]-
FORMULA: C22H32O3
Ontology: Very long-chain fatty acids
INCHIKEY: OZXAIGIRPOOJTI-XJAVJPOHNA-N
SMILES: CC\C=C/C\C=C/C\C=C/C\C=C/C=C/C(O)C\C=C/CCC(O)=O
RETENTIONTIME: 
CCS: 241.0797187
IONMODE: Negative
INSTRUMENTTYPE: LC-ESI-QIT
INSTRUMENT: 
COLLISIONENERGY: 35
Comment: registered in MassBank
Num Peaks: 15
59.12	35
113.08	70
115.2	35
119.04	53
120.96	35
143.12	53
159.28	35
161.03999	35
173.08	105
201.15601	1000
227.153	263
245.2	105
253.28	88
281.194	684
299.12	88

NAME: 7-HDoHE; LC-ESI-QIT; MS2; CE
PRECURSORMZ: 343.227868
PRECURSORTYPE: [M-H]-
FORMULA: C22H32O3
Ontology: Very long-chain fatty acids
INCHIKEY: OZXAIGIRPOOJTI-XJAVJPOHNA-N
SMILES: CC\C=C/C\C=C/C\C=C/C\C=C/C=C/C(O)C\C=C/CCC(O)=O
RETENTIONTIME: 
CCS: 241.0797187
IONMODE: Negative
INSTRUMENTTYPE: LC-ESI-QIT
INSTRUMENT: 
COLLISIONENERGY: 40
Comment: registered in MassBank
Num Peaks: 10
112.96	250
118.96	333
121.04	1000
147.12	167
157.12	333
173.2	167
201.17	417
227.03999	250
235.03999	167
253.28	167

NAME: 7-HDoHE; LC-ESI-QIT; MS2; CE
PRECURSORMZ: 343.227868
PRECURSORTYPE: [M-H]-
FORMULA: C22H32O3
Ontology: Very long-chain fatty acids
INCHIKEY: OZXAIGIRPOOJTI-XJAVJPOHNA-N
SMILES: CC\C=C/C\C=C/C\C=C/C\C=C/C=C/C(O)C\C=C/CCC(O)=O
RETENTIONTIME: 
CCS: 241.0797187
IONMODE: Negative
INSTRUMENTTYPE: LC-ESI-QIT
INSTRUMENT: 
COLLISIONENERGY: 45
Comment: registered in MassBank
Num Peaks: 3
96.96	1000
147.12	1000
201.2	1000

NAME: 7-HDoHE; LC-ESI-QIT; MS2; CE
PRECURSORMZ: 343.227868
PRECURSORTYPE: [M-H]-
FORMULA: C22H32O3
Ontology: Very long-chain fatty acids
INCHIKEY: OZXAIGIRPOOJTI-XJAVJPOHNA-N
SMILES: CC\C=C/C\C=C/C\C=C/C\C=C/C=C/C(O)C\C=C/CCC(O)=O
RETENTIONTIME: 
CCS: 241.0797187
IONMODE: Negative
INSTRUMENTTYPE: LC-ESI-QIT
INSTRUMENT: 
COLLISIONENERGY: 50
Comment: registered in MassBank
Num Peaks: 1
119.12	1000

NAME: 8,15-DiHETE; LC-ESI-QIT; MS2; CE
PRECURSORMZ: 335.222783
PRECURSORTYPE: [M-H]-
FORMULA: C20H32O4
Ontology: Hydroxyeicosatetraenoic acids
INCHIKEY: NNPWRKSGORGTIM-HCCKYKKOSA-N
SMILES: CCCCC[C@H](O)\C=C\C=C/C=C/[C@@H](O)C\C=C/CCCC(O)=O
RETENTIONTIME: 
CCS: 228.7758511
IONMODE: Negative
INSTRUMENTTYPE: LC-ESI-QIT
INSTRUMENT: 
COLLISIONENERGY: 10
Comment: registered in MassBank
Num Peaks: 3
235.187	15
317.23401	22
335.14401	1000

NAME: 8,15-DiHETE; LC-ESI-QIT; MS2; CE
PRECURSORMZ: 335.222783
PRECURSORTYPE: [M-H]-
FORMULA: C20H32O4
Ontology: Hydroxyeicosatetraenoic acids
INCHIKEY: NNPWRKSGORGTIM-HCCKYKKOSA-N
SMILES: CCCCC[C@H](O)\C=C\C=C/C=C/[C@@H](O)C\C=C/CCCC(O)=O
RETENTIONTIME: 
CCS: 228.7758511
IONMODE: Negative
INSTRUMENTTYPE: LC-ESI-QIT
INSTRUMENT: 
COLLISIONENERGY: 15
Comment: registered in MassBank
Num Peaks: 5
154.983	5
217.164	8
235.16701	25
317.26501	47
335.14401	1000

NAME: 8,15-DiHETE; LC-ESI-QIT; MS2; CE
PRECURSORMZ: 335.222783
PRECURSORTYPE: [M-H]-
FORMULA: C20H32O4
Ontology: Hydroxyeicosatetraenoic acids
INCHIKEY: NNPWRKSGORGTIM-HCCKYKKOSA-N
SMILES: CCCCC[C@H](O)\C=C\C=C/C=C/[C@@H](O)C\C=C/CCCC(O)=O
RETENTIONTIME: 
CCS: 228.7758511
IONMODE: Negative
INSTRUMENTTYPE: LC-ESI-QIT
INSTRUMENT: 
COLLISIONENERGY: 20
Comment: registered in MassBank
Num Peaks: 10
155.104	15
191.23399	11
217.175	11
221.20599	21
235.15199	64
273.22501	34
291.27701	17
299.216	9
317.229	156
335.129	1000

NAME: 8,15-DiHETE; LC-ESI-QIT; MS2; CE
PRECURSORMZ: 335.222783
PRECURSORTYPE: [M-H]-
FORMULA: C20H32O4
Ontology: Hydroxyeicosatetraenoic acids
INCHIKEY: NNPWRKSGORGTIM-HCCKYKKOSA-N
SMILES: CCCCC[C@H](O)\C=C\C=C/C=C/[C@@H](O)C\C=C/CCCC(O)=O
RETENTIONTIME: 
CCS: 228.7758511
IONMODE: Negative
INSTRUMENTTYPE: LC-ESI-QIT
INSTRUMENT: 
COLLISIONENERGY: 25
Comment: registered in MassBank
Num Peaks: 29
110.989	14
112.96	7
113.088	7
127.053	18
139.03999	6
154.88	5
155.084	22
163.14799	31
169.136	6
171.08	13
177.153	9
179.14999	46
191.179	64
193.144	26
195.11	7
197.16	15
208.145	5
217.093	31
217.28	7
219.14999	17
221.088	86
235.119	163
255.12	22
255.28	8
273.172	157
291.18799	78
299.228	22
317.15799	459
335.121	1000

NAME: 8,15-DiHETE; LC-ESI-QIT; MS2; CE
PRECURSORMZ: 335.222783
PRECURSORTYPE: [M-H]-
FORMULA: C20H32O4
Ontology: Hydroxyeicosatetraenoic acids
INCHIKEY: NNPWRKSGORGTIM-HCCKYKKOSA-N
SMILES: CCCCC[C@H](O)\C=C\C=C/C=C/[C@@H](O)C\C=C/CCCC(O)=O
RETENTIONTIME: 
CCS: 228.7758511
IONMODE: Negative
INSTRUMENTTYPE: LC-ESI-QIT
INSTRUMENT: 
COLLISIONENERGY: 30
Comment: registered in MassBank
Num Peaks: 54
92.96	10
108.88	21
109.12	28
110.96	77
113.12	56
123.04	21
125.04	7
127.093	171
127.36	14
137.2	7
139.03999	10
139.2	14
149.12	24
151.07001	17
153.2	35
155.03999	223
161.03999	17
161.2	24
163.104	167
165.03999	21
169.011	52
171.03999	38
173.12	45
175.12	17
177.12	17
177.28	14
179.2	118
189.12	35
190.08	56
191.151	397
193.062	146
194.96001	17
197.136	35
205.2	31
207.16	10
208.08	35
216.88	14
217.12	49
219.166	56
221.086	247
229.2	14
233.28	10
235.132	345
239.12	14
245.145	91
255.16	118
273.18399	599
275.04001	7
289.04001	24
289.17999	10
291.12701	143
299.13501	146
317.13699	1000
335.129	843

NAME: 8,15-DiHETE; LC-ESI-QIT; MS2; CE
PRECURSORMZ: 335.222783
PRECURSORTYPE: [M-H]-
FORMULA: C20H32O4
Ontology: Hydroxyeicosatetraenoic acids
INCHIKEY: NNPWRKSGORGTIM-HCCKYKKOSA-N
SMILES: CCCCC[C@H](O)\C=C\C=C/C=C/[C@@H](O)C\C=C/CCCC(O)=O
RETENTIONTIME: 
CCS: 228.7758511
IONMODE: Negative
INSTRUMENTTYPE: LC-ESI-QIT
INSTRUMENT: 
COLLISIONENERGY: 35
Comment: registered in MassBank
Num Peaks: 47
109.065	236
110.8	28
111.12	125
113.12	139
119.2	42
122.96	28
123.12	42
124.96	42
127.12	653
139.03999	56
147.2	42
149	83
150.96001	28
151.12	111
153.12	69
155.02901	292
161.12	56
163.088	542
171.03999	208
173.03999	153
175.147	125
177.12	56
179.104	1000
189.12	42
190.24001	42
191.10001	917
193.03999	528
197.12	69
205.12	111
207.12	56
208	28
217.12	264
219.12	97
221.12	333
227.03999	28
235.07201	153
245.12	125
253.28	56
255.19299	347
271.28	28
273.17099	778
291.20001	42
299.173	97
307.12	28
317.06699	722
317.42001	42
335.04001	306

NAME: 8,15-DiHETE; LC-ESI-QIT; MS2; CE
PRECURSORMZ: 335.222783
PRECURSORTYPE: [M-H]-
FORMULA: C20H32O4
Ontology: Hydroxyeicosatetraenoic acids
INCHIKEY: NNPWRKSGORGTIM-HCCKYKKOSA-N
SMILES: CCCCC[C@H](O)\C=C\C=C/C=C/[C@@H](O)C\C=C/CCCC(O)=O
RETENTIONTIME: 
CCS: 228.7758511
IONMODE: Negative
INSTRUMENTTYPE: LC-ESI-QIT
INSTRUMENT: 
COLLISIONENERGY: 40
Comment: registered in MassBank
Num Peaks: 29
93.04	125
109.04	83
110.973	292
113.12	83
119.04	250
127.076	542
147.03999	375
148.96001	83
151.03999	292
155.12	83
163.089	1000
165.03999	83
171.12	167
179.104	667
179.44	125
189.12	333
189.92	83
190.88	83
191.12	292
193.104	458
201.08	167
205.03999	125
205.24001	167
217.03999	167
245.2	83
253.12	83
273.04001	250
317.10001	167
335.12	125

NAME: 8,15-DiHETE; LC-ESI-QIT; MS2; CE
PRECURSORMZ: 335.222783
PRECURSORTYPE: [M-H]-
FORMULA: C20H32O4
Ontology: Hydroxyeicosatetraenoic acids
INCHIKEY: NNPWRKSGORGTIM-HCCKYKKOSA-N
SMILES: CCCCC[C@H](O)\C=C\C=C/C=C/[C@@H](O)C\C=C/CCCC(O)=O
RETENTIONTIME: 
CCS: 228.7758511
IONMODE: Negative
INSTRUMENTTYPE: LC-ESI-QIT
INSTRUMENT: 
COLLISIONENERGY: 45
Comment: registered in MassBank
Num Peaks: 10
106.96	136
108.88	364
109.2	364
119.064	591
127.086	773
148.8	273
163.12	1000
165.12	182
189.03999	409
191.12	227

NAME: 8,15-DiHETE; LC-ESI-QIT; MS2; CE
PRECURSORMZ: 335.222783
PRECURSORTYPE: [M-H]-
FORMULA: C20H32O4
Ontology: Hydroxyeicosatetraenoic acids
INCHIKEY: NNPWRKSGORGTIM-HCCKYKKOSA-N
SMILES: CCCCC[C@H](O)\C=C\C=C/C=C/[C@@H](O)C\C=C/CCCC(O)=O
RETENTIONTIME: 
CCS: 228.7758511
IONMODE: Negative
INSTRUMENTTYPE: LC-ESI-QIT
INSTRUMENT: 
COLLISIONENERGY: 50
Comment: registered in MassBank
Num Peaks: 10
113.04	455
119.04	1000
119.2	364
125.04	364
127.096	818
145.03999	182
161.12	273
163.03999	273
177.03999	182
179.03999	273

NAME: 8-HEPE; LC-ESI-QIT; MS2; CE
PRECURSORMZ: 317.212218
PRECURSORTYPE: [M-H]-
FORMULA: C20H30O3
Ontology: Hydroxyeicosapentaenoic acids
INCHIKEY: WLOUCHKFBGGNEB-CHGUASJCSA-N
SMILES: CC\C=C/C\C=C/C\C=C/C=C/[C@@H](O)C\C=C/CCCC(O)=O
RETENTIONTIME: 
CCS: 226.5672472
IONMODE: Negative
INSTRUMENTTYPE: LC-ESI-QIT
INSTRUMENT: 
COLLISIONENERGY: 10
Comment: registered in MassBank
Num Peaks: 7
155.065	53
163.2	35
255.231	346
255.92	5
273.23199	12
299.19501	183
317.12701	1000

NAME: 8-HEPE; LC-ESI-QIT; MS2; CE
PRECURSORMZ: 317.212218
PRECURSORTYPE: [M-H]-
FORMULA: C20H30O3
Ontology: Hydroxyeicosapentaenoic acids
INCHIKEY: WLOUCHKFBGGNEB-CHGUASJCSA-N
SMILES: CC\C=C/C\C=C/C\C=C/C=C/[C@@H](O)C\C=C/CCCC(O)=O
RETENTIONTIME: 
CCS: 226.5672472
IONMODE: Negative
INSTRUMENTTYPE: LC-ESI-QIT
INSTRUMENT: 
COLLISIONENERGY: 15
Comment: registered in MassBank
Num Peaks: 8
111.006	6
155.116	74
161.19701	18
163.21001	39
255.22501	481
273.24301	21
299.19901	213
317.13101	1000

NAME: 8-HEPE; LC-ESI-QIT; MS2; CE
PRECURSORMZ: 317.212218
PRECURSORTYPE: [M-H]-
FORMULA: C20H30O3
Ontology: Hydroxyeicosapentaenoic acids
INCHIKEY: WLOUCHKFBGGNEB-CHGUASJCSA-N
SMILES: CC\C=C/C\C=C/C\C=C/C=C/[C@@H](O)C\C=C/CCCC(O)=O
RETENTIONTIME: 
CCS: 226.5672472
IONMODE: Negative
INSTRUMENTTYPE: LC-ESI-QIT
INSTRUMENT: 
COLLISIONENERGY: 20
Comment: registered in MassBank
Num Peaks: 11
111.098	20
137.093	9
154.8	6
155.082	106
161.116	67
163.12	22
201.186	34
255.189	663
273.185	80
299.14099	263
317.12799	1000

NAME: 8-HEPE; LC-ESI-QIT; MS2; CE
PRECURSORMZ: 317.212218
PRECURSORTYPE: [M-H]-
FORMULA: C20H30O3
Ontology: Hydroxyeicosapentaenoic acids
INCHIKEY: WLOUCHKFBGGNEB-CHGUASJCSA-N
SMILES: CC\C=C/C\C=C/C\C=C/C=C/[C@@H](O)C\C=C/CCCC(O)=O
RETENTIONTIME: 
CCS: 226.5672472
IONMODE: Negative
INSTRUMENTTYPE: LC-ESI-QIT
INSTRUMENT: 
COLLISIONENERGY: 25
Comment: registered in MassBank
Num Peaks: 21
109.12	10
111.12	66
111.36	6
121.12	10
127.04	58
137.03999	6
152.96001	8
155.08501	243
160.72	8
161.11301	279
163.12	13
171.03999	27
177.03999	6
201.112	108
254.8	6
255.16	877
273.14499	191
281.12	10
289.20001	8
299.121	314
317.151	1000

NAME: 8-HEPE; LC-ESI-QIT; MS2; CE
PRECURSORMZ: 317.212218
PRECURSORTYPE: [M-H]-
FORMULA: C20H30O3
Ontology: Hydroxyeicosapentaenoic acids
INCHIKEY: WLOUCHKFBGGNEB-CHGUASJCSA-N
SMILES: CC\C=C/C\C=C/C\C=C/C=C/[C@@H](O)C\C=C/CCCC(O)=O
RETENTIONTIME: 
CCS: 226.5672472
IONMODE: Negative
INSTRUMENTTYPE: LC-ESI-QIT
INSTRUMENT: 
COLLISIONENERGY: 30
Comment: registered in MassBank
Num Peaks: 26
109.2	19
111.04	81
118.96	12
121.12	81
127.113	68
137.12	37
155.009	516
161.15401	714
163.03999	19
168.88	12
171.12	50
173.03999	37
185.12	12
188.96001	43
189.22	19
197.2	25
200.96001	31
201.12	68
219.2	12
219.36	12
227.12	43
255.17999	702
272.95999	62
273.20001	93
299.173	267
317.13599	1000

NAME: 8-HEPE; LC-ESI-QIT; MS2; CE
PRECURSORMZ: 317.212218
PRECURSORTYPE: [M-H]-
FORMULA: C20H30O3
Ontology: Hydroxyeicosapentaenoic acids
INCHIKEY: WLOUCHKFBGGNEB-CHGUASJCSA-N
SMILES: CC\C=C/C\C=C/C\C=C/C=C/[C@@H](O)C\C=C/CCCC(O)=O
RETENTIONTIME: 
CCS: 226.5672472
IONMODE: Negative
INSTRUMENTTYPE: LC-ESI-QIT
INSTRUMENT: 
COLLISIONENERGY: 35
Comment: registered in MassBank
Num Peaks: 14
109.04	39
110.96	93
111.12	178
120.96	47
127.04	178
137.03999	31
155.145	163
161.07401	233
171.03999	16
201.12	31
255.2	147
273.12	23
299.10001	31
317.19199	1000

NAME: 8-HEPE; LC-ESI-QIT; MS2; CE
PRECURSORMZ: 317.212218
PRECURSORTYPE: [M-H]-
FORMULA: C20H30O3
Ontology: Hydroxyeicosapentaenoic acids
INCHIKEY: WLOUCHKFBGGNEB-CHGUASJCSA-N
SMILES: CC\C=C/C\C=C/C\C=C/C=C/[C@@H](O)C\C=C/CCCC(O)=O
RETENTIONTIME: 
CCS: 226.5672472
IONMODE: Negative
INSTRUMENTTYPE: LC-ESI-QIT
INSTRUMENT: 
COLLISIONENERGY: 40
Comment: registered in MassBank
Num Peaks: 12
109.04	171
111.04	171
111.28	49
118.96	73
121.04	49
127.06	146
136.96001	98
155.12	171
161.095	439
171.12	98
245.12	73
317.215	1000

NAME: 8-HEPE; LC-ESI-QIT; MS2; CE
PRECURSORMZ: 317.212218
PRECURSORTYPE: [M-H]-
FORMULA: C20H30O3
Ontology: Hydroxyeicosapentaenoic acids
INCHIKEY: WLOUCHKFBGGNEB-CHGUASJCSA-N
SMILES: CC\C=C/C\C=C/C\C=C/C=C/[C@@H](O)C\C=C/CCCC(O)=O
RETENTIONTIME: 
CCS: 226.5672472
IONMODE: Negative
INSTRUMENTTYPE: LC-ESI-QIT
INSTRUMENT: 
COLLISIONENERGY: 45
Comment: registered in MassBank
Num Peaks: 10
111.12	190
119.04	238
120.987	190
127.2	95
147.12	95
154.96001	95
161.12	238
245.2	190
317.04001	1000
317.24799	1000

NAME: 8-HEPE; LC-ESI-QIT; MS2; CE
PRECURSORMZ: 317.212218
PRECURSORTYPE: [M-H]-
FORMULA: C20H30O3
Ontology: Hydroxyeicosapentaenoic acids
INCHIKEY: WLOUCHKFBGGNEB-CHGUASJCSA-N
SMILES: CC\C=C/C\C=C/C\C=C/C=C/[C@@H](O)C\C=C/CCCC(O)=O
RETENTIONTIME: 
CCS: 226.5672472
IONMODE: Negative
INSTRUMENTTYPE: LC-ESI-QIT
INSTRUMENT: 
COLLISIONENERGY: 50
Comment: registered in MassBank
Num Peaks: 6
109.12	273
119.022	1000
121.04	455
121.2	273
245.17	1000
317.04001	364

NAME: 9,10-DiHOME; LC-ESI-QIT; MS2; CE
PRECURSORMZ: 313.238433
PRECURSORTYPE: [M-H]-
FORMULA: C18H34O4
Ontology: Long-chain fatty acids
INCHIKEY: XEBKSQSGNGRGDW-JXMROGBWNA-N
SMILES: CCCCC\C=C\CC(O)C(O)CCCCCCCC(O)=O
RETENTIONTIME: 
CCS: 183.3285185
IONMODE: Negative
INSTRUMENTTYPE: LC-ESI-QIT
INSTRUMENT: 
COLLISIONENERGY: 15
Comment: registered in MassBank
Num Peaks: 2
201.19501	12
313.168	1000

NAME: 9,10-DiHOME; LC-ESI-QIT; MS2; CE
PRECURSORMZ: 313.238433
PRECURSORTYPE: [M-H]-
FORMULA: C18H34O4
Ontology: Long-chain fatty acids
INCHIKEY: XEBKSQSGNGRGDW-JXMROGBWNA-N
SMILES: CCCCC\C=C\CC(O)C(O)CCCCCCCC(O)=O
RETENTIONTIME: 
CCS: 183.3285185
IONMODE: Negative
INSTRUMENTTYPE: LC-ESI-QIT
INSTRUMENT: 
COLLISIONENERGY: 20
Comment: registered in MassBank
Num Peaks: 3
201.172	66
295.28	21
313.15601	1000

NAME: 9,10-DiHOME; LC-ESI-QIT; MS2; CE
PRECURSORMZ: 313.238433
PRECURSORTYPE: [M-H]-
FORMULA: C18H34O4
Ontology: Long-chain fatty acids
INCHIKEY: XEBKSQSGNGRGDW-JXMROGBWNA-N
SMILES: CCCCC\C=C\CC(O)C(O)CCCCCCCC(O)=O
RETENTIONTIME: 
CCS: 183.3285185
IONMODE: Negative
INSTRUMENTTYPE: LC-ESI-QIT
INSTRUMENT: 
COLLISIONENERGY: 25
Comment: registered in MassBank
Num Peaks: 8
171.14301	19
183.255	5
201.14301	362
201.827	13
202.51199	18
277.224	46
295.259	83
313.16101	1000

NAME: 9,10-DiHOME; LC-ESI-QIT; MS2; CE
PRECURSORMZ: 313.238433
PRECURSORTYPE: [M-H]-
FORMULA: C18H34O4
Ontology: Long-chain fatty acids
INCHIKEY: XEBKSQSGNGRGDW-JXMROGBWNA-N
SMILES: CCCCC\C=C\CC(O)C(O)CCCCCCCC(O)=O
RETENTIONTIME: 
CCS: 183.3285185
IONMODE: Negative
INSTRUMENTTYPE: LC-ESI-QIT
INSTRUMENT: 
COLLISIONENERGY: 30
Comment: registered in MassBank
Num Peaks: 13
127.12	6
155.153	14
165.18401	21
171.13	82
183.13901	28
199.104	28
201.112	1000
201.75301	15
202	8
277.19601	167
295.189	160
311.211	11
313.172	744

NAME: 9,10-DiHOME; LC-ESI-QIT; MS2; CE
PRECURSORMZ: 313.238433
PRECURSORTYPE: [M-H]-
FORMULA: C18H34O4
Ontology: Long-chain fatty acids
INCHIKEY: XEBKSQSGNGRGDW-JXMROGBWNA-N
SMILES: CCCCC\C=C\CC(O)C(O)CCCCCCCC(O)=O
RETENTIONTIME: 
CCS: 183.3285185
IONMODE: Negative
INSTRUMENTTYPE: LC-ESI-QIT
INSTRUMENT: 
COLLISIONENERGY: 35
Comment: registered in MassBank
Num Peaks: 12
125.056	18
127.12	18
155.093	27
165.12399	43
171.108	105
183.11	32
199.12	39
201.092	1000
222.97701	6
277.17001	160
295.16901	85
313.155	176

NAME: 9,10-DiHOME; LC-ESI-QIT; MS2; CE
PRECURSORMZ: 313.238433
PRECURSORTYPE: [M-H]-
FORMULA: C18H34O4
Ontology: Long-chain fatty acids
INCHIKEY: XEBKSQSGNGRGDW-JXMROGBWNA-N
SMILES: CCCCC\C=C\CC(O)C(O)CCCCCCCC(O)=O
RETENTIONTIME: 
CCS: 183.3285185
IONMODE: Negative
INSTRUMENTTYPE: LC-ESI-QIT
INSTRUMENT: 
COLLISIONENERGY: 40
Comment: registered in MassBank
Num Peaks: 15
125.088	49
127.105	50
153.02499	8
155.09	43
157.12	7
165.071	71
171.075	168
183.105	44
199.11	60
201.071	1000
223.03999	5
233.187	7
277.16699	125
295.16501	29
313.164	43

NAME: 9,10-DiHOME; LC-ESI-QIT; MS2; CE
PRECURSORMZ: 313.238433
PRECURSORTYPE: [M-H]-
FORMULA: C18H34O4
Ontology: Long-chain fatty acids
INCHIKEY: XEBKSQSGNGRGDW-JXMROGBWNA-N
SMILES: CCCCC\C=C\CC(O)C(O)CCCCCCCC(O)=O
RETENTIONTIME: 
CCS: 183.3285185
IONMODE: Negative
INSTRUMENTTYPE: LC-ESI-QIT
INSTRUMENT: 
COLLISIONENERGY: 45
Comment: registered in MassBank
Num Peaks: 22
74.96	6
99.12	8
125.105	108
127.1	156
137.12	11
139.2	8
148.96001	8
153.12	10
155.138	84
156.96001	8
157.12	8
165.095	72
171.05299	355
172.96001	10
181.03999	8
183.065	45
193.12	6
199.089	91
201.07401	1000
277.11301	79
277.51999	6
295.28	8

NAME: 9,10-DiHOME; LC-ESI-QIT; MS2; CE
PRECURSORMZ: 313.238433
PRECURSORTYPE: [M-H]-
FORMULA: C18H34O4
Ontology: Long-chain fatty acids
INCHIKEY: XEBKSQSGNGRGDW-JXMROGBWNA-N
SMILES: CCCCC\C=C\CC(O)C(O)CCCCCCCC(O)=O
RETENTIONTIME: 
CCS: 183.3285185
IONMODE: Negative
INSTRUMENTTYPE: LC-ESI-QIT
INSTRUMENT: 
COLLISIONENERGY: 50
Comment: registered in MassBank
Num Peaks: 21
75.12	27
90.88	21
97.04	34
123.04	21
125.108	267
127.09	370
136.96001	21
137.12	27
139.2	14
148.96001	21
155.12	137
165.02	55
165.2	21
171.05099	870
183.213	34
199.015	130
201.077	1000
206.96001	34
223.03999	48
264.95999	14
277.12	55

NAME: 9,10-EODE; LC-ESI-QIT; MS2; CE
PRECURSORMZ: 295.227868
PRECURSORTYPE: [M-H]-
FORMULA: C18H32O3
Ontology: Medium-chain fatty acids
INCHIKEY: FBUKMFOXMZRGRB-JXMROGBWNA-N
SMILES: CCCCC\C=C\CC1OC1CCCCCCCC(O)=O
RETENTIONTIME: 
CCS: 182.2775267
IONMODE: Negative
INSTRUMENTTYPE: LC-ESI-QIT
INSTRUMENT: 
COLLISIONENERGY: 10
Comment: registered in MassBank
Num Peaks: 9
171.21899	86
172.05299	14
172.412	7
233.429	7
277.38699	161
278.10001	11
278.41901	6
278.745	6
295.15701	1000

NAME: 9,10-EODE; LC-ESI-QIT; MS2; CE
PRECURSORMZ: 295.227868
PRECURSORTYPE: [M-H]-
FORMULA: C18H32O3
Ontology: Medium-chain fatty acids
INCHIKEY: FBUKMFOXMZRGRB-JXMROGBWNA-N
SMILES: CCCCC\C=C\CC1OC1CCCCCCCC(O)=O
RETENTIONTIME: 
CCS: 182.2775267
IONMODE: Negative
INSTRUMENTTYPE: LC-ESI-QIT
INSTRUMENT: 
COLLISIONENERGY: 15
Comment: registered in MassBank
Num Peaks: 8
171.23399	99
172.39999	7
233.368	9
277.38199	200
278.15601	7
278.54401	11
278.77701	6
295.16101	1000

NAME: 9,10-EODE; LC-ESI-QIT; MS2; CE
PRECURSORMZ: 295.227868
PRECURSORTYPE: [M-H]-
FORMULA: C18H32O3
Ontology: Medium-chain fatty acids
INCHIKEY: FBUKMFOXMZRGRB-JXMROGBWNA-N
SMILES: CCCCC\C=C\CC1OC1CCCCCCCC(O)=O
RETENTIONTIME: 
CCS: 182.2775267
IONMODE: Negative
INSTRUMENTTYPE: LC-ESI-QIT
INSTRUMENT: 
COLLISIONENERGY: 20
Comment: registered in MassBank
Num Peaks: 14
170.741	10
171.194	260
172.282	35
172.94	14
173.12	10
173.461	8
183.17999	9
233.381	15
277.31601	541
278.061	44
278.38	30
278.677	18
278.95999	5
295.164	1000

NAME: 9,10-EODE; LC-ESI-QIT; MS2; CE
PRECURSORMZ: 295.227868
PRECURSORTYPE: [M-H]-
FORMULA: C18H32O3
Ontology: Medium-chain fatty acids
INCHIKEY: FBUKMFOXMZRGRB-JXMROGBWNA-N
SMILES: CCCCC\C=C\CC1OC1CCCCCCCC(O)=O
RETENTIONTIME: 
CCS: 182.2775267
IONMODE: Negative
INSTRUMENTTYPE: LC-ESI-QIT
INSTRUMENT: 
COLLISIONENERGY: 25
Comment: registered in MassBank
Num Peaks: 22
152.96001	5
171.16901	466
171.83701	6
172.07201	16
172.34	28
172.558	15
172.80499	5
173.19901	17
173.933	5
174.80701	6
183.19099	28
233.29201	32
251.354	10
259.314	11
277.23001	1000
277.94501	45
278.254	38
278.58301	21
278.79999	11
279.02499	7
293.21399	9
295.15799	788

NAME: 9,10-EODE; LC-ESI-QIT; MS2; CE
PRECURSORMZ: 295.227868
PRECURSORTYPE: [M-H]-
FORMULA: C18H32O3
Ontology: Medium-chain fatty acids
INCHIKEY: FBUKMFOXMZRGRB-JXMROGBWNA-N
SMILES: CCCCC\C=C\CC1OC1CCCCCCCC(O)=O
RETENTIONTIME: 
CCS: 182.2775267
IONMODE: Negative
INSTRUMENTTYPE: LC-ESI-QIT
INSTRUMENT: 
COLLISIONENERGY: 30
Comment: registered in MassBank
Num Peaks: 17
125.123	6
153.142	5
155.131	6
171.12	452
172	19
172.24001	13
172.466	13
172.99001	9
183.103	51
185.125	11
233.229	29
251.319	10
259.198	20
275.19101	10
277.173	1000
293.147	16
295.164	347

NAME: 9,10-EODE; LC-ESI-QIT; MS2; CE
PRECURSORMZ: 295.227868
PRECURSORTYPE: [M-H]-
FORMULA: C18H32O3
Ontology: Medium-chain fatty acids
INCHIKEY: FBUKMFOXMZRGRB-JXMROGBWNA-N
SMILES: CCCCC\C=C\CC1OC1CCCCCCCC(O)=O
RETENTIONTIME: 
CCS: 182.2775267
IONMODE: Negative
INSTRUMENTTYPE: LC-ESI-QIT
INSTRUMENT: 
COLLISIONENERGY: 35
Comment: registered in MassBank
Num Peaks: 14
125.083	16
151.12	5
153.064	20
155.048	12
171.089	641
183.112	91
185.03999	7
205.173	8
233.181	28
259.242	24
275.173	16
277.155	1000
293.23001	18
295.164	168

NAME: 9,10-EODE; LC-ESI-QIT; MS2; CE
PRECURSORMZ: 295.227868
PRECURSORTYPE: [M-H]-
FORMULA: C18H32O3
Ontology: Medium-chain fatty acids
INCHIKEY: FBUKMFOXMZRGRB-JXMROGBWNA-N
SMILES: CCCCC\C=C\CC1OC1CCCCCCCC(O)=O
RETENTIONTIME: 
CCS: 182.2775267
IONMODE: Negative
INSTRUMENTTYPE: LC-ESI-QIT
INSTRUMENT: 
COLLISIONENERGY: 40
Comment: registered in MassBank
Num Peaks: 20
95.04	7
124.96	12
127.04	9
150.88	7
151.16	9
153.12	35
155.12	12
170.64	12
171.077	1000
183.056	171
185.03999	7
219.03999	7
221.03999	9
222.144	25
223.2	12
233.12	9
259.20001	32
277.14301	565
277.44	44
295.07501	44

NAME: 9,10-EODE; LC-ESI-QIT; MS2; CE
PRECURSORMZ: 295.227868
PRECURSORTYPE: [M-H]-
FORMULA: C18H32O3
Ontology: Medium-chain fatty acids
INCHIKEY: FBUKMFOXMZRGRB-JXMROGBWNA-N
SMILES: CCCCC\C=C\CC1OC1CCCCCCCC(O)=O
RETENTIONTIME: 
CCS: 182.2775267
IONMODE: Negative
INSTRUMENTTYPE: LC-ESI-QIT
INSTRUMENT: 
COLLISIONENERGY: 45
Comment: registered in MassBank
Num Peaks: 10
139.2	28
151.03999	35
151.2	14
171.08299	1000
183.03999	99
205.24001	14
222.08	35
223.03999	42
223.17999	42
277.18399	56

NAME: 9,10-EODE; LC-ESI-QIT; MS2; CE
PRECURSORMZ: 295.227868
PRECURSORTYPE: [M-H]-
FORMULA: C18H32O3
Ontology: Medium-chain fatty acids
INCHIKEY: FBUKMFOXMZRGRB-JXMROGBWNA-N
SMILES: CCCCC\C=C\CC1OC1CCCCCCCC(O)=O
RETENTIONTIME: 
CCS: 182.2775267
IONMODE: Negative
INSTRUMENTTYPE: LC-ESI-QIT
INSTRUMENT: 
COLLISIONENERGY: 50
Comment: registered in MassBank
Num Peaks: 6
125.04	227
155.03999	136
171.03999	1000
171.2	318
222.16	182
223.03999	136

NAME: 9-HODE; LC-ESI-QIT; MS2; CE
PRECURSORMZ: 295.227868
PRECURSORTYPE: [M-H]-
FORMULA: C18H32O3
Ontology: Lineolic acids and derivatives
INCHIKEY: NPDSHTNEKLQQIJ-ZJHFMPGANA-N
SMILES: CCCCC\C=C/C=C/C(O)CCCCCCCC(O)=O
RETENTIONTIME: 
CCS: 180.0192178
IONMODE: Negative
INSTRUMENTTYPE: LC-ESI-QIT
INSTRUMENT: 
COLLISIONENERGY: 10
Comment: registered in MassBank
Num Peaks: 3
171.21001	12
277.314	34
295.16599	1000

NAME: 9-HODE; LC-ESI-QIT; MS2; CE
PRECURSORMZ: 295.227868
PRECURSORTYPE: [M-H]-
FORMULA: C18H32O3
Ontology: Lineolic acids and derivatives
INCHIKEY: NPDSHTNEKLQQIJ-ZJHFMPGANA-N
SMILES: CCCCC\C=C/C=C/C(O)CCCCCCCC(O)=O
RETENTIONTIME: 
CCS: 180.0192178
IONMODE: Negative
INSTRUMENTTYPE: LC-ESI-QIT
INSTRUMENT: 
COLLISIONENERGY: 15
Comment: registered in MassBank
Num Peaks: 3
171.15601	19
277.32501	65
295.16	1000

NAME: 9-HODE; LC-ESI-QIT; MS2; CE
PRECURSORMZ: 295.227868
PRECURSORTYPE: [M-H]-
FORMULA: C18H32O3
Ontology: Lineolic acids and derivatives
INCHIKEY: NPDSHTNEKLQQIJ-ZJHFMPGANA-N
SMILES: CCCCC\C=C/C=C/C(O)CCCCCCCC(O)=O
RETENTIONTIME: 
CCS: 180.0192178
IONMODE: Negative
INSTRUMENTTYPE: LC-ESI-QIT
INSTRUMENT: 
COLLISIONENERGY: 20
Comment: registered in MassBank
Num Peaks: 8
171.14	108
172.091	12
233.28	8
277.289	281
277.957	18
278.33401	8
278.56	8
295.15601	1000

NAME: 9-HODE; LC-ESI-QIT; MS2; CE
PRECURSORMZ: 295.227868
PRECURSORTYPE: [M-H]-
FORMULA: C18H32O3
Ontology: Lineolic acids and derivatives
INCHIKEY: NPDSHTNEKLQQIJ-ZJHFMPGANA-N
SMILES: CCCCC\C=C/C=C/C(O)CCCCCCCC(O)=O
RETENTIONTIME: 
CCS: 180.0192178
IONMODE: Negative
INSTRUMENTTYPE: LC-ESI-QIT
INSTRUMENT: 
COLLISIONENERGY: 25
Comment: registered in MassBank
Num Peaks: 14
171.15199	355
171.687	21
172.045	18
172.32001	6
173.05099	11
173.2	6
233.27299	32
277.23499	909
277.96399	45
278.30099	11
278.59399	26
278.81799	11
279.05301	5
295.159	1000

NAME: 9-HODE; LC-ESI-QIT; MS2; CE
PRECURSORMZ: 295.227868
PRECURSORTYPE: [M-H]-
FORMULA: C18H32O3
Ontology: Lineolic acids and derivatives
INCHIKEY: NPDSHTNEKLQQIJ-ZJHFMPGANA-N
SMILES: CCCCC\C=C/C=C/C(O)CCCCCCCC(O)=O
RETENTIONTIME: 
CCS: 180.0192178
IONMODE: Negative
INSTRUMENTTYPE: LC-ESI-QIT
INSTRUMENT: 
COLLISIONENERGY: 30
Comment: registered in MassBank
Num Peaks: 10
171.125	380
172.142	15
233.278	29
251.259	13
259.224	13
275.14999	11
277.18399	1000
277.97299	7
293.16	5
295.15799	482

NAME: 9-HODE; LC-ESI-QIT; MS2; CE
PRECURSORMZ: 295.227868
PRECURSORTYPE: [M-H]-
FORMULA: C18H32O3
Ontology: Lineolic acids and derivatives
INCHIKEY: NPDSHTNEKLQQIJ-ZJHFMPGANA-N
SMILES: CCCCC\C=C/C=C/C(O)CCCCCCCC(O)=O
RETENTIONTIME: 
CCS: 180.0192178
IONMODE: Negative
INSTRUMENTTYPE: LC-ESI-QIT
INSTRUMENT: 
COLLISIONENERGY: 35
Comment: registered in MassBank
Num Peaks: 13
124.984	6
171.075	460
185	7
205.2	6
221.03999	6
233.147	35
251.24001	10
259.168	22
267.168	6
275.16699	11
277.17099	1000
293.20001	6
295.146	231

NAME: 9-HODE; LC-ESI-QIT; MS2; CE
PRECURSORMZ: 295.227868
PRECURSORTYPE: [M-H]-
FORMULA: C18H32O3
Ontology: Lineolic acids and derivatives
INCHIKEY: NPDSHTNEKLQQIJ-ZJHFMPGANA-N
SMILES: CCCCC\C=C/C=C/C(O)CCCCCCCC(O)=O
RETENTIONTIME: 
CCS: 180.0192178
IONMODE: Negative
INSTRUMENTTYPE: LC-ESI-QIT
INSTRUMENT: 
COLLISIONENERGY: 40
Comment: registered in MassBank
Num Peaks: 18
127.12	11
153.2	9
171.052	998
185.2	11
203.12	9
219.03999	7
222.08	7
222.24001	9
223.088	22
227.2	9
233.216	27
251.03999	7
259.20001	7
265.04001	7
275.168	24
277.14301	1000
293.08801	31
295.146	147

NAME: 9-HODE; LC-ESI-QIT; MS2; CE
PRECURSORMZ: 295.227868
PRECURSORTYPE: [M-H]-
FORMULA: C18H32O3
Ontology: Lineolic acids and derivatives
INCHIKEY: NPDSHTNEKLQQIJ-ZJHFMPGANA-N
SMILES: CCCCC\C=C/C=C/C(O)CCCCCCCC(O)=O
RETENTIONTIME: 
CCS: 180.0192178
IONMODE: Negative
INSTRUMENTTYPE: LC-ESI-QIT
INSTRUMENT: 
COLLISIONENERGY: 45
Comment: registered in MassBank
Num Peaks: 4
151.12	23
171.078	1000
222.16	23
277.164	366

NAME: 9-HODE; LC-ESI-QIT; MS2; CE
PRECURSORMZ: 295.227868
PRECURSORTYPE: [M-H]-
FORMULA: C18H32O3
Ontology: Lineolic acids and derivatives
INCHIKEY: NPDSHTNEKLQQIJ-ZJHFMPGANA-N
SMILES: CCCCC\C=C/C=C/C(O)CCCCCCCC(O)=O
RETENTIONTIME: 
CCS: 180.0192178
IONMODE: Negative
INSTRUMENTTYPE: LC-ESI-QIT
INSTRUMENT: 
COLLISIONENERGY: 50
Comment: registered in MassBank
Num Peaks: 5
124.88	62
125.04	62
171.08299	1000
207.03999	250
223.2	156

NAME: 9-HOTrE; LC-ESI-QIT; MS2; CE
PRECURSORMZ: 293.212218
PRECURSORTYPE: [M-H]-
FORMULA: C18H30O3
Ontology: Lineolic acids and derivatives
INCHIKEY: RIGGEAZDTKMXSI-MEBVTJQTSA-N
SMILES: CC\C=C/C\C=C/C=C/[C@@H](O)CCCCCCCC(O)=O
RETENTIONTIME: 
CCS: 178.6916079
IONMODE: Negative
INSTRUMENTTYPE: LC-ESI-QIT
INSTRUMENT: 
COLLISIONENERGY: 10
Comment: registered in MassBank
Num Peaks: 8
171.17101	52
221.235	13
231.26601	51
236.17799	36
275.254	374
275.948	7
276.24701	10
293.146	1000

NAME: 9-HOTrE; LC-ESI-QIT; MS2; CE
PRECURSORMZ: 293.212218
PRECURSORTYPE: [M-H]-
FORMULA: C18H30O3
Ontology: Lineolic acids and derivatives
INCHIKEY: RIGGEAZDTKMXSI-MEBVTJQTSA-N
SMILES: CC\C=C/C\C=C/C=C/[C@@H](O)CCCCCCCC(O)=O
RETENTIONTIME: 
CCS: 178.6916079
IONMODE: Negative
INSTRUMENTTYPE: LC-ESI-QIT
INSTRUMENT: 
COLLISIONENERGY: 15
Comment: registered in MassBank
Num Peaks: 8
171.155	114
171.914	8
221.19701	35
231.254	100
236.164	59
275.229	582
275.94	9
293.14801	1000

NAME: 9-HOTrE; LC-ESI-QIT; MS2; CE
PRECURSORMZ: 293.212218
PRECURSORTYPE: [M-H]-
FORMULA: C18H30O3
Ontology: Lineolic acids and derivatives
INCHIKEY: RIGGEAZDTKMXSI-MEBVTJQTSA-N
SMILES: CC\C=C/C\C=C/C=C/[C@@H](O)CCCCCCCC(O)=O
RETENTIONTIME: 
CCS: 178.6916079
IONMODE: Negative
INSTRUMENTTYPE: LC-ESI-QIT
INSTRUMENT: 
COLLISIONENERGY: 20
Comment: registered in MassBank
Num Peaks: 14
171.13699	308
171.84	7
172.177	16
172.72	6
177.228	7
193.17599	7
220.189	11
221.19299	82
231.235	213
236.127	116
249.069	5
275.19299	1000
275.91101	13
293.14499	754

NAME: 9-HOTrE; LC-ESI-QIT; MS2; CE
PRECURSORMZ: 293.212218
PRECURSORTYPE: [M-H]-
FORMULA: C18H30O3
Ontology: Lineolic acids and derivatives
INCHIKEY: RIGGEAZDTKMXSI-MEBVTJQTSA-N
SMILES: CC\C=C/C\C=C/C=C/[C@@H](O)CCCCCCCC(O)=O
RETENTIONTIME: 
CCS: 178.6916079
IONMODE: Negative
INSTRUMENTTYPE: LC-ESI-QIT
INSTRUMENT: 
COLLISIONENERGY: 25
Comment: registered in MassBank
Num Peaks: 16
171.116	438
171.72	11
172.38699	21
173.267	5
177.19501	8
185.147	28
193.2	12
197.2	6
220.16901	47
221.181	143
231.231	240
236.10001	139
249.151	23
257.20499	12
275.155	1000
293.142	489

NAME: 9-HOTrE; LC-ESI-QIT; MS2; CE
PRECURSORMZ: 293.212218
PRECURSORTYPE: [M-H]-
FORMULA: C18H30O3
Ontology: Lineolic acids and derivatives
INCHIKEY: RIGGEAZDTKMXSI-MEBVTJQTSA-N
SMILES: CC\C=C/C\C=C/C=C/[C@@H](O)CCCCCCCC(O)=O
RETENTIONTIME: 
CCS: 178.6916079
IONMODE: Negative
INSTRUMENTTYPE: LC-ESI-QIT
INSTRUMENT: 
COLLISIONENERGY: 30
Comment: registered in MassBank
Num Peaks: 15
125.053	7
171.093	719
177.131	20
185.11	78
192.16	16
193.127	39
197.08	16
220.10699	195
221.136	339
231.183	216
236.073	185
249.15199	26
257.142	26
275.155	1000
293.14999	363

NAME: 9-HOTrE; LC-ESI-QIT; MS2; CE
PRECURSORMZ: 293.212218
PRECURSORTYPE: [M-H]-
FORMULA: C18H30O3
Ontology: Lineolic acids and derivatives
INCHIKEY: RIGGEAZDTKMXSI-MEBVTJQTSA-N
SMILES: CC\C=C/C\C=C/C=C/[C@@H](O)CCCCCCCC(O)=O
RETENTIONTIME: 
CCS: 178.6916079
IONMODE: Negative
INSTRUMENTTYPE: LC-ESI-QIT
INSTRUMENT: 
COLLISIONENERGY: 35
Comment: registered in MassBank
Num Peaks: 27
127.04	6
149.03999	8
153.03999	8
165.44	6
170.74699	13
171.08501	1000
177.03999	36
185.12801	103
192.088	84
193.03999	48
197.16499	42
204.96001	6
205.12	11
219.92	78
220.117	351
220.64	8
221.118	924
222.24001	19
231.12601	107
231.60001	6
236.067	183
247.2	11
249.28	11
257.10001	11
273.108	29
275.11301	607
293.189	197

NAME: 9-HOTrE; LC-ESI-QIT; MS2; CE
PRECURSORMZ: 293.212218
PRECURSORTYPE: [M-H]-
FORMULA: C18H30O3
Ontology: Lineolic acids and derivatives
INCHIKEY: RIGGEAZDTKMXSI-MEBVTJQTSA-N
SMILES: CC\C=C/C\C=C/C=C/[C@@H](O)CCCCCCCC(O)=O
RETENTIONTIME: 
CCS: 178.6916079
IONMODE: Negative
INSTRUMENTTYPE: LC-ESI-QIT
INSTRUMENT: 
COLLISIONENERGY: 40
Comment: registered in MassBank
Num Peaks: 23
96.96	8
97.2	5
124.96	13
153.12	8
170.8	48
171.071	469
177.056	32
185.088	35
192.08	118
193.12	51
193.44	5
205.02699	38
216.88	5
218.05299	13
219.67999	8
220.119	807
221.11	1000
223.03999	8
231.03999	5
236.04601	91
257.12	8
275.18201	107
293.04001	13

NAME: 9-HOTrE; LC-ESI-QIT; MS2; CE
PRECURSORMZ: 293.212218
PRECURSORTYPE: [M-H]-
FORMULA: C18H30O3
Ontology: Lineolic acids and derivatives
INCHIKEY: RIGGEAZDTKMXSI-MEBVTJQTSA-N
SMILES: CC\C=C/C\C=C/C=C/[C@@H](O)CCCCCCCC(O)=O
RETENTIONTIME: 
CCS: 178.6916079
IONMODE: Negative
INSTRUMENTTYPE: LC-ESI-QIT
INSTRUMENT: 
COLLISIONENERGY: 45
Comment: registered in MassBank
Num Peaks: 14
97.04	18
120.96	7
125.12	18
164	7
171.062	265
177.08	127
191.12	7
192.155	127
193.12	7
205.08701	276
220.121	895
220.72	15
221.10899	1000
221.60001	7

NAME: 9-HOTrE; LC-ESI-QIT; MS2; CE
PRECURSORMZ: 293.212218
PRECURSORTYPE: [M-H]-
FORMULA: C18H30O3
Ontology: Lineolic acids and derivatives
INCHIKEY: RIGGEAZDTKMXSI-MEBVTJQTSA-N
SMILES: CC\C=C/C\C=C/C=C/[C@@H](O)CCCCCCCC(O)=O
RETENTIONTIME: 
CCS: 178.6916079
IONMODE: Negative
INSTRUMENTTYPE: LC-ESI-QIT
INSTRUMENT: 
COLLISIONENERGY: 50
Comment: registered in MassBank
Num Peaks: 16
148.00999	158
164.10699	22
165.2	11
171.11	55
177.03999	273
192.125	115
193.2	11
203.03999	11
204.16	16
205.063	689
205.52	16
217.12	16
220.11301	978
221.12	1000
222.16	11
222.32001	11

NAME: 9-HPODE; LC-ESI-QIT; MS2; CE
PRECURSORMZ: 311.222783
PRECURSORTYPE: [M-H]-
FORMULA: C18H32O4
Ontology: Lineolic acids and derivatives
INCHIKEY: JGUNZIWGNMQSBM-SIGMCMEVNA-N
SMILES: CCCCCC=C\C=C\C(CCCCCCCC(O)=O)OO
RETENTIONTIME: 
CCS: 182.738858
IONMODE: Negative
INSTRUMENTTYPE: LC-ESI-QIT
INSTRUMENT: 
COLLISIONENERGY: 10
Comment: registered in MassBank
Num Peaks: 4
185.09399	27
275.16	8
293.16901	1000
311.14099	161

NAME: 9-HPODE; LC-ESI-QIT; MS2; CE
PRECURSORMZ: 311.222783
PRECURSORTYPE: [M-H]-
FORMULA: C18H32O4
Ontology: Lineolic acids and derivatives
INCHIKEY: JGUNZIWGNMQSBM-SIGMCMEVNA-N
SMILES: CCCCCC=C\C=C\C(CCCCCCCC(O)=O)OO
RETENTIONTIME: 
CCS: 182.738858
IONMODE: Negative
INSTRUMENTTYPE: LC-ESI-QIT
INSTRUMENT: 
COLLISIONENERGY: 15
Comment: registered in MassBank
Num Peaks: 3
185.13901	23
293.15701	1000
311.15201	143

NAME: 9-HPODE; LC-ESI-QIT; MS2; CE
PRECURSORMZ: 311.222783
PRECURSORTYPE: [M-H]-
FORMULA: C18H32O4
Ontology: Lineolic acids and derivatives
INCHIKEY: JGUNZIWGNMQSBM-SIGMCMEVNA-N
SMILES: CCCCCC=C\C=C\C(CCCCCCCC(O)=O)OO
RETENTIONTIME: 
CCS: 182.738858
IONMODE: Negative
INSTRUMENTTYPE: LC-ESI-QIT
INSTRUMENT: 
COLLISIONENERGY: 20
Comment: registered in MassBank
Num Peaks: 7
171.093	5
185.12	84
197.09599	16
249.24001	19
275.13101	12
293.155	1000
311.11301	177

NAME: 9-HPODE; LC-ESI-QIT; MS2; CE
PRECURSORMZ: 311.222783
PRECURSORTYPE: [M-H]-
FORMULA: C18H32O4
Ontology: Lineolic acids and derivatives
INCHIKEY: JGUNZIWGNMQSBM-SIGMCMEVNA-N
SMILES: CCCCCC=C\C=C\C(CCCCCCCC(O)=O)OO
RETENTIONTIME: 
CCS: 182.738858
IONMODE: Negative
INSTRUMENTTYPE: LC-ESI-QIT
INSTRUMENT: 
COLLISIONENERGY: 25
Comment: registered in MassBank
Num Peaks: 13
97.12	6
121.12	5
125.064	13
167.12	11
171.084	36
185.099	223
197.114	57
211.12	9
249.256	34
275.103	20
278.987	6
293.16	1000
311.11499	217

NAME: 9-HPODE; LC-ESI-QIT; MS2; CE
PRECURSORMZ: 311.222783
PRECURSORTYPE: [M-H]-
FORMULA: C18H32O4
Ontology: Lineolic acids and derivatives
INCHIKEY: JGUNZIWGNMQSBM-SIGMCMEVNA-N
SMILES: CCCCCC=C\C=C\C(CCCCCCCC(O)=O)OO
RETENTIONTIME: 
CCS: 182.738858
IONMODE: Negative
INSTRUMENTTYPE: LC-ESI-QIT
INSTRUMENT: 
COLLISIONENERGY: 30
Comment: registered in MassBank
Num Peaks: 18
96.96	17
123.16	13
125.12	43
141.03999	17
149.03999	17
155.12	9
171.114	98
185.05701	374
195.03999	30
197.12	68
223.32001	17
249.2	34
257.35999	9
265.04001	9
275.20001	26
278.95999	21
293.14999	1000
311.10001	353

NAME: 9-HPODE; LC-ESI-QIT; MS2; CE
PRECURSORMZ: 311.222783
PRECURSORTYPE: [M-H]-
FORMULA: C18H32O4
Ontology: Lineolic acids and derivatives
INCHIKEY: JGUNZIWGNMQSBM-SIGMCMEVNA-N
SMILES: CCCCCC=C\C=C\C(CCCCCCCC(O)=O)OO
RETENTIONTIME: 
CCS: 182.738858
IONMODE: Negative
INSTRUMENTTYPE: LC-ESI-QIT
INSTRUMENT: 
COLLISIONENERGY: 35
Comment: registered in MassBank
Num Peaks: 10
124.96	172
125.16	69
149.2	103
171.063	345
183	138
185.063	655
197.03999	138
197.2	138
293.17099	724
311.12	1000

NAME: 9-HPODE; LC-ESI-QIT; MS2; CE
PRECURSORMZ: 311.222783
PRECURSORTYPE: [M-H]-
FORMULA: C18H32O4
Ontology: Lineolic acids and derivatives
INCHIKEY: JGUNZIWGNMQSBM-SIGMCMEVNA-N
SMILES: CCCCCC=C\C=C\C(CCCCCCCC(O)=O)OO
RETENTIONTIME: 
CCS: 182.738858
IONMODE: Negative
INSTRUMENTTYPE: LC-ESI-QIT
INSTRUMENT: 
COLLISIONENERGY: 40
Comment: registered in MassBank
Num Peaks: 6
97.12	211
171.093	211
183.03999	211
196.96001	158
222.88	263
311.08401	1000

NAME: 9-HPODE; LC-ESI-QIT; MS2; CE
PRECURSORMZ: 311.222783
PRECURSORTYPE: [M-H]-
FORMULA: C18H32O4
Ontology: Lineolic acids and derivatives
INCHIKEY: JGUNZIWGNMQSBM-SIGMCMEVNA-N
SMILES: CCCCCC=C\C=C\C(CCCCCCCC(O)=O)OO
RETENTIONTIME: 
CCS: 182.738858
IONMODE: Negative
INSTRUMENTTYPE: LC-ESI-QIT
INSTRUMENT: 
COLLISIONENERGY: 45
Comment: registered in MassBank
Num Peaks: 1
182.94	1000

NAME: 9-HPODE; LC-ESI-QIT; MS2; CE
PRECURSORMZ: 311.222783
PRECURSORTYPE: [M-H]-
FORMULA: C18H32O4
Ontology: Lineolic acids and derivatives
INCHIKEY: JGUNZIWGNMQSBM-SIGMCMEVNA-N
SMILES: CCCCCC=C\C=C\C(CCCCCCCC(O)=O)OO
RETENTIONTIME: 
CCS: 182.738858
IONMODE: Negative
INSTRUMENTTYPE: LC-ESI-QIT
INSTRUMENT: 
COLLISIONENERGY: 50
Comment: registered in MassBank
Num Peaks: 1
183.03999	1000

NAME: 9-HpOTrE; LC-ESI-QIT; MS2; CE
PRECURSORMZ: 309.207133
PRECURSORTYPE: [M-H]-
FORMULA: C18H30O4
Ontology: Lineolic acids and derivatives
INCHIKEY: RWKJTIHNYSIIHW-UNAQAUQENA-N
SMILES: CC\C=C/CC=C\C=C\C(CCCCCCCC(O)=O)OO
RETENTIONTIME: 
CCS: 181.3186977
IONMODE: Negative
INSTRUMENTTYPE: LC-ESI-QIT
INSTRUMENT: 
COLLISIONENERGY: 10
Comment: registered in MassBank
Num Peaks: 12
153.013	5
171.164	38
185.13	126
197.146	23
209.2	28
229.194	80
247.142	53
273.16199	80
275.19199	53
289.13501	16
291.14001	1000
309.142	303

NAME: 9-HpOTrE; LC-ESI-QIT; MS2; CE
PRECURSORMZ: 309.207133
PRECURSORTYPE: [M-H]-
FORMULA: C18H30O4
Ontology: Lineolic acids and derivatives
INCHIKEY: RWKJTIHNYSIIHW-UNAQAUQENA-N
SMILES: CC\C=C/CC=C\C=C\C(CCCCCCCC(O)=O)OO
RETENTIONTIME: 
CCS: 181.3186977
IONMODE: Negative
INSTRUMENTTYPE: LC-ESI-QIT
INSTRUMENT: 
COLLISIONENERGY: 15
Comment: registered in MassBank
Num Peaks: 12
171.10699	53
185.11501	88
197.04601	11
209.183	44
211.12	21
227.21001	5
229.2	53
247.23199	55
273.20001	43
275.20001	42
291.134	1000
309.12201	244

NAME: 9-HpOTrE; LC-ESI-QIT; MS2; CE
PRECURSORMZ: 309.207133
PRECURSORTYPE: [M-H]-
FORMULA: C18H30O4
Ontology: Lineolic acids and derivatives
INCHIKEY: RWKJTIHNYSIIHW-UNAQAUQENA-N
SMILES: CC\C=C/CC=C\C=C\C(CCCCCCCC(O)=O)OO
RETENTIONTIME: 
CCS: 181.3186977
IONMODE: Negative
INSTRUMENTTYPE: LC-ESI-QIT
INSTRUMENT: 
COLLISIONENERGY: 20
Comment: registered in MassBank
Num Peaks: 22
125.08	15
149.12	10
171.144	54
185.03999	225
193.12	6
197.07201	31
209.12	96
211.2	12
222.99001	25
223.2	25
227.12	92
229.147	79
231.22301	10
247.12801	65
255.12	10
263.12	12
273.14099	96
275.15601	42
277.20001	8
289.04001	10
291.14401	1000
309.15601	221

NAME: 9-HpOTrE; LC-ESI-QIT; MS2; CE
PRECURSORMZ: 309.207133
PRECURSORTYPE: [M-H]-
FORMULA: C18H30O4
Ontology: Lineolic acids and derivatives
INCHIKEY: RWKJTIHNYSIIHW-UNAQAUQENA-N
SMILES: CC\C=C/CC=C\C=C\C(CCCCCCCC(O)=O)OO
RETENTIONTIME: 
CCS: 181.3186977
IONMODE: Negative
INSTRUMENTTYPE: LC-ESI-QIT
INSTRUMENT: 
COLLISIONENERGY: 25
Comment: registered in MassBank
Num Peaks: 27
119.12	21
124.94	31
125.2	21
152.08	42
167.03999	31
171.08	562
171.36	31
179.12	21
185.062	510
185.36	31
191.12	31
197.063	208
197.28	52
209.2	594
211.10001	83
217.2	42
223.03999	31
227.196	854
229.216	52
247.15401	333
265.12	31
273.13	73
275.04001	156
290.88	52
291.11801	1000
309.04001	292
309.28	156

NAME: 9-HpOTrE; LC-ESI-QIT; MS2; CE
PRECURSORMZ: 309.207133
PRECURSORTYPE: [M-H]-
FORMULA: C18H30O4
Ontology: Lineolic acids and derivatives
INCHIKEY: RWKJTIHNYSIIHW-UNAQAUQENA-N
SMILES: CC\C=C/CC=C\C=C\C(CCCCCCCC(O)=O)OO
RETENTIONTIME: 
CCS: 181.3186977
IONMODE: Negative
INSTRUMENTTYPE: LC-ESI-QIT
INSTRUMENT: 
COLLISIONENERGY: 30
Comment: registered in MassBank
Num Peaks: 22
98.8	41
99.08	102
125.2	122
149.2	41
152	41
152.16	102
167.2	61
171.084	531
185.10899	735
209.03999	551
209.36	61
211.05299	122
211.2	184
227.16901	1000
241.12	122
247.03999	122
255.2	61
275.28	122
277.12	41
291.17999	102
308.79999	163
309.04001	347

NAME: 9-HpOTrE; LC-ESI-QIT; MS2; CE
PRECURSORMZ: 309.207133
PRECURSORTYPE: [M-H]-
FORMULA: C18H30O4
Ontology: Lineolic acids and derivatives
INCHIKEY: RWKJTIHNYSIIHW-UNAQAUQENA-N
SMILES: CC\C=C/CC=C\C=C\C(CCCCCCCC(O)=O)OO
RETENTIONTIME: 
CCS: 181.3186977
IONMODE: Negative
INSTRUMENTTYPE: LC-ESI-QIT
INSTRUMENT: 
COLLISIONENERGY: 35
Comment: registered in MassBank
Num Peaks: 14
96.72	143
153.03999	107
166.8	71
171.10001	321
185.11	321
208.88	143
209.03999	500
209.36	250
211.12	107
223.2	107
227.189	1000
241.24001	107
275.12	214
308.83301	286

NAME: 9-HpOTrE; LC-ESI-QIT; MS2; CE
PRECURSORMZ: 309.207133
PRECURSORTYPE: [M-H]-
FORMULA: C18H30O4
Ontology: Lineolic acids and derivatives
INCHIKEY: RWKJTIHNYSIIHW-UNAQAUQENA-N
SMILES: CC\C=C/CC=C\C=C\C(CCCCCCCC(O)=O)OO
RETENTIONTIME: 
CCS: 181.3186977
IONMODE: Negative
INSTRUMENTTYPE: LC-ESI-QIT
INSTRUMENT: 
COLLISIONENERGY: 40
Comment: registered in MassBank
Num Peaks: 5
171.03999	333
185.2	333
209.14	1000
227.12	667
227.28	667

NAME: 9-HpOTrE; LC-ESI-QIT; MS2; CE
PRECURSORMZ: 309.207133
PRECURSORTYPE: [M-H]-
FORMULA: C18H30O4
Ontology: Lineolic acids and derivatives
INCHIKEY: RWKJTIHNYSIIHW-UNAQAUQENA-N
SMILES: CC\C=C/CC=C\C=C\C(CCCCCCCC(O)=O)OO
RETENTIONTIME: 
CCS: 181.3186977
IONMODE: Negative
INSTRUMENTTYPE: LC-ESI-QIT
INSTRUMENT: 
COLLISIONENERGY: 45
Comment: registered in MassBank
Num Peaks: 1
209.2	1000

NAME: 9-HpOTrE; LC-ESI-QIT; MS2; CE
PRECURSORMZ: 309.207133
PRECURSORTYPE: [M-H]-
FORMULA: C18H30O4
Ontology: Lineolic acids and derivatives
INCHIKEY: RWKJTIHNYSIIHW-UNAQAUQENA-N
SMILES: CC\C=C/CC=C\C=C\C(CCCCCCCC(O)=O)OO
RETENTIONTIME: 
CCS: 181.3186977
IONMODE: Negative
INSTRUMENTTYPE: LC-ESI-QIT
INSTRUMENT: 
COLLISIONENERGY: 50
Comment: registered in MassBank
Num Peaks: 3
136.88	500
151.12	250
209.03999	1000

NAME: 9-KODE; LC-ESI-QIT; MS2; CE
PRECURSORMZ: 293.212218
PRECURSORTYPE: [M-H]-
FORMULA: C18H30O3
Ontology: Lineolic acids and derivatives
INCHIKEY: LUZSWWYKKLTDHU-SIGMCMEVSA-N
SMILES: CCCCC\C=C\C=C\C(=O)CCCCCCCC(O)=O
RETENTIONTIME: 
CCS: 179.5372767
IONMODE: Negative
INSTRUMENTTYPE: LC-ESI-QIT
INSTRUMENT: 
COLLISIONENERGY: 10
Comment: registered in MassBank
Num Peaks: 3
221.205	9
236.16	25
293.15701	1000

NAME: 9-KODE; LC-ESI-QIT; MS2; CE
PRECURSORMZ: 293.212218
PRECURSORTYPE: [M-H]-
FORMULA: C18H30O3
Ontology: Lineolic acids and derivatives
INCHIKEY: LUZSWWYKKLTDHU-SIGMCMEVSA-N
SMILES: CCCCC\C=C\C=C\C(=O)CCCCCCCC(O)=O
RETENTIONTIME: 
CCS: 179.5372767
IONMODE: Negative
INSTRUMENTTYPE: LC-ESI-QIT
INSTRUMENT: 
COLLISIONENERGY: 15
Comment: registered in MassBank
Num Peaks: 3
221.23801	17
236.185	38
293.146	1000

NAME: 9-KODE; LC-ESI-QIT; MS2; CE
PRECURSORMZ: 293.212218
PRECURSORTYPE: [M-H]-
FORMULA: C18H30O3
Ontology: Lineolic acids and derivatives
INCHIKEY: LUZSWWYKKLTDHU-SIGMCMEVSA-N
SMILES: CCCCC\C=C\C=C\C(=O)CCCCCCCC(O)=O
RETENTIONTIME: 
CCS: 179.5372767
IONMODE: Negative
INSTRUMENTTYPE: LC-ESI-QIT
INSTRUMENT: 
COLLISIONENERGY: 20
Comment: registered in MassBank
Num Peaks: 5
185.159	11
220.21201	5
221.211	38
236.186	48
293.15399	1000

NAME: 9-KODE; LC-ESI-QIT; MS2; CE
PRECURSORMZ: 293.212218
PRECURSORTYPE: [M-H]-
FORMULA: C18H30O3
Ontology: Lineolic acids and derivatives
INCHIKEY: LUZSWWYKKLTDHU-SIGMCMEVSA-N
SMILES: CCCCC\C=C\C=C\C(=O)CCCCCCCC(O)=O
RETENTIONTIME: 
CCS: 179.5372767
IONMODE: Negative
INSTRUMENTTYPE: LC-ESI-QIT
INSTRUMENT: 
COLLISIONENERGY: 25
Comment: registered in MassBank
Num Peaks: 8
185.18401	73
197.181	15
220.203	17
221.196	46
236.131	37
249.216	13
275.26599	8
293.15302	1000

NAME: 9-KODE; LC-ESI-QIT; MS2; CE
PRECURSORMZ: 293.212218
PRECURSORTYPE: [M-H]-
FORMULA: C18H30O3
Ontology: Lineolic acids and derivatives
INCHIKEY: LUZSWWYKKLTDHU-SIGMCMEVSA-N
SMILES: CCCCC\C=C\C=C\C(=O)CCCCCCCC(O)=O
RETENTIONTIME: 
CCS: 179.5372767
IONMODE: Negative
INSTRUMENTTYPE: LC-ESI-QIT
INSTRUMENT: 
COLLISIONENERGY: 30
Comment: registered in MassBank
Num Peaks: 15
125.104	10
149.14301	9
167.12	5
185.13	185
186.103	10
186.39999	8
186.543	8
193.16901	9
197.12601	42
220.142	38
221.177	83
236.112	43
249.209	35
275.23099	12
293.14401	1000

NAME: 9-KODE; LC-ESI-QIT; MS2; CE
PRECURSORMZ: 293.212218
PRECURSORTYPE: [M-H]-
FORMULA: C18H30O3
Ontology: Lineolic acids and derivatives
INCHIKEY: LUZSWWYKKLTDHU-SIGMCMEVSA-N
SMILES: CCCCC\C=C\C=C\C(=O)CCCCCCCC(O)=O
RETENTIONTIME: 
CCS: 179.5372767
IONMODE: Negative
INSTRUMENTTYPE: LC-ESI-QIT
INSTRUMENT: 
COLLISIONENERGY: 35
Comment: registered in MassBank
Num Peaks: 21
97.032	15
123.147	6
124.64	7
125.094	41
141.132	7
149.097	30
151.07001	7
167.14	14
177.12	9
185.092	358
192.069	30
193.12	22
197.103	107
220.129	207
221.12801	317
231.12	8
236.045	82
249.19299	46
257.25	6
275.16599	27
293.14001	1000

NAME: 9-KODE; LC-ESI-QIT; MS2; CE
PRECURSORMZ: 293.212218
PRECURSORTYPE: [M-H]-
FORMULA: C18H30O3
Ontology: Lineolic acids and derivatives
INCHIKEY: LUZSWWYKKLTDHU-SIGMCMEVSA-N
SMILES: CCCCC\C=C\C=C\C(=O)CCCCCCCC(O)=O
RETENTIONTIME: 
CCS: 179.5372767
IONMODE: Negative
INSTRUMENTTYPE: LC-ESI-QIT
INSTRUMENT: 
COLLISIONENERGY: 40
Comment: registered in MassBank
Num Peaks: 28
96.968	37
121.12	9
122.992	22
123.2	13
125.04	32
125.2	11
149.12	26
151.03999	13
167.12	15
177.09801	63
185.095	353
185.52	9
192.088	154
193.16701	32
197.138	113
205.10899	58
205.28	6
216.96001	6
217.92	24
220.10899	708
220.46001	13
221.105	1000
221.60001	11
221.92	6
236.04401	58
249.187	17
249.36	22
293.13	431

NAME: 9-KODE; LC-ESI-QIT; MS2; CE
PRECURSORMZ: 293.212218
PRECURSORTYPE: [M-H]-
FORMULA: C18H30O3
Ontology: Lineolic acids and derivatives
INCHIKEY: LUZSWWYKKLTDHU-SIGMCMEVSA-N
SMILES: CCCCC\C=C\C=C\C(=O)CCCCCCCC(O)=O
RETENTIONTIME: 
CCS: 179.5372767
IONMODE: Negative
INSTRUMENTTYPE: LC-ESI-QIT
INSTRUMENT: 
COLLISIONENERGY: 45
Comment: registered in MassBank
Num Peaks: 23
96.98	39
123.12	10
125.04	15
125.2	10
148	34
148.16	10
149.08	21
163.12	5
164.02	8
167.2	5
177.077	111
185.12	75
190	10
192.07401	98
193.12	26
197.05099	28
205.116	253
205.44	13
218.09599	10
220.11301	843
221.11099	1000
236.16	8
293.04001	10

NAME: 9-KODE; LC-ESI-QIT; MS2; CE
PRECURSORMZ: 293.212218
PRECURSORTYPE: [M-H]-
FORMULA: C18H30O3
Ontology: Lineolic acids and derivatives
INCHIKEY: LUZSWWYKKLTDHU-SIGMCMEVSA-N
SMILES: CCCCC\C=C\C=C\C(=O)CCCCCCCC(O)=O
RETENTIONTIME: 
CCS: 179.5372767
IONMODE: Negative
INSTRUMENTTYPE: LC-ESI-QIT
INSTRUMENT: 
COLLISIONENERGY: 50
Comment: registered in MassBank
Num Peaks: 13
96.8	34
97.032	86
148.04401	131
164.08	57
177.01601	234
190.24001	23
192.16	51
205.076	794
217.12	46
220.118	1000
221.149	869
221.44	40
221.84	11

NAME: LTB4; LC-ESI-QIT; MS2; CE
PRECURSORMZ: 335.222783
PRECURSORTYPE: [M-H]-
FORMULA: C20H32O4
Ontology: Leukotrienes
INCHIKEY: VNYSSYRCGWBHLG-AMOLWHMGSA-N
SMILES: CCCCC\C=C/C[C@@H](O)\C=C\C=C\C=C/[C@@H](O)CCCC(O)=O
RETENTIONTIME: 
CCS: 187.8806247
IONMODE: Negative
INSTRUMENTTYPE: LC-ESI-QIT
INSTRUMENT: 
COLLISIONENERGY: 20
Comment: registered in MassBank
Num Peaks: 20
108.984	9
123.12	5
151.257	33
161.12801	6
161.343	8
177.31	26
181.263	14
194.554	5
195.274	387
196.157	34
196.375	23
196.64301	21
203.317	28
205.25301	10
255.44299	16
273.45999	49
299.45901	15
317.41299	259
318.112	7
335.16699	1000

NAME: LTB4; LC-ESI-QIT; MS2; CE
PRECURSORMZ: 335.222783
PRECURSORTYPE: [M-H]-
FORMULA: C20H32O4
Ontology: Leukotrienes
INCHIKEY: VNYSSYRCGWBHLG-AMOLWHMGSA-N
SMILES: CCCCC\C=C/C[C@@H](O)\C=C\C=C\C=C/[C@@H](O)CCCC(O)=O
RETENTIONTIME: 
CCS: 187.8806247
IONMODE: Negative
INSTRUMENTTYPE: LC-ESI-QIT
INSTRUMENT: 
COLLISIONENERGY: 25
Comment: registered in MassBank
Num Peaks: 39
93.092	6
109.108	20
110.987	7
123.078	24
129.062	31
135.157	8
151.19099	105
152.351	10
153.31	14
155.16901	12
159.267	12
161.181	33
163.217	11
166.96001	10
175.304	8
177.218	62
178.11301	6
179.14799	21
181.20399	54
187.03999	6
195.16499	852
195.786	38
196.054	45
196.54201	13
197.052	10
197.50301	5
203.27901	86
205.194	32
239.188	6
245.267	46
255.23599	33
257.28	12
273.25601	156
275.34698	7
291.28	7
299.263	49
317.246	540
317.97	6
335.14401	1000

NAME: LTB4; LC-ESI-QIT; MS2; CE
PRECURSORMZ: 335.222783
PRECURSORTYPE: [M-H]-
FORMULA: C20H32O4
Ontology: Leukotrienes
INCHIKEY: VNYSSYRCGWBHLG-AMOLWHMGSA-N
SMILES: CCCCC\C=C/C[C@@H](O)\C=C\C=C\C=C/[C@@H](O)CCCC(O)=O
RETENTIONTIME: 
CCS: 187.8806247
IONMODE: Negative
INSTRUMENTTYPE: LC-ESI-QIT
INSTRUMENT: 
COLLISIONENERGY: 30
Comment: registered in MassBank
Num Peaks: 44
55.52	6
70.96	16
92.9	17
93.12	28
95.12	6
107.12	11
109.059	53
111.101	31
123.062	64
123.28	6
129.07201	113
133.03999	17
135.12	10
149.28	6
151.13901	273
153.106	26
155.08299	26
159.13	39
160.88	11
161.144	74
163.11501	31
167.2	6
175.16701	17
176.8	11
177.11	117
179.10201	56
181.12	113
187.17599	9
187.36	6
195.092	1000
203.17599	218
205.063	64
219.11	7
223.063	6
227.149	11
231.12	7
245.16901	119
255.16901	68
257.172	38
273.20001	263
291.20001	11
299.13101	79
317.146	470
335.134	406

NAME: LTB4; LC-ESI-QIT; MS2; CE
PRECURSORMZ: 335.222783
PRECURSORTYPE: [M-H]-
FORMULA: C20H32O4
Ontology: Leukotrienes
INCHIKEY: VNYSSYRCGWBHLG-AMOLWHMGSA-N
SMILES: CCCCC\C=C/C[C@@H](O)\C=C\C=C\C=C/[C@@H](O)CCCC(O)=O
RETENTIONTIME: 
CCS: 187.8806247
IONMODE: Negative
INSTRUMENTTYPE: LC-ESI-QIT
INSTRUMENT: 
COLLISIONENERGY: 35
Comment: registered in MassBank
Num Peaks: 55
57.2	23
66	15
70.869	150
83.04	15
92.992	241
105.12	23
105.28	30
107.143	38
109.113	383
111.016	195
118.96	23
119.12	23
122.88	38
123.125	218
128.56	23
129.013	414
131.12	23
133.02	23
135.03999	38
145.03999	15
147.2	23
148.96001	23
149.2	23
151.062	699
153.03999	23
153.28	30
155.03999	75
158.96001	38
161.116	383
163.17999	128
175.104	113
177.02901	278
179.03999	60
179.28	30
181.04601	504
187.08	113
189.12	38
195.071	1000
203.14101	797
204.96001	98
205.12	30
219.16	30
223.03999	15
229.12	15
231.12	15
244.88	15
245.2	263
255.07401	135
255.28	15
257.16	60
272.88	30
273.185	323
299.12	256
317.14899	406
335.17801	263

NAME: LTB4; LC-ESI-QIT; MS2; CE
PRECURSORMZ: 335.222783
PRECURSORTYPE: [M-H]-
FORMULA: C20H32O4
Ontology: Leukotrienes
INCHIKEY: VNYSSYRCGWBHLG-AMOLWHMGSA-N
SMILES: CCCCC\C=C/C[C@@H](O)\C=C\C=C\C=C/[C@@H](O)CCCC(O)=O
RETENTIONTIME: 
CCS: 187.8806247
IONMODE: Negative
INSTRUMENTTYPE: LC-ESI-QIT
INSTRUMENT: 
COLLISIONENERGY: 40
Comment: registered in MassBank
Num Peaks: 26
70.64	64
70.96	64
71.28	43
93.12	106
95.04	106
109.063	128
111.12	213
121.12	277
122.94	170
123.12	85
128.96001	191
129.12	128
151.03999	234
151.28	149
159.03999	128
161.03999	128
161.28	85
163.12	106
177.06	340
181.008	319
195.06799	489
201.12	43
203.12	1000
229.12	43
245.2	404
273.10001	64

NAME: LTB4; LC-ESI-QIT; MS2; CE
PRECURSORMZ: 335.222783
PRECURSORTYPE: [M-H]-
FORMULA: C20H32O4
Ontology: Leukotrienes
INCHIKEY: VNYSSYRCGWBHLG-AMOLWHMGSA-N
SMILES: CCCCC\C=C/C[C@@H](O)\C=C\C=C\C=C/[C@@H](O)CCCC(O)=O
RETENTIONTIME: 
CCS: 187.8806247
IONMODE: Negative
INSTRUMENTTYPE: LC-ESI-QIT
INSTRUMENT: 
COLLISIONENERGY: 45
Comment: registered in MassBank
Num Peaks: 16
70.96	500
93.2	167
95.12	250
107.04	333
108.96	1000
110.96	250
129.12	167
135.12	333
150.96001	250
151.12	333
153.28	250
161.12	833
180.96001	417
187.12	250
195.03999	250
203.2	917

NAME: LTB4; LC-ESI-QIT; MS2; CE
PRECURSORMZ: 335.222783
PRECURSORTYPE: [M-H]-
FORMULA: C20H32O4
Ontology: Leukotrienes
INCHIKEY: VNYSSYRCGWBHLG-AMOLWHMGSA-N
SMILES: CCCCC\C=C/C[C@@H](O)\C=C\C=C\C=C/[C@@H](O)CCCC(O)=O
RETENTIONTIME: 
CCS: 187.8806247
IONMODE: Negative
INSTRUMENTTYPE: LC-ESI-QIT
INSTRUMENT: 
COLLISIONENERGY: 50
Comment: registered in MassBank
Num Peaks: 19
69.04	118
70.8	176
71	294
92.989	1000
93.2	235
94.96	235
107.04	353
109.2	353
110.96	176
119.08	412
123.2	176
128.96001	235
129.12	118
129.28	118
133	353
155.12	176
161.2	294
181.10001	176
203.24001	118

NAME: LTB4; LC-ESI-QIT; MS2; CE
PRECURSORMZ: 335.222783
PRECURSORTYPE: [M-H]-
FORMULA: C20H32O4
Ontology: Leukotrienes
INCHIKEY: VNYSSYRCGWBHLG-AMOLWHMGSA-N
SMILES: CCCCC\C=C/C[C@@H](O)\C=C\C=C\C=C/[C@@H](O)CCCC(O)=O
RETENTIONTIME: 
CCS: 187.8806247
IONMODE: Negative
INSTRUMENTTYPE: LC-ESI-QIT
INSTRUMENT: 
COLLISIONENERGY: 55
Comment: registered in MassBank
Num Peaks: 18
55.44	160
55.92	120
56.72	160
70.853	440
93.093	1000
94.96	440
95.107	440
106.88	120
107.04	360
108.96	480
109.12	160
111.12	320
120.96	160
123.04	160
129.02699	240
133.03999	160
143.28	80
159.12	120

NAME: LTB4; LC-ESI-QIT; MS2; CE
PRECURSORMZ: 335.222783
PRECURSORTYPE: [M-H]-
FORMULA: C20H32O4
Ontology: Leukotrienes
INCHIKEY: VNYSSYRCGWBHLG-AMOLWHMGSA-N
SMILES: CCCCC\C=C/C[C@@H](O)\C=C\C=C\C=C/[C@@H](O)CCCC(O)=O
RETENTIONTIME: 
CCS: 187.8806247
IONMODE: Negative
INSTRUMENTTYPE: LC-ESI-QIT
INSTRUMENT: 
COLLISIONENERGY: 60
Comment: registered in MassBank
Num Peaks: 21
56.96	61
57.12	121
70.94	424
90.96	91
91.84	61
93.12	1000
95.04	121
95.2	121
106.96	394
107.12	121
107.6	91
109.088	788
110.88	121
111.12	242
115.04	61
121.04	152
123.04	61
128.96001	61
133.03999	61
159.06	91
186.96001	91

NAME: LTB4_20-Hydroxy; LC-ESI-QIT; MS2; CE
PRECURSORMZ: 351.217698
PRECURSORTYPE: [M-H]-
FORMULA: C20H32O5
Ontology: Leukotrienes
INCHIKEY: PTJFJXLGRSTECQ-PSPARDEHSA-N
SMILES: OCCCCC\C=C/C[C@@H](O)\C=C\C=C\C=C/[C@@H](O)CCCC(O)=O
RETENTIONTIME: 
CCS: 189.6511645
IONMODE: Negative
INSTRUMENTTYPE: LC-ESI-QIT
INSTRUMENT: 
COLLISIONENERGY: 10
Comment: registered in MassBank
Num Peaks: 2
333.173	7
351.116	1000

NAME: LTB4_20-Hydroxy; LC-ESI-QIT; MS2; CE
PRECURSORMZ: 351.217698
PRECURSORTYPE: [M-H]-
FORMULA: C20H32O5
Ontology: Leukotrienes
INCHIKEY: PTJFJXLGRSTECQ-PSPARDEHSA-N
SMILES: OCCCCC\C=C/C[C@@H](O)\C=C\C=C\C=C/[C@@H](O)CCCC(O)=O
RETENTIONTIME: 
CCS: 189.6511645
IONMODE: Negative
INSTRUMENTTYPE: LC-ESI-QIT
INSTRUMENT: 
COLLISIONENERGY: 15
Comment: registered in MassBank
Num Peaks: 2
333.17999	26
351.121	1000

NAME: LTB4_20-Hydroxy; LC-ESI-QIT; MS2; CE
PRECURSORMZ: 351.217698
PRECURSORTYPE: [M-H]-
FORMULA: C20H32O5
Ontology: Leukotrienes
INCHIKEY: PTJFJXLGRSTECQ-PSPARDEHSA-N
SMILES: OCCCCC\C=C/C[C@@H](O)\C=C\C=C\C=C/[C@@H](O)CCCC(O)=O
RETENTIONTIME: 
CCS: 189.6511645
IONMODE: Negative
INSTRUMENTTYPE: LC-ESI-QIT
INSTRUMENT: 
COLLISIONENERGY: 20
Comment: registered in MassBank
Num Peaks: 4
195.106	59
289.15201	6
333.17499	97
351.12	1000

NAME: LTB4_20-Hydroxy; LC-ESI-QIT; MS2; CE
PRECURSORMZ: 351.217698
PRECURSORTYPE: [M-H]-
FORMULA: C20H32O5
Ontology: Leukotrienes
INCHIKEY: PTJFJXLGRSTECQ-PSPARDEHSA-N
SMILES: OCCCCC\C=C/C[C@@H](O)\C=C\C=C\C=C/[C@@H](O)CCCC(O)=O
RETENTIONTIME: 
CCS: 189.6511645
IONMODE: Negative
INSTRUMENTTYPE: LC-ESI-QIT
INSTRUMENT: 
COLLISIONENERGY: 25
Comment: registered in MassBank
Num Peaks: 10
106.96	6
151.145	18
161.16	14
177.06799	16
195.073	221
261.20001	15
289.12	23
315.147	20
333.12399	260
351.125	1000

NAME: LTB4_20-Hydroxy; LC-ESI-QIT; MS2; CE
PRECURSORMZ: 351.217698
PRECURSORTYPE: [M-H]-
FORMULA: C20H32O5
Ontology: Leukotrienes
INCHIKEY: PTJFJXLGRSTECQ-PSPARDEHSA-N
SMILES: OCCCCC\C=C/C[C@@H](O)\C=C\C=C\C=C/[C@@H](O)CCCC(O)=O
RETENTIONTIME: 
CCS: 189.6511645
IONMODE: Negative
INSTRUMENTTYPE: LC-ESI-QIT
INSTRUMENT: 
COLLISIONENERGY: 30
Comment: registered in MassBank
Num Peaks: 25
93.04	6
109.04	11
114.96	6
129.03999	11
151.151	110
161.05099	65
176.989	42
177.28	11
179.03999	28
181.03999	25
189.12	20
195.077	1000
205.12	34
219.063	20
219.28	6
261.15601	45
271.28	14
273.10001	11
283.35999	6
289.20001	23
315.12701	76
315.28	23
333.13199	559
333.48999	14
351.12601	994

NAME: LTB4_20-Hydroxy; LC-ESI-QIT; MS2; CE
PRECURSORMZ: 351.217698
PRECURSORTYPE: [M-H]-
FORMULA: C20H32O5
Ontology: Leukotrienes
INCHIKEY: PTJFJXLGRSTECQ-PSPARDEHSA-N
SMILES: OCCCCC\C=C/C[C@@H](O)\C=C\C=C\C=C/[C@@H](O)CCCC(O)=O
RETENTIONTIME: 
CCS: 189.6511645
IONMODE: Negative
INSTRUMENTTYPE: LC-ESI-QIT
INSTRUMENT: 
COLLISIONENERGY: 35
Comment: registered in MassBank
Num Peaks: 23
71.04	61
92.96	61
108.88	102
110.96	61
123.04	82
129.03999	163
151.12	204
155.12	61
159.03999	41
161.12	122
177.14999	184
181.03999	347
195.092	1000
205.03999	102
217.2	61
218.88	143
231.03999	82
261.12	204
271.28	61
289.12	61
289.28	41
333.12	653
351.15201	592

NAME: LTB4_20-Hydroxy; LC-ESI-QIT; MS2; CE
PRECURSORMZ: 351.217698
PRECURSORTYPE: [M-H]-
FORMULA: C20H32O5
Ontology: Leukotrienes
INCHIKEY: PTJFJXLGRSTECQ-PSPARDEHSA-N
SMILES: OCCCCC\C=C/C[C@@H](O)\C=C\C=C\C=C/[C@@H](O)CCCC(O)=O
RETENTIONTIME: 
CCS: 189.6511645
IONMODE: Negative
INSTRUMENTTYPE: LC-ESI-QIT
INSTRUMENT: 
COLLISIONENERGY: 40
Comment: registered in MassBank
Num Peaks: 12
109.04	625
111.04	375
123.12	500
129.03999	250
129.2	250
151.03999	750
161.03999	1000
179.03999	375
180.89999	750
195.10001	750
219.03999	625
273.20001	250

NAME: LTB4_20-Hydroxy; LC-ESI-QIT; MS2; CE
PRECURSORMZ: 351.217698
PRECURSORTYPE: [M-H]-
FORMULA: C20H32O5
Ontology: Leukotrienes
INCHIKEY: PTJFJXLGRSTECQ-PSPARDEHSA-N
SMILES: OCCCCC\C=C/C[C@@H](O)\C=C\C=C\C=C/[C@@H](O)CCCC(O)=O
RETENTIONTIME: 
CCS: 189.6511645
IONMODE: Negative
INSTRUMENTTYPE: LC-ESI-QIT
INSTRUMENT: 
COLLISIONENERGY: 45
Comment: registered in MassBank
Num Peaks: 7
109.12	1000
123.04	286
129.03999	286
161.12	714
163.2	286
181.12	286
189.03999	571

NAME: LTB4_20-Hydroxy; LC-ESI-QIT; MS2; CE
PRECURSORMZ: 351.217698
PRECURSORTYPE: [M-H]-
FORMULA: C20H32O5
Ontology: Leukotrienes
INCHIKEY: PTJFJXLGRSTECQ-PSPARDEHSA-N
SMILES: OCCCCC\C=C/C[C@@H](O)\C=C\C=C\C=C/[C@@H](O)CCCC(O)=O
RETENTIONTIME: 
CCS: 189.6511645
IONMODE: Negative
INSTRUMENTTYPE: LC-ESI-QIT
INSTRUMENT: 
COLLISIONENERGY: 50
Comment: registered in MassBank
Num Peaks: 4
70.96	500
109.04	1000
109.28	1000
151.2	500

NAME: LTB5; LC-ESI-QIT; MS2; CE
PRECURSORMZ: 333.207133
PRECURSORTYPE: [M-H]-
FORMULA: C20H30O4
Ontology: Hydroxyeicosapentaenoic acids
INCHIKEY: BISQPGCQOHLHQK-HDNPQISLSA-N
SMILES: CC\C=C/C\C=C/C[C@@H](O)\C=C\C=C\C=C/[C@@H](O)CCCC(O)=O
RETENTIONTIME: 
CCS: 221.4819405
IONMODE: Negative
INSTRUMENTTYPE: LC-ESI-QIT
INSTRUMENT: 
COLLISIONENERGY: 10
Comment: registered in MassBank
Num Peaks: 5
195.177	25
271.24301	19
297.15302	5
315.24899	36
333.116	1000

NAME: LTB5; LC-ESI-QIT; MS2; CE
PRECURSORMZ: 333.207133
PRECURSORTYPE: [M-H]-
FORMULA: C20H30O4
Ontology: Hydroxyeicosapentaenoic acids
INCHIKEY: BISQPGCQOHLHQK-HDNPQISLSA-N
SMILES: CC\C=C/C\C=C/C[C@@H](O)\C=C\C=C\C=C/[C@@H](O)CCCC(O)=O
RETENTIONTIME: 
CCS: 221.4819405
IONMODE: Negative
INSTRUMENTTYPE: LC-ESI-QIT
INSTRUMENT: 
COLLISIONENERGY: 15
Comment: registered in MassBank
Num Peaks: 5
195.142	43
201.33299	6
271.28699	18
315.18399	54
333.11899	1000

NAME: LTB5; LC-ESI-QIT; MS2; CE
PRECURSORMZ: 333.207133
PRECURSORTYPE: [M-H]-
FORMULA: C20H30O4
Ontology: Hydroxyeicosapentaenoic acids
INCHIKEY: BISQPGCQOHLHQK-HDNPQISLSA-N
SMILES: CC\C=C/C\C=C/C[C@@H](O)\C=C\C=C\C=C/[C@@H](O)CCCC(O)=O
RETENTIONTIME: 
CCS: 221.4819405
IONMODE: Negative
INSTRUMENTTYPE: LC-ESI-QIT
INSTRUMENT: 
COLLISIONENERGY: 20
Comment: registered in MassBank
Num Peaks: 12
151.144	7
161.07401	12
177.12	12
181.08501	10
195.123	200
201.2	13
205.186	14
253.2	8
271.17899	39
297.14499	7
315.185	138
333.125	1000

NAME: LTB5; LC-ESI-QIT; MS2; CE
PRECURSORMZ: 333.207133
PRECURSORTYPE: [M-H]-
FORMULA: C20H30O4
Ontology: Hydroxyeicosapentaenoic acids
INCHIKEY: BISQPGCQOHLHQK-HDNPQISLSA-N
SMILES: CC\C=C/C\C=C/C[C@@H](O)\C=C\C=C\C=C/[C@@H](O)CCCC(O)=O
RETENTIONTIME: 
CCS: 221.4819405
IONMODE: Negative
INSTRUMENTTYPE: LC-ESI-QIT
INSTRUMENT: 
COLLISIONENERGY: 25
Comment: registered in MassBank
Num Peaks: 27
109.12	16
111.093	6
123.12	5
128.96001	22
149.03999	5
151.12	85
155.03999	10
158.96001	12
159.2	6
161.06799	65
165.14301	6
173.03999	10
177.03999	53
179.073	35
181.049	50
191.2	5
195.07201	821
201.138	53
205.011	60
220	8
243.177	19
253.12	29
271.19199	123
297.04001	12
297.44	6
315.11899	330
333.11301	1000

NAME: LTB5; LC-ESI-QIT; MS2; CE
PRECURSORMZ: 333.207133
PRECURSORTYPE: [M-H]-
FORMULA: C20H30O4
Ontology: Hydroxyeicosapentaenoic acids
INCHIKEY: BISQPGCQOHLHQK-HDNPQISLSA-N
SMILES: CC\C=C/C\C=C/C[C@@H](O)\C=C\C=C\C=C/[C@@H](O)CCCC(O)=O
RETENTIONTIME: 
CCS: 221.4819405
IONMODE: Negative
INSTRUMENTTYPE: LC-ESI-QIT
INSTRUMENT: 
COLLISIONENERGY: 30
Comment: registered in MassBank
Num Peaks: 36
70.32	16
93.04	16
106.98	16
109.04	79
111.08	13
118.96	10
122.96	69
129.015	89
133.03999	7
141.03999	10
147.16	10
151.11	213
155.12	20
159.12	10
161.14301	236
163.12	23
173.084	69
173.44	10
175.12	7
176.967	62
177.12	62
179.12	52
181.06799	151
185.03999	10
189.03999	7
195.09	1000
195.44	13
201.142	118
205.10699	43
217.12	10
243.2	33
253.12	26
271.15399	138
297.06699	59
315.11801	233
333.15302	344

NAME: LTB5; LC-ESI-QIT; MS2; CE
PRECURSORMZ: 333.207133
PRECURSORTYPE: [M-H]-
FORMULA: C20H30O4
Ontology: Hydroxyeicosapentaenoic acids
INCHIKEY: BISQPGCQOHLHQK-HDNPQISLSA-N
SMILES: CC\C=C/C\C=C/C[C@@H](O)\C=C\C=C\C=C/[C@@H](O)CCCC(O)=O
RETENTIONTIME: 
CCS: 221.4819405
IONMODE: Negative
INSTRUMENTTYPE: LC-ESI-QIT
INSTRUMENT: 
COLLISIONENERGY: 35
Comment: registered in MassBank
Num Peaks: 31
70.88	34
71.12	52
93.04	52
107.04	52
108.96	224
110.96	52
118.96	34
123.12	310
128.993	293
132.96001	34
135.03999	52
147.12	103
151.10899	500
154.96001	69
155.2	34
159.00999	155
161.05	517
172.96001	52
173.2	69
177.03999	86
179.12	69
181.12	397
195.03999	1000
201.03999	103
201.2	172
205.063	69
243.147	69
271.16	69
297.07999	69
315.06699	310
332.98001	224

NAME: LTB5; LC-ESI-QIT; MS2; CE
PRECURSORMZ: 333.207133
PRECURSORTYPE: [M-H]-
FORMULA: C20H30O4
Ontology: Hydroxyeicosapentaenoic acids
INCHIKEY: BISQPGCQOHLHQK-HDNPQISLSA-N
SMILES: CC\C=C/C\C=C/C[C@@H](O)\C=C\C=C\C=C/[C@@H](O)CCCC(O)=O
RETENTIONTIME: 
CCS: 221.4819405
IONMODE: Negative
INSTRUMENTTYPE: LC-ESI-QIT
INSTRUMENT: 
COLLISIONENERGY: 40
Comment: registered in MassBank
Num Peaks: 20
93	318
107.12	91
109.04	364
111.04	409
123.12	818
128.88	182
129.08	136
135.03999	91
137.16	273
146.96001	91
151.08	1000
159.03999	182
161.048	727
173.12	136
176.88	91
178.96001	91
180.88	91
181.12	318
195.12	136
201.44	136

NAME: LTB5; LC-ESI-QIT; MS2; CE
PRECURSORMZ: 333.207133
PRECURSORTYPE: [M-H]-
FORMULA: C20H30O4
Ontology: Hydroxyeicosapentaenoic acids
INCHIKEY: BISQPGCQOHLHQK-HDNPQISLSA-N
SMILES: CC\C=C/C\C=C/C[C@@H](O)\C=C\C=C\C=C/[C@@H](O)CCCC(O)=O
RETENTIONTIME: 
CCS: 221.4819405
IONMODE: Negative
INSTRUMENTTYPE: LC-ESI-QIT
INSTRUMENT: 
COLLISIONENERGY: 45
Comment: registered in MassBank
Num Peaks: 11
70.88	273
81.12	182
93.04	455
95.04	182
104.96	273
109.096	1000
110.96	364
123.04	455
144.96001	182
161.13	636
180.88	455

NAME: LTB5; LC-ESI-QIT; MS2; CE
PRECURSORMZ: 333.207133
PRECURSORTYPE: [M-H]-
FORMULA: C20H30O4
Ontology: Hydroxyeicosapentaenoic acids
INCHIKEY: BISQPGCQOHLHQK-HDNPQISLSA-N
SMILES: CC\C=C/C\C=C/C[C@@H](O)\C=C\C=C\C=C/[C@@H](O)CCCC(O)=O
RETENTIONTIME: 
CCS: 221.4819405
IONMODE: Negative
INSTRUMENTTYPE: LC-ESI-QIT
INSTRUMENT: 
COLLISIONENERGY: 50
Comment: registered in MassBank
Num Peaks: 8
57.04	250
70.98	1000
92.64	875
108.96	500
114.96	250
129.12	500
159.03999	500
161.03999	250

NAME: LTC4; LC-ESI-QIT; MS2; CE
PRECURSORMZ: 624.296024
PRECURSORTYPE: [M-H]-
FORMULA: C30H47N3O9S
Ontology: Oligopeptides
INCHIKEY: GWNVDXQDILPJIG-NXOLIXFESA-N
SMILES: CCCCC\C=C/C\C=C/C=C/C=C/[C@@H](SC[C@H](N=C(O)CC[C@H](N)C(O)=O)C(O)=NCC(O)=O)[C@@H](O)CCCC(O)=O
RETENTIONTIME: 
CCS: 244.1334896
IONMODE: Negative
INSTRUMENTTYPE: LC-ESI-QIT
INSTRUMENT: 
COLLISIONENERGY: 20
Comment: registered in MassBank
Num Peaks: 3
606.25	7
606.47998	10
624.26501	1000

NAME: LTC4; LC-ESI-QIT; MS2; CE
PRECURSORMZ: 624.296024
PRECURSORTYPE: [M-H]-
FORMULA: C30H47N3O9S
Ontology: Oligopeptides
INCHIKEY: GWNVDXQDILPJIG-NXOLIXFESA-N
SMILES: CCCCC\C=C/C\C=C/C=C/C=C/[C@@H](SC[C@H](N=C(O)CC[C@H](N)C(O)=O)C(O)=NCC(O)=O)[C@@H](O)CCCC(O)=O
RETENTIONTIME: 
CCS: 244.1334896
IONMODE: Negative
INSTRUMENTTYPE: LC-ESI-QIT
INSTRUMENT: 
COLLISIONENERGY: 25
Comment: registered in MassBank
Num Peaks: 3
495.09299	8
606.33197	52
624.31097	1000

NAME: LTC4; LC-ESI-QIT; MS2; CE
PRECURSORMZ: 624.296024
PRECURSORTYPE: [M-H]-
FORMULA: C30H47N3O9S
Ontology: Oligopeptides
INCHIKEY: GWNVDXQDILPJIG-NXOLIXFESA-N
SMILES: CCCCC\C=C/C\C=C/C=C/C=C/[C@@H](SC[C@H](N=C(O)CC[C@H](N)C(O)=O)C(O)=NCC(O)=O)[C@@H](O)CCCC(O)=O
RETENTIONTIME: 
CCS: 244.1334896
IONMODE: Negative
INSTRUMENTTYPE: LC-ESI-QIT
INSTRUMENT: 
COLLISIONENERGY: 30
Comment: registered in MassBank
Num Peaks: 7
272.04599	30
305.92001	6
495.20001	9
508.272	36
606.15997	32
606.341	21
624.315	1000

NAME: LTC4; LC-ESI-QIT; MS2; CE
PRECURSORMZ: 624.296024
PRECURSORTYPE: [M-H]-
FORMULA: C30H47N3O9S
Ontology: Oligopeptides
INCHIKEY: GWNVDXQDILPJIG-NXOLIXFESA-N
SMILES: CCCCC\C=C/C\C=C/C=C/C=C/[C@@H](SC[C@H](N=C(O)CC[C@H](N)C(O)=O)C(O)=NCC(O)=O)[C@@H](O)CCCC(O)=O
RETENTIONTIME: 
CCS: 244.1334896
IONMODE: Negative
INSTRUMENTTYPE: LC-ESI-QIT
INSTRUMENT: 
COLLISIONENERGY: 35
Comment: registered in MassBank
Num Peaks: 16
179	109
210.08	40
235.92	11
254	155
254.24001	23
271.92001	80
272.07999	92
477.20001	29
495.28	40
508.26999	103
547.20001	17
588.08002	11
588.40002	29
606.29498	201
606.56	29
624.27399	1000

NAME: LTC4; LC-ESI-QIT; MS2; CE
PRECURSORMZ: 624.296024
PRECURSORTYPE: [M-H]-
FORMULA: C30H47N3O9S
Ontology: Oligopeptides
INCHIKEY: GWNVDXQDILPJIG-NXOLIXFESA-N
SMILES: CCCCC\C=C/C\C=C/C=C/C=C/[C@@H](SC[C@H](N=C(O)CC[C@H](N)C(O)=O)C(O)=NCC(O)=O)[C@@H](O)CCCC(O)=O
RETENTIONTIME: 
CCS: 244.1334896
IONMODE: Negative
INSTRUMENTTYPE: LC-ESI-QIT
INSTRUMENT: 
COLLISIONENERGY: 40
Comment: registered in MassBank
Num Peaks: 15
143.12	214
167.067	286
179.02699	500
210	1000
254.08	929
272	786
272.23999	357
333.20001	286
477.20001	286
508.16	857
508.39999	357
588.32001	286
606.25598	714
624.23999	714
624.40002	214

NAME: LTC4; LC-ESI-QIT; MS2; CE
PRECURSORMZ: 624.296024
PRECURSORTYPE: [M-H]-
FORMULA: C30H47N3O9S
Ontology: Oligopeptides
INCHIKEY: GWNVDXQDILPJIG-NXOLIXFESA-N
SMILES: CCCCC\C=C/C\C=C/C=C/C=C/[C@@H](SC[C@H](N=C(O)CC[C@H](N)C(O)=O)C(O)=NCC(O)=O)[C@@H](O)CCCC(O)=O
RETENTIONTIME: 
CCS: 244.1334896
IONMODE: Negative
INSTRUMENTTYPE: LC-ESI-QIT
INSTRUMENT: 
COLLISIONENERGY: 45
Comment: registered in MassBank
Num Peaks: 12
166.8	200
178.96001	700
181.03999	300
210.08	400
228	200
228.16	200
254.08	1000
272	900
333.04001	500
351.12	300
588.56	200
606.32001	500

NAME: LTC4; LC-ESI-QIT; MS2; CE
PRECURSORMZ: 624.296024
PRECURSORTYPE: [M-H]-
FORMULA: C30H47N3O9S
Ontology: Oligopeptides
INCHIKEY: GWNVDXQDILPJIG-NXOLIXFESA-N
SMILES: CCCCC\C=C/C\C=C/C=C/C=C/[C@@H](SC[C@H](N=C(O)CC[C@H](N)C(O)=O)C(O)=NCC(O)=O)[C@@H](O)CCCC(O)=O
RETENTIONTIME: 
CCS: 244.1334896
IONMODE: Negative
INSTRUMENTTYPE: LC-ESI-QIT
INSTRUMENT: 
COLLISIONENERGY: 50
Comment: registered in MassBank
Num Peaks: 6
128.08	500
142.96001	300
179.03999	1000
210.08	800
254.067	500
272.16	200

NAME: LTD4; LC-ESI-QIT; MS2; CE
PRECURSORMZ: 495.253431
PRECURSORTYPE: [M-H]-
FORMULA: C25H40N2O6S
Ontology: Leukotrienes
INCHIKEY: YEESKJGWJFYOOK-IJHYULJSSA-N
SMILES: CCCCC\C=C/C\C=C/C=C/C=C/[C@@H](SC[C@H](N)C(O)=NCC(O)=O)[C@@H](O)CCCC(O)=O
RETENTIONTIME: 
CCS: 220.7630566
IONMODE: Negative
INSTRUMENTTYPE: LC-ESI-QIT
INSTRUMENT: 
COLLISIONENERGY: 10
Comment: registered in MassBank
Num Peaks: 2
477.28	7
495.22299	1000

NAME: LTD4; LC-ESI-QIT; MS2; CE
PRECURSORMZ: 495.253431
PRECURSORTYPE: [M-H]-
FORMULA: C25H40N2O6S
Ontology: Leukotrienes
INCHIKEY: YEESKJGWJFYOOK-IJHYULJSSA-N
SMILES: CCCCC\C=C/C\C=C/C=C/C=C/[C@@H](SC[C@H](N)C(O)=NCC(O)=O)[C@@H](O)CCCC(O)=O
RETENTIONTIME: 
CCS: 220.7630566
IONMODE: Negative
INSTRUMENTTYPE: LC-ESI-QIT
INSTRUMENT: 
COLLISIONENERGY: 15
Comment: registered in MassBank
Num Peaks: 2
477.20401	21
495.185	1000

NAME: LTD4; LC-ESI-QIT; MS2; CE
PRECURSORMZ: 495.253431
PRECURSORTYPE: [M-H]-
FORMULA: C25H40N2O6S
Ontology: Leukotrienes
INCHIKEY: YEESKJGWJFYOOK-IJHYULJSSA-N
SMILES: CCCCC\C=C/C\C=C/C=C/C=C/[C@@H](SC[C@H](N)C(O)=NCC(O)=O)[C@@H](O)CCCC(O)=O
RETENTIONTIME: 
CCS: 220.7630566
IONMODE: Negative
INSTRUMENTTYPE: LC-ESI-QIT
INSTRUMENT: 
COLLISIONENERGY: 20
Comment: registered in MassBank
Num Peaks: 6
143.03999	11
176.96001	8
351.20001	6
477.254	74
477.44	15
495.241	1000

NAME: LTD4; LC-ESI-QIT; MS2; CE
PRECURSORMZ: 495.253431
PRECURSORTYPE: [M-H]-
FORMULA: C25H40N2O6S
Ontology: Leukotrienes
INCHIKEY: YEESKJGWJFYOOK-IJHYULJSSA-N
SMILES: CCCCC\C=C/C\C=C/C=C/C=C/[C@@H](SC[C@H](N)C(O)=NCC(O)=O)[C@@H](O)CCCC(O)=O
RETENTIONTIME: 
CCS: 220.7630566
IONMODE: Negative
INSTRUMENTTYPE: LC-ESI-QIT
INSTRUMENT: 
COLLISIONENERGY: 25
Comment: registered in MassBank
Num Peaks: 10
143.12	32
177.037	51
316.95999	8
317.20001	7
333.09601	21
351.12	25
379.20001	9
433.12	6
477.173	280
495.254	1000

NAME: LTD4; LC-ESI-QIT; MS2; CE
PRECURSORMZ: 495.253431
PRECURSORTYPE: [M-H]-
FORMULA: C25H40N2O6S
Ontology: Leukotrienes
INCHIKEY: YEESKJGWJFYOOK-IJHYULJSSA-N
SMILES: CCCCC\C=C/C\C=C/C=C/C=C/[C@@H](SC[C@H](N)C(O)=NCC(O)=O)[C@@H](O)CCCC(O)=O
RETENTIONTIME: 
CCS: 220.7630566
IONMODE: Negative
INSTRUMENTTYPE: LC-ESI-QIT
INSTRUMENT: 
COLLISIONENERGY: 30
Comment: registered in MassBank
Num Peaks: 16
143.032	261
160.013	18
177.021	322
255.28	7
289.10001	22
317.20001	47
333.04901	83
351.10901	62
379.12	25
379.23999	7
409.12	11
409.35999	25
433.14899	51
451.35999	14
477.26199	1000
495.20401	569

NAME: LTD4; LC-ESI-QIT; MS2; CE
PRECURSORMZ: 495.253431
PRECURSORTYPE: [M-H]-
FORMULA: C25H40N2O6S
Ontology: Leukotrienes
INCHIKEY: YEESKJGWJFYOOK-IJHYULJSSA-N
SMILES: CCCCC\C=C/C\C=C/C=C/C=C/[C@@H](SC[C@H](N)C(O)=NCC(O)=O)[C@@H](O)CCCC(O)=O
RETENTIONTIME: 
CCS: 220.7630566
IONMODE: Negative
INSTRUMENTTYPE: LC-ESI-QIT
INSTRUMENT: 
COLLISIONENERGY: 35
Comment: registered in MassBank
Num Peaks: 16
142.48	31
143.08	680
177.06	443
235.06	52
235.2	52
289.12	52
289.44	31
299.04001	21
317.20001	72
333.12	186
333.28	52
409.12	31
409.35999	21
448.23999	21
477.24399	1000
495.23099	361

NAME: LTD4; LC-ESI-QIT; MS2; CE
PRECURSORMZ: 495.253431
PRECURSORTYPE: [M-H]-
FORMULA: C25H40N2O6S
Ontology: Leukotrienes
INCHIKEY: YEESKJGWJFYOOK-IJHYULJSSA-N
SMILES: CCCCC\C=C/C\C=C/C=C/C=C/[C@@H](SC[C@H](N)C(O)=NCC(O)=O)[C@@H](O)CCCC(O)=O
RETENTIONTIME: 
CCS: 220.7630566
IONMODE: Negative
INSTRUMENTTYPE: LC-ESI-QIT
INSTRUMENT: 
COLLISIONENERGY: 40
Comment: registered in MassBank
Num Peaks: 12
98.96	132
142.98199	1000
176.927	316
255.12	105
289.17001	421
317.04001	105
332.88	237
333.168	237
379.20001	105
408.39999	53
409.23999	395
477.28	184

NAME: LTD4; LC-ESI-QIT; MS2; CE
PRECURSORMZ: 495.253431
PRECURSORTYPE: [M-H]-
FORMULA: C25H40N2O6S
Ontology: Leukotrienes
INCHIKEY: YEESKJGWJFYOOK-IJHYULJSSA-N
SMILES: CCCCC\C=C/C\C=C/C=C/C=C/[C@@H](SC[C@H](N)C(O)=NCC(O)=O)[C@@H](O)CCCC(O)=O
RETENTIONTIME: 
CCS: 220.7630566
IONMODE: Negative
INSTRUMENTTYPE: LC-ESI-QIT
INSTRUMENT: 
COLLISIONENERGY: 45
Comment: registered in MassBank
Num Peaks: 10
99.063	133
142.96001	1000
159.92	100
235.12	100
255.36	67
289.14899	567
333.12	67
409.12	133
409.38	100
409.67999	100

NAME: LTD4; LC-ESI-QIT; MS2; CE
PRECURSORMZ: 495.253431
PRECURSORTYPE: [M-H]-
FORMULA: C25H40N2O6S
Ontology: Leukotrienes
INCHIKEY: YEESKJGWJFYOOK-IJHYULJSSA-N
SMILES: CCCCC\C=C/C\C=C/C=C/C=C/[C@@H](SC[C@H](N)C(O)=NCC(O)=O)[C@@H](O)CCCC(O)=O
RETENTIONTIME: 
CCS: 220.7630566
IONMODE: Negative
INSTRUMENTTYPE: LC-ESI-QIT
INSTRUMENT: 
COLLISIONENERGY: 50
Comment: registered in MassBank
Num Peaks: 12
99.2	308
115.04	154
142.96001	231
143.12	538
160.12	1000
235.12	692
255.2	308
289.04001	308
289.20001	615
409.20001	308
409.46701	308
495.35999	154

NAME: LipoxinA4; LC-ESI-QIT; MS2; CE
PRECURSORMZ: 351.217698
PRECURSORTYPE: [M-H]-
FORMULA: C20H32O5
Ontology: Lipoxins
INCHIKEY: IXAQOQZEOGMIQS-UZDWIPAXSA-N
SMILES: CCCCC[C@H](O)\C=C\C=C/C=C/C=C/[C@H](O)[C@@H](O)CCCC(O)=O
RETENTIONTIME: 
CCS: 189.7047606
IONMODE: Negative
INSTRUMENTTYPE: LC-ESI-QIT
INSTRUMENT: 
COLLISIONENERGY: 20
Comment: registered in MassBank
Num Peaks: 30
115.04	125
133.03999	15
135.19501	38
143.12	5
144	7
159.12	7
161.187	7
173.215	5
175.12	17
189.194	59
189.44	10
191.03999	11
193.17101	20
199.16	32
207.2	10
215.03999	10
215.28	6
217.19901	416
217.89	13
219.144	42
233.158	43
235.19299	283
251.19	42
253.12	8
271.23401	89
289.23599	100
307.27802	73
315.255	61
333.224	78
351.12601	1000

NAME: LipoxinA4; LC-ESI-QIT; MS2; CE
PRECURSORMZ: 351.217698
PRECURSORTYPE: [M-H]-
FORMULA: C20H32O5
Ontology: Lipoxins
INCHIKEY: IXAQOQZEOGMIQS-UZDWIPAXSA-N
SMILES: CCCCC[C@H](O)\C=C\C=C/C=C/C=C/[C@H](O)[C@@H](O)CCCC(O)=O
RETENTIONTIME: 
CCS: 189.7047606
IONMODE: Negative
INSTRUMENTTYPE: LC-ESI-QIT
INSTRUMENT: 
COLLISIONENERGY: 25
Comment: registered in MassBank
Num Peaks: 43
99	7
113.04	7
115.021	169
117.07	7
133.056	31
135.15401	58
139.048	14
143.173	9
144.10001	14
145.075	8
147.088	5
161.10899	29
163.177	9
165.2	24
169.067	10
173.177	16
175.147	29
177.136	6
179.08	7
189.17101	129
191.16701	16
193.10699	27
199.17999	101
201.12	9
205.12	9
207.22501	16
215.168	14
217.15601	1000
219.09801	30
233.08099	44
235.162	323
237.03999	6
243.12	7
251.09599	28
253.23801	9
261.12	9
271.173	166
279.12	8
289.19101	141
307.20099	86
315.13101	57
333.12299	44
351.13599	342

NAME: LipoxinA4; LC-ESI-QIT; MS2; CE
PRECURSORMZ: 351.217698
PRECURSORTYPE: [M-H]-
FORMULA: C20H32O5
Ontology: Lipoxins
INCHIKEY: IXAQOQZEOGMIQS-UZDWIPAXSA-N
SMILES: CCCCC[C@H](O)\C=C\C=C/C=C/C=C/[C@H](O)[C@@H](O)CCCC(O)=O
RETENTIONTIME: 
CCS: 189.7047606
IONMODE: Negative
INSTRUMENTTYPE: LC-ESI-QIT
INSTRUMENT: 
COLLISIONENERGY: 30
Comment: registered in MassBank
Num Peaks: 33
98.88	6
106	6
113.08	15
115.05	171
119.04	6
130.96001	6
133.03999	20
135.10899	31
144.02499	23
161.10699	23
165.177	22
173.12	20
175.08	29
179.145	15
189.12601	66
191.2	8
199.16299	118
201.12	12
207.105	9
215.097	18
217.133	1000
219.05	11
233.103	15
235.104	142
251.12	7
261.16	6
271.13199	93
283.20001	6
289.15201	55
307.14499	17
315.05099	13
333.12	10
351.125	41

NAME: LipoxinA4; LC-ESI-QIT; MS2; CE
PRECURSORMZ: 351.217698
PRECURSORTYPE: [M-H]-
FORMULA: C20H32O5
Ontology: Lipoxins
INCHIKEY: IXAQOQZEOGMIQS-UZDWIPAXSA-N
SMILES: CCCCC[C@H](O)\C=C\C=C/C=C/C=C/[C@H](O)[C@@H](O)CCCC(O)=O
RETENTIONTIME: 
CCS: 189.7047606
IONMODE: Negative
INSTRUMENTTYPE: LC-ESI-QIT
INSTRUMENT: 
COLLISIONENERGY: 35
Comment: registered in MassBank
Num Peaks: 27
99.08	7
115.049	102
119.056	8
132.88	5
133.08	7
135.093	12
139.03999	5
144.08	9
144.92	11
161.084	16
163.03999	21
165.12	12
173.05099	32
175.07001	28
179.12	7
189.12601	66
191.173	9
199.12	134
201.03999	9
207.12	7
215.03999	37
217.11099	1000
233.093	5
235.145	97
271.20001	15
289.14001	13
315.12	5

NAME: LipoxinA4; LC-ESI-QIT; MS2; CE
PRECURSORMZ: 351.217698
PRECURSORTYPE: [M-H]-
FORMULA: C20H32O5
Ontology: Lipoxins
INCHIKEY: IXAQOQZEOGMIQS-UZDWIPAXSA-N
SMILES: CCCCC[C@H](O)\C=C\C=C/C=C/C=C/[C@H](O)[C@@H](O)CCCC(O)=O
RETENTIONTIME: 
CCS: 189.7047606
IONMODE: Negative
INSTRUMENTTYPE: LC-ESI-QIT
INSTRUMENT: 
COLLISIONENERGY: 40
Comment: registered in MassBank
Num Peaks: 20
55.92	9
68.64	9
114.72	9
115.046	177
119.12	14
133.12	9
135.03999	18
145.12	18
149.12	14
151.03999	18
161.12	32
173.03999	18
173.28	18
189.12601	123
199.153	191
215.07401	36
217.118	1000
235.03999	18
271.20001	18
289.12	18

NAME: LipoxinA4; LC-ESI-QIT; MS2; CE
PRECURSORMZ: 351.217698
PRECURSORTYPE: [M-H]-
FORMULA: C20H32O5
Ontology: Lipoxins
INCHIKEY: IXAQOQZEOGMIQS-UZDWIPAXSA-N
SMILES: CCCCC[C@H](O)\C=C\C=C/C=C/C=C/[C@H](O)[C@@H](O)CCCC(O)=O
RETENTIONTIME: 
CCS: 189.7047606
IONMODE: Negative
INSTRUMENTTYPE: LC-ESI-QIT
INSTRUMENT: 
COLLISIONENERGY: 45
Comment: registered in MassBank
Num Peaks: 15
83.12	41
114.88	68
115.04	162
128.08	27
144.96001	27
150.96001	41
161.08	68
173.12	27
189.03999	81
189.44	27
191.2	27
199.17	378
205.03999	27
215.2	95
217.097	1000

NAME: LipoxinA4; LC-ESI-QIT; MS2; CE
PRECURSORMZ: 351.217698
PRECURSORTYPE: [M-H]-
FORMULA: C20H32O5
Ontology: Lipoxins
INCHIKEY: IXAQOQZEOGMIQS-UZDWIPAXSA-N
SMILES: CCCCC[C@H](O)\C=C\C=C/C=C/C=C/[C@H](O)[C@@H](O)CCCC(O)=O
RETENTIONTIME: 
CCS: 189.7047606
IONMODE: Negative
INSTRUMENTTYPE: LC-ESI-QIT
INSTRUMENT: 
COLLISIONENERGY: 50
Comment: registered in MassBank
Num Peaks: 13
91.12	172
93.04	69
93.36	69
111.08	172
115.04	310
119.06	448
120.16	103
135.03999	69
161.2	241
189.12	69
199.12	207
215.12	138
217.17101	1000

NAME: LipoxinA4; LC-ESI-QIT; MS2; CE
PRECURSORMZ: 351.217698
PRECURSORTYPE: [M-H]-
FORMULA: C20H32O5
Ontology: Lipoxins
INCHIKEY: IXAQOQZEOGMIQS-UZDWIPAXSA-N
SMILES: CCCCC[C@H](O)\C=C\C=C/C=C/C=C/[C@H](O)[C@@H](O)CCCC(O)=O
RETENTIONTIME: 
CCS: 189.7047606
IONMODE: Negative
INSTRUMENTTYPE: LC-ESI-QIT
INSTRUMENT: 
COLLISIONENERGY: 55
Comment: registered in MassBank
Num Peaks: 13
92.96	333
93.36	222
105.98	333
115.04	333
117.28	222
119.04	222
129.12	222
145.12	444
161.03999	444
173.03999	444
197.12	333
199.12	1000
217.03999	1000

NAME: LipoxinA4; LC-ESI-QIT; MS2; CE
PRECURSORMZ: 351.217698
PRECURSORTYPE: [M-H]-
FORMULA: C20H32O5
Ontology: Lipoxins
INCHIKEY: IXAQOQZEOGMIQS-UZDWIPAXSA-N
SMILES: CCCCC[C@H](O)\C=C\C=C/C=C/C=C/[C@H](O)[C@@H](O)CCCC(O)=O
RETENTIONTIME: 
CCS: 189.7047606
IONMODE: Negative
INSTRUMENTTYPE: LC-ESI-QIT
INSTRUMENT: 
COLLISIONENERGY: 60
Comment: registered in MassBank
Num Peaks: 19
55.6	111
58.96	278
80.96	167
81.36	111
83.12	167
93.12	222
99.12	167
109.12	111
115.04	500
117.12	111
119.048	1000
133.03999	111
142.96001	167
145	444
145.2	222
156.96001	111
161.12	111
175.2	167
217.093	278

NAME: PGD2; LC-ESI-QIT; MS2; CE
PRECURSORMZ: 351.217698
PRECURSORTYPE: [M-H]-
FORMULA: C20H32O5
Ontology: Prostaglandins and related compounds
INCHIKEY: BHMBVRSPMRCCGG-OUTUXVNYSA-N
SMILES: CCCCC[C@H](O)\C=C\[C@@H]1[C@@H](C\C=C/CCCC(O)=O)[C@@H](O)CC1=O
RETENTIONTIME: 
CCS: 191.17742
IONMODE: Negative
INSTRUMENTTYPE: LC-ESI-QIT
INSTRUMENT: 
COLLISIONENERGY: 20
Comment: registered in MassBank
Num Peaks: 40
171.35201	5
187.25999	7
188.537	11
188.785	35
189.30099	595
190.134	118
190.71201	55
191.213	21
191.58701	27
191.92	16
192.395	12
192.56	5
193.21201	13
193.86	8
194.808	9
194.96001	5
195.634	7
196.823	5
198.246	6
199.11301	6
203.299	7
215.14	8
217.327	15
231.289	9
233.272	405
233.881	19
234.224	30
234.88	6
235.23399	10
271.314	1000
271.92899	140
272.32401	77
272.80499	32
273.04001	9
273.19299	12
273.659	13
289.276	18
315.14301	744
333.12601	174
351.13501	19

NAME: PGD2; LC-ESI-QIT; MS2; CE
PRECURSORMZ: 351.217698
PRECURSORTYPE: [M-H]-
FORMULA: C20H32O5
Ontology: Prostaglandins and related compounds
INCHIKEY: BHMBVRSPMRCCGG-OUTUXVNYSA-N
SMILES: CCCCC[C@H](O)\C=C\[C@@H]1[C@@H](C\C=C/CCCC(O)=O)[C@@H](O)CC1=O
RETENTIONTIME: 
CCS: 191.17742
IONMODE: Negative
INSTRUMENTTYPE: LC-ESI-QIT
INSTRUMENT: 
COLLISIONENERGY: 25
Comment: registered in MassBank
Num Peaks: 34
161.308	7
171.394	7
175.17	5
187.24001	23
189.276	680
189.862	23
190.19099	63
190.97301	58
191.733	15
192.005	8
192.33299	13
192.571	15
192.97501	7
193.37801	7
194.061	11
194.91701	9
200.356	7
203.29401	32
215.25301	21
217.25301	29
231.222	15
233.231	259
233.87601	8
234.16	17
234.573	6
235.28	7
243.257	10
271.23401	1000
271.95099	33
289.229	27
297.23599	28
315.13101	428
333.121	74
351.15302	11

NAME: PGD2; LC-ESI-QIT; MS2; CE
PRECURSORMZ: 351.217698
PRECURSORTYPE: [M-H]-
FORMULA: C20H32O5
Ontology: Prostaglandins and related compounds
INCHIKEY: BHMBVRSPMRCCGG-OUTUXVNYSA-N
SMILES: CCCCC[C@H](O)\C=C\[C@@H]1[C@@H](C\C=C/CCCC(O)=O)[C@@H](O)CC1=O
RETENTIONTIME: 
CCS: 191.17742
IONMODE: Negative
INSTRUMENTTYPE: LC-ESI-QIT
INSTRUMENT: 
COLLISIONENERGY: 30
Comment: registered in MassBank
Num Peaks: 30
121.04	9
147.179	6
158.164	9
161.257	20
171.218	15
173.209	8
187.23	35
189.202	707
190.106	59
190.48599	17
191.226	29
192.02499	8
192.80701	6
203.198	76
205.187	7
207.261	9
215.138	25
217.201	54
229.233	11
231.15199	19
233.16701	105
235.205	8
243.23599	15
253.133	6
269.28	6
271.16599	1000
289.17499	18
297.146	28
315.125	156
333.112	21

NAME: PGD2; LC-ESI-QIT; MS2; CE
PRECURSORMZ: 351.217698
PRECURSORTYPE: [M-H]-
FORMULA: C20H32O5
Ontology: Prostaglandins and related compounds
INCHIKEY: BHMBVRSPMRCCGG-OUTUXVNYSA-N
SMILES: CCCCC[C@H](O)\C=C\[C@@H]1[C@@H](C\C=C/CCCC(O)=O)[C@@H](O)CC1=O
RETENTIONTIME: 
CCS: 191.17742
IONMODE: Negative
INSTRUMENTTYPE: LC-ESI-QIT
INSTRUMENT: 
COLLISIONENERGY: 35
Comment: registered in MassBank
Num Peaks: 29
121.033	15
158.10001	12
160.88	6
161.09399	33
171.08	9
173.2	14
175.12	5
187.116	50
189.13901	854
190.048	8
191.13699	22
202.88	16
203.147	152
215.09801	28
217.133	52
229.03999	5
229.2	7
231.11	18
233.086	40
235.12	6
241.12	7
243.149	50
253.12601	8
255.12	12
269.22699	14
271.16699	1000
289.11301	16
297.12	45
315.14801	47

NAME: PGD2; LC-ESI-QIT; MS2; CE
PRECURSORMZ: 351.217698
PRECURSORTYPE: [M-H]-
FORMULA: C20H32O5
Ontology: Prostaglandins and related compounds
INCHIKEY: BHMBVRSPMRCCGG-OUTUXVNYSA-N
SMILES: CCCCC[C@H](O)\C=C\[C@@H]1[C@@H](C\C=C/CCCC(O)=O)[C@@H](O)CC1=O
RETENTIONTIME: 
CCS: 191.17742
IONMODE: Negative
INSTRUMENTTYPE: LC-ESI-QIT
INSTRUMENT: 
COLLISIONENERGY: 40
Comment: registered in MassBank
Num Peaks: 45
95.04	10
106.96	5
109.2	10
121.065	47
123.06	5
133.03999	7
144.96001	15
145.10001	25
147.03999	8
151.03999	7
158	15
159.03999	18
159.17999	5
160.8	5
161.13	50
161.52	7
171.08	35
171.28	5
173.03	48
175.12	7
185.03999	10
187.088	134
189.097	1000
189.75999	10
191.2	8
200.08	5
201.12	8
202.8	5
203.089	341
205.03999	7
205.2	8
213.12	18
215.071	33
217.04601	43
228.08	7
229.125	47
231.022	10
233.03999	8
241.03999	15
241.28	7
243.15601	48
269.12799	20
271.14499	808
289.05301	8
297.06799	38

NAME: PGD2; LC-ESI-QIT; MS2; CE
PRECURSORMZ: 351.217698
PRECURSORTYPE: [M-H]-
FORMULA: C20H32O5
Ontology: Prostaglandins and related compounds
INCHIKEY: BHMBVRSPMRCCGG-OUTUXVNYSA-N
SMILES: CCCCC[C@H](O)\C=C\[C@@H]1[C@@H](C\C=C/CCCC(O)=O)[C@@H](O)CC1=O
RETENTIONTIME: 
CCS: 191.17742
IONMODE: Negative
INSTRUMENTTYPE: LC-ESI-QIT
INSTRUMENT: 
COLLISIONENERGY: 45
Comment: registered in MassBank
Num Peaks: 33
106.88	13
121.093	115
135.03999	9
145.03999	22
146.16	13
147.08	22
158.08	26
159.2	13
160	9
161.108	119
165.03999	9
169.12	9
171.12	35
172.96001	57
173.12	26
185.12	35
186	13
187.13699	115
188.72	9
189.10001	1000
191.03999	53
199.36	18
203.127	537
205.2	22
215.13	88
217.03999	22
217.2	26
229.12	44
231.12	13
240.96001	31
243.16	48
255.2	9
271.151	388

NAME: PGD2; LC-ESI-QIT; MS2; CE
PRECURSORMZ: 351.217698
PRECURSORTYPE: [M-H]-
FORMULA: C20H32O5
Ontology: Prostaglandins and related compounds
INCHIKEY: BHMBVRSPMRCCGG-OUTUXVNYSA-N
SMILES: CCCCC[C@H](O)\C=C\[C@@H]1[C@@H](C\C=C/CCCC(O)=O)[C@@H](O)CC1=O
RETENTIONTIME: 
CCS: 191.17742
IONMODE: Negative
INSTRUMENTTYPE: LC-ESI-QIT
INSTRUMENT: 
COLLISIONENERGY: 50
Comment: registered in MassBank
Num Peaks: 43
93.2	16
106	25
106.24	16
107.04	33
119.12	16
119.52	25
121.12	459
130.96001	33
133.03999	25
135.16	25
145.05499	230
147.02	139
147.2	57
156.96001	25
157.92	41
158.16	16
159.03999	279
161.075	631
163.2	33
171.03999	131
171.28	57
172.89999	25
173.12	98
175.03999	41
185.12	74
187.05901	459
189.12	1000
189.60001	25
191.03999	66
201.28	25
203.131	656
205.03999	33
212.96001	33
213.2	25
215.07001	82
217.2	49
229.136	82
241.12	33
243.03999	74
243.25999	74
269.20001	16
271.12399	336
297.013	49

NAME: PGD2; LC-ESI-QIT; MS2; CE
PRECURSORMZ: 351.217698
PRECURSORTYPE: [M-H]-
FORMULA: C20H32O5
Ontology: Prostaglandins and related compounds
INCHIKEY: BHMBVRSPMRCCGG-OUTUXVNYSA-N
SMILES: CCCCC[C@H](O)\C=C\[C@@H]1[C@@H](C\C=C/CCCC(O)=O)[C@@H](O)CC1=O
RETENTIONTIME: 
CCS: 191.17742
IONMODE: Negative
INSTRUMENTTYPE: LC-ESI-QIT
INSTRUMENT: 
COLLISIONENERGY: 55
Comment: registered in MassBank
Num Peaks: 48
92.96	24
95.04	59
106.907	82
107.12	35
108.96	59
118.96	59
119.12	118
120.88	224
121.065	1000
123.04	118
130	35
131.03999	24
133.03999	82
134.96001	224
142.96001	35
143.2	35
145.063	800
146.16	24
147.12	118
149.2	24
156.96001	35
158	71
158.96001	118
159.28	47
160.08	35
161.11	471
169.03999	24
171.088	329
173.091	329
174.96001	24
177.12	35
185.08	188
187.006	282
189.09399	624
191.12	24
199.12	71
203.12	882
205.03999	35
205.2	24
213.03999	71
214.88	24
215.12	24
226.96001	24
241.153	153
243.03999	35
243.28	35
267.12	24
271.12	47

NAME: PGD2; LC-ESI-QIT; MS2; CE
PRECURSORMZ: 351.217698
PRECURSORTYPE: [M-H]-
FORMULA: C20H32O5
Ontology: Prostaglandins and related compounds
INCHIKEY: BHMBVRSPMRCCGG-OUTUXVNYSA-N
SMILES: CCCCC[C@H](O)\C=C\[C@@H]1[C@@H](C\C=C/CCCC(O)=O)[C@@H](O)CC1=O
RETENTIONTIME: 
CCS: 191.17742
IONMODE: Negative
INSTRUMENTTYPE: LC-ESI-QIT
INSTRUMENT: 
COLLISIONENERGY: 60
Comment: registered in MassBank
Num Peaks: 48
81.04	20
91.2	29
93.04	29
94.987	49
95.2	69
104.72	49
106.16	20
107.1	196
109.093	69
117.12	49
119.04	147
119.28	39
121.017	1000
123.12	29
131.03999	20
132.96001	59
143.05	69
145.045	755
145.36	20
146.08	39
146.89999	29
147.175	265
149.03999	59
157.2	78
158.08	39
159.032	451
161.14101	490
168.08	20
169.06	98
171.12	431
173.064	255
181.12	29
184.933	127
185.16	39
187.09801	333
189.144	314
199.07001	108
202.96001	59
203.12	118
211.03999	49
213.067	59
215.03999	59
217.12	49
224.96001	20
227.12	39
241.2	20
243.2	49
269.28	20

NAME: PGE2; LC-ESI-QIT; MS2; CE
PRECURSORMZ: 351.217698
PRECURSORTYPE: [M-H]-
FORMULA: C20H32O5
Ontology: Prostaglandins and related compounds
INCHIKEY: XEYBRNLFEZDVAW-ARSRFYASSA-N
SMILES: CCCCC[C@H](O)\C=C\[C@H]1[C@H](O)CC(=O)[C@@H]1C\C=C/CCCC(O)=O
RETENTIONTIME: 
CCS: 191.17742
IONMODE: Negative
INSTRUMENTTYPE: LC-ESI-QIT
INSTRUMENT: 
COLLISIONENERGY: 20
Comment: registered in MassBank
Num Peaks: 40
175.33299	43
187.423	10
189.354	376
190.258	90
190.882	19
191.093	7
191.368	15
192.054	17
193.31599	11
193.89301	6
196.896	8
197.22701	6
199.06	6
200.56	5
207.44701	11
217.38499	22
233.414	39
235.368	39
270.70999	12
271.42599	1000
272.06299	180
272.39999	127
272.698	77
273.26901	42
273.577	23
273.80899	13
274.04501	15
274.23999	7
274.39999	7
274.92899	6
286.02301	6
287.98401	6
289.37	28
315.32401	750
315.991	24
316.32001	13
316.65701	20
316.91501	9
333.151	805
351.10901	42

NAME: PGE2; LC-ESI-QIT; MS2; CE
PRECURSORMZ: 351.217698
PRECURSORTYPE: [M-H]-
FORMULA: C20H32O5
Ontology: Prostaglandins and related compounds
INCHIKEY: XEYBRNLFEZDVAW-ARSRFYASSA-N
SMILES: CCCCC[C@H](O)\C=C\[C@H]1[C@H](O)CC(=O)[C@@H]1C\C=C/CCCC(O)=O
RETENTIONTIME: 
CCS: 191.17742
IONMODE: Negative
INSTRUMENTTYPE: LC-ESI-QIT
INSTRUMENT: 
COLLISIONENERGY: 25
Comment: registered in MassBank
Num Peaks: 49
109.098	10
159.44501	6
161.242	7
163.371	16
171.285	6
173.317	12
175.30701	78
176.425	7
177.05701	12
185.384	8
187.20799	23
189.328	373
189.931	15
190.364	46
191.23199	48
192.03799	8
192.686	7
193.302	6
193.87199	7
195.30499	9
198.645	5
203.211	8
204.392	13
206.326	12
207.299	21
209.235	13
217.37399	48
218.255	7
221.28999	9
229.286	6
231.248	7
233.286	27
235.34399	65
236.35201	7
243.45399	10
253.379	9
269.44699	7
271.336	1000
271.94101	168
272.26099	121
272.56699	65
273.14001	30
274.08301	6
289.26999	31
297.25699	18
315.237	494
315.957	7
333.13199	537
351.11301	5

NAME: PGE2; LC-ESI-QIT; MS2; CE
PRECURSORMZ: 351.217698
PRECURSORTYPE: [M-H]-
FORMULA: C20H32O5
Ontology: Prostaglandins and related compounds
INCHIKEY: XEYBRNLFEZDVAW-ARSRFYASSA-N
SMILES: CCCCC[C@H](O)\C=C\[C@H]1[C@H](O)CC(=O)[C@@H]1C\C=C/CCCC(O)=O
RETENTIONTIME: 
CCS: 191.17742
IONMODE: Negative
INSTRUMENTTYPE: LC-ESI-QIT
INSTRUMENT: 
COLLISIONENERGY: 30
Comment: registered in MassBank
Num Peaks: 50
109.081	15
113.123	9
121.117	6
135.052	6
159.138	16
161.22301	16
163.22	26
171.27699	12
173.187	21
174.289	7
175.229	115
175.785	9
177.21899	10
185.17101	9
187.20599	30
188.42	14
189.23599	380
189.864	10
190.16	10
190.37199	27
190.683	9
191.235	58
191.832	6
193.2	6
193.819	6
199.23	8
203.276	23
204.194	26
206.168	20
207.207	20
209.2	7
215.255	6
217.248	94
217.94299	7
219.14999	5
221.194	13
229.25	20
231.181	10
233.209	16
235.21899	127
243.233	16
253.26199	23
269.20801	22
271.19699	1000
271.83801	13
273.14899	7
289.17401	20
297.172	21
315.15201	205
333.125	208

NAME: PGE2; LC-ESI-QIT; MS2; CE
PRECURSORMZ: 351.217698
PRECURSORTYPE: [M-H]-
FORMULA: C20H32O5
Ontology: Prostaglandins and related compounds
INCHIKEY: XEYBRNLFEZDVAW-ARSRFYASSA-N
SMILES: CCCCC[C@H](O)\C=C\[C@H]1[C@H](O)CC(=O)[C@@H]1C\C=C/CCCC(O)=O
RETENTIONTIME: 
CCS: 191.17742
IONMODE: Negative
INSTRUMENTTYPE: LC-ESI-QIT
INSTRUMENT: 
COLLISIONENERGY: 35
Comment: registered in MassBank
Num Peaks: 49
107.091	6
109.077	26
113.07	20
121.12	13
135.11501	15
137.06	8
145.14301	8
159.105	19
161.13	24
163.187	28
171.158	21
173.127	29
174.192	7
175.161	138
176.382	9
177.2	7
185.17799	15
187.177	65
188.08	8
189.16901	420
189.672	5
190.24001	7
191.15401	74
193.133	6
199.12	7
201.18401	7
203.14799	31
204.129	38
206.16	11
207.10899	8
213.12	10
215.05499	9
217.181	177
221.147	6
229.03999	5
229.24001	17
231.12	7
235.17	119
241.12	7
243.138	38
253.233	23
255.147	5
269.17999	37
271.16901	1000
273.15399	7
289.12	9
297.12	18
315.12601	91
333.15601	61

NAME: PGE2; LC-ESI-QIT; MS2; CE
PRECURSORMZ: 351.217698
PRECURSORTYPE: [M-H]-
FORMULA: C20H32O5
Ontology: Prostaglandins and related compounds
INCHIKEY: XEYBRNLFEZDVAW-ARSRFYASSA-N
SMILES: CCCCC[C@H](O)\C=C\[C@H]1[C@H](O)CC(=O)[C@@H]1C\C=C/CCCC(O)=O
RETENTIONTIME: 
CCS: 191.17742
IONMODE: Negative
INSTRUMENTTYPE: LC-ESI-QIT
INSTRUMENT: 
COLLISIONENERGY: 40
Comment: registered in MassBank
Num Peaks: 68
95.107	15
107.027	29
109.103	48
113.084	34
121.12	46
123.12	6
133.08	6
135.073	32
145.03999	23
147.03999	11
149.03999	6
157.017	34
159.08	55
161.104	74
163.153	57
171.104	31
173.105	48
175.103	208
177.12	11
184.96001	6
185.12	17
186.08	31
187.091	105
187.36	15
188.16	15
189.11	769
189.67999	6
191.146	166
193.2	6
199.03999	29
200.08	8
201.16	11
203.12	44
203.36	11
204.075	90
205.12	6
206.08	17
207.03999	8
209.03999	8
213.07001	40
213.44	6
214.103	8
215.03999	8
215.22301	6
217.11099	307
219.28	8
221.093	8
225.03999	6
227.12	17
228.24001	8
229.14	59
231.14	10
235.12399	103
235.36	11
241.03999	11
243.093	67
253.2	21
255.12	8
269.20001	80
271.15799	1000
273.04001	15
283.35999	6
289.20001	6
291.04001	10
297.04001	15
297.29999	8
315.07101	74
333.20001	13

NAME: PGE2; LC-ESI-QIT; MS2; CE
PRECURSORMZ: 351.217698
PRECURSORTYPE: [M-H]-
FORMULA: C20H32O5
Ontology: Prostaglandins and related compounds
INCHIKEY: XEYBRNLFEZDVAW-ARSRFYASSA-N
SMILES: CCCCC[C@H](O)\C=C\[C@H]1[C@H](O)CC(=O)[C@@H]1C\C=C/CCCC(O)=O
RETENTIONTIME: 
CCS: 191.17742
IONMODE: Negative
INSTRUMENTTYPE: LC-ESI-QIT
INSTRUMENT: 
COLLISIONENERGY: 45
Comment: registered in MassBank
Num Peaks: 51
107.04	26
109.083	113
113.12	36
121.12	97
123.04	21
131.12	26
133.12	15
134.88	10
135.075	46
135.52	10
137.06	15
147.10699	36
157.056	77
159.12801	67
161.03999	92
163.03999	31
163.2	26
168.96001	26
171.03999	67
173.10699	92
173.92	15
175.11099	210
175.36	21
177.12	21
185.03999	87
187.032	62
187.2	41
188.72	41
189.105	1000
191.12	164
199.03999	36
203.224	51
204.08	56
204.24001	46
206.08	31
213.03999	103
213.2	36
214.14	15
217.086	338
227.213	36
229.03999	103
231.12	15
235.12	41
235.28	21
241.03999	15
243.16	97
253.03999	41
253.36	15
269.20001	82
271.15601	621
289.12	10

NAME: PGE2; LC-ESI-QIT; MS2; CE
PRECURSORMZ: 351.217698
PRECURSORTYPE: [M-H]-
FORMULA: C20H32O5
Ontology: Prostaglandins and related compounds
INCHIKEY: XEYBRNLFEZDVAW-ARSRFYASSA-N
SMILES: CCCCC[C@H](O)\C=C\[C@H]1[C@H](O)CC(=O)[C@@H]1C\C=C/CCCC(O)=O
RETENTIONTIME: 
CCS: 191.17742
IONMODE: Negative
INSTRUMENTTYPE: LC-ESI-QIT
INSTRUMENT: 
COLLISIONENERGY: 50
Comment: registered in MassBank
Num Peaks: 58
80.88	19
92.96	67
95.04	38
106	19
106.72	48
107.067	152
109.077	219
113.12	67
118.933	57
119.2	19
121.04	162
130.88	38
131.16	19
132.88	67
133.12	19
135.03999	38
135.28	19
141.12	114
145.063	181
145.92	19
147.07201	86
151.03999	38
156.88	29
157.07401	133
159.104	324
161.104	514
162.16	19
163.086	143
171.03999	114
172	29
173.028	238
175.12	410
183.03999	38
185.03999	276
187.091	429
188.06	38
189.099	1000
189.42	29
191.12	86
198	29
199.2	48
199.92	38
202.32001	29
203.03999	57
204.16	29
213.08	86
215.12	86
215.25999	29
217.129	352
229.03999	57
240.96001	38
241.15199	57
243.12	152
253.03999	57
253.36	86
269.12	171
271.168	352
271.51999	57

NAME: PGE2; LC-ESI-QIT; MS2; CE
PRECURSORMZ: 351.217698
PRECURSORTYPE: [M-H]-
FORMULA: C20H32O5
Ontology: Prostaglandins and related compounds
INCHIKEY: XEYBRNLFEZDVAW-ARSRFYASSA-N
SMILES: CCCCC[C@H](O)\C=C\[C@H]1[C@H](O)CC(=O)[C@@H]1C\C=C/CCCC(O)=O
RETENTIONTIME: 
CCS: 191.17742
IONMODE: Negative
INSTRUMENTTYPE: LC-ESI-QIT
INSTRUMENT: 
COLLISIONENERGY: 55
Comment: registered in MassBank
Num Peaks: 56
84.88	39
94.88	98
95.04	176
106	176
106.88	176
107.12	373
109.12	588
112.88	78
113.147	275
118.96	471
121.09	784
123.04	39
123.28	39
131.069	275
132.16	59
133.03999	137
135.049	451
143.12	98
145.03999	471
145.2	196
147.019	451
156.05299	137
157.02901	647
158.16	78
158.88	59
159.12	490
160.16	39
160.8	39
161.069	902
161.28	176
163.03999	98
170.995	392
171.216	157
173.114	392
175.12601	255
183.05299	118
185.18401	353
187.043	863
189.097	1000
190.96001	137
191.12	137
198.96001	98
199.12	176
203.03999	137
204	98
213.05	647
215.2	176
217.084	490
225.16	39
229.08	78
241.22	118
243.16	157
255.12	78
271.04001	59
271.28	98
297.04001	98

NAME: PGE2; LC-ESI-QIT; MS2; CE
PRECURSORMZ: 351.217698
PRECURSORTYPE: [M-H]-
FORMULA: C20H32O5
Ontology: Prostaglandins and related compounds
INCHIKEY: XEYBRNLFEZDVAW-ARSRFYASSA-N
SMILES: CCCCC[C@H](O)\C=C\[C@H]1[C@H](O)CC(=O)[C@@H]1C\C=C/CCCC(O)=O
RETENTIONTIME: 
CCS: 191.17742
IONMODE: Negative
INSTRUMENTTYPE: LC-ESI-QIT
INSTRUMENT: 
COLLISIONENERGY: 60
Comment: registered in MassBank
Num Peaks: 53
56.56	58
91.12	29
92.84	58
93.07	72
95.04	145
96.96	43
97.12	58
106.4	29
106.88	203
107.124	420
108.32	29
109.04	391
113.12	217
119.04	319
121.019	739
123.28	43
131.03999	174
133.03999	174
135.08	261
140.96001	87
143.06	217
145.078	1000
147.03999	159
149.03999	29
156	43
157.067	580
159.03999	333
161.067	783
161.36	29
163.12	58
169.14999	72
171.10201	609
173.045	391
175.136	188
183.03999	87
184.16	43
185.02901	246
187.03999	203
187.2	362
189.06799	406
199.093	188
203.12	43
204	58
204.39999	58
205.2	29
213.069	232
217.03999	145
229.12	29
239.2	29
241.03999	43
241.2	72
243.2	29
252.96001	58

NAME: PGF2a; LC-ESI-QIT; MS2; CE
PRECURSORMZ: 353.233348
PRECURSORTYPE: [M-H]-
FORMULA: C20H34O5
Ontology: Prostaglandins and related compounds
INCHIKEY: PXGPLTODNUVGFL-GTXDYMSZSA-N
SMILES: CCCCC[C@H](O)\C=C\[C@@H]1[C@@H](O)C[C@@H](O)[C@H]1C\C=C/CCCC(O)=O
RETENTIONTIME: 
CCS: 191.7800531
IONMODE: Negative
INSTRUMENTTYPE: LC-ESI-QIT
INSTRUMENT: 
COLLISIONENERGY: 20
Comment: registered in MassBank
Num Peaks: 13
173.233	6
193.286	9
235.442	7
247.593	10
255.55	9
273.60001	16
291.52301	23
299.46701	6
309.55399	80
317.56799	15
335.50101	30
336.42899	5
353.142	1000

NAME: PGF2a; LC-ESI-QIT; MS2; CE
PRECURSORMZ: 353.233348
PRECURSORTYPE: [M-H]-
FORMULA: C20H34O5
Ontology: Prostaglandins and related compounds
INCHIKEY: PXGPLTODNUVGFL-GTXDYMSZSA-N
SMILES: CCCCC[C@H](O)\C=C\[C@@H]1[C@@H](O)C[C@@H](O)[C@H]1C\C=C/CCCC(O)=O
RETENTIONTIME: 
CCS: 191.7800531
IONMODE: Negative
INSTRUMENTTYPE: LC-ESI-QIT
INSTRUMENT: 
COLLISIONENERGY: 25
Comment: registered in MassBank
Num Peaks: 34
165.272	13
171.34801	32
172.79401	6
173.26601	21
181.302	7
191.367	23
193.351	74
194.33701	8
209.351	15
217.336	30
219.405	14
221.323	17
235.336	25
247.44	59
255.468	33
263.50601	15
265.431	7
273.45999	56
274.39999	5
281.45801	6
291.46799	130
292.02399	14
292.24899	11
292.39999	9
299.45599	33
309.42099	373
310.07599	25
310.448	15
310.72	12
311.04001	6
317.418	70
318.63101	6
335.38	107
353.16299	1000

NAME: PGF2a; LC-ESI-QIT; MS2; CE
PRECURSORMZ: 353.233348
PRECURSORTYPE: [M-H]-
FORMULA: C20H34O5
Ontology: Prostaglandins and related compounds
INCHIKEY: PXGPLTODNUVGFL-GTXDYMSZSA-N
SMILES: CCCCC[C@H](O)\C=C\[C@@H]1[C@@H](O)C[C@@H](O)[C@H]1C\C=C/CCCC(O)=O
RETENTIONTIME: 
CCS: 191.7800531
IONMODE: Negative
INSTRUMENTTYPE: LC-ESI-QIT
INSTRUMENT: 
COLLISIONENERGY: 30
Comment: registered in MassBank
Num Peaks: 49
111.067	21
165.242	92
171.22099	122
172.588	13
173.272	50
175.24001	11
181.242	30
183.23	7
185.256	8
191.28	83
193.241	330
193.83701	11
194.17101	21
194.90401	5
195.157	7
201.326	5
205.285	7
207.32401	6
209.25301	67
211.293	26
217.25999	73
219.27	48
221.22	33
229.31599	32
235.256	52
237.269	15
245.33099	9
247.3	252
247.968	11
248.24001	6
253.23599	9
255.27901	81
261.35999	5
263.28101	63
265.26199	21
273.28699	168
281.28601	55
289.276	17
291.293	456
291.99301	25
292.32001	15
292.513	7
299.25601	87
309.23199	1000
309.957	21
310.23999	6
317.228	126
335.259	127
353.14801	865

NAME: PGF2a; LC-ESI-QIT; MS2; CE
PRECURSORMZ: 353.233348
PRECURSORTYPE: [M-H]-
FORMULA: C20H34O5
Ontology: Prostaglandins and related compounds
INCHIKEY: PXGPLTODNUVGFL-GTXDYMSZSA-N
SMILES: CCCCC[C@H](O)\C=C\[C@@H]1[C@@H](O)C[C@@H](O)[C@H]1C\C=C/CCCC(O)=O
RETENTIONTIME: 
CCS: 191.7800531
IONMODE: Negative
INSTRUMENTTYPE: LC-ESI-QIT
INSTRUMENT: 
COLLISIONENERGY: 35
Comment: registered in MassBank
Num Peaks: 57
110.8	6
111.051	53
147.14301	15
153.12	5
163.13901	20
165.151	251
166.213	6
166.39999	8
167.192	23
171.136	221
173.192	73
175.187	23
177.2	5
179.22301	5
180.187	8
181.181	98
183.14	9
185.16701	24
191.14	135
193.16701	1000
193.778	23
194.06	6
194.313	7
194.504	8
195.2	8
199.2	11
201.145	20
205.2	16
209.146	123
211.18201	55
217.146	53
217.36	8
219.218	81
221.196	39
227.25	7
228.96001	10
229.22099	91
235.17	51
237.2	18
238.05	7
245.151	29
247.239	539
248.22	8
255.186	121
261.25	10
263.22299	184
265.21301	35
273.185	251
279.20001	9
281.20901	97
289.19	27
291.16501	628
299.16699	103
309.13901	731
317.16599	77
335.18399	66
353.14401	313

NAME: PGF2a; LC-ESI-QIT; MS2; CE
PRECURSORMZ: 353.233348
PRECURSORTYPE: [M-H]-
FORMULA: C20H34O5
Ontology: Prostaglandins and related compounds
INCHIKEY: PXGPLTODNUVGFL-GTXDYMSZSA-N
SMILES: CCCCC[C@H](O)\C=C\[C@@H]1[C@@H](O)C[C@@H](O)[C@H]1C\C=C/CCCC(O)=O
RETENTIONTIME: 
CCS: 191.7800531
IONMODE: Negative
INSTRUMENTTYPE: LC-ESI-QIT
INSTRUMENT: 
COLLISIONENERGY: 40
Comment: registered in MassBank
Num Peaks: 48
83.12	8
111.017	27
113.12	9
137.03999	6
147.12	19
149.10001	6
151.2	9
163.12	27
165.12801	242
167.2	27
171.08099	200
173.08	74
175.17599	11
179.12	11
180.08	16
180.32001	9
181.15401	135
183.2	8
189.147	8
191.19099	75
193.117	1000
193.44	20
201.14999	8
205.03999	16
207.2	11
209.092	90
211.12	24
217.112	53
219.149	82
221.03999	6
229.16	101
235.28	6
237.28	13
245.12	27
247.147	505
255.144	99
261.16	16
263.151	142
263.35999	22
265.133	11
273.159	137
279.12	6
281.16699	86
291.14001	281
299.12	38
309.13599	206
317.12	9
353.065	24

NAME: PGF2a; LC-ESI-QIT; MS2; CE
PRECURSORMZ: 353.233348
PRECURSORTYPE: [M-H]-
FORMULA: C20H34O5
Ontology: Prostaglandins and related compounds
INCHIKEY: PXGPLTODNUVGFL-GTXDYMSZSA-N
SMILES: CCCCC[C@H](O)\C=C\[C@@H]1[C@@H](O)C[C@@H](O)[C@H]1C\C=C/CCCC(O)=O
RETENTIONTIME: 
CCS: 191.7800531
IONMODE: Negative
INSTRUMENTTYPE: LC-ESI-QIT
INSTRUMENT: 
COLLISIONENERGY: 45
Comment: registered in MassBank
Num Peaks: 51
83.04	20
93.12	17
96.96	9
97.2	6
111.2	12
113.28	6
119.04	12
136.96001	9
137.147	12
147.03999	29
147.28	14
149.12	14
153.03999	17
161.12	6
163.12	61
163.36	14
165.12	336
167.28	12
171.092	157
173.14	43
175.05	46
176.96001	12
177.2	6
180	23
181.12601	52
189.12	14
191.127	72
193.09801	1000
194.96001	12
201.17999	26
209.12	17
211.05499	29
216.983	12
217.28	12
219.088	99
227.2	6
229.19	139
238.08	12
245.03999	67
247.14799	388
248.08	6
255.03999	14
255.2	9
263.13699	116
265.20001	14
273.14001	67
281.04001	26
281.20001	23
291.15601	87
299.20001	12
309.20001	12

NAME: PGF2a; LC-ESI-QIT; MS2; CE
PRECURSORMZ: 353.233348
PRECURSORTYPE: [M-H]-
FORMULA: C20H34O5
Ontology: Prostaglandins and related compounds
INCHIKEY: PXGPLTODNUVGFL-GTXDYMSZSA-N
SMILES: CCCCC[C@H](O)\C=C\[C@@H]1[C@@H](O)C[C@@H](O)[C@H]1C\C=C/CCCC(O)=O
RETENTIONTIME: 
CCS: 191.7800531
IONMODE: Negative
INSTRUMENTTYPE: LC-ESI-QIT
INSTRUMENT: 
COLLISIONENERGY: 50
Comment: registered in MassBank
Num Peaks: 52
79.52	14
83.093	28
99.2	23
109.12	9
110.88	28
112.96	9
113.2	19
115.12	9
118.88	9
119.12	28
120.96	14
122.96	19
125.24	14
141.12	19
145	28
147.12	69
149.063	28
163.07001	69
165.12399	384
167.03999	14
167.2	37
171.12	32
173.03999	32
173.28	14
175.12	60
176.32001	9
177.03999	28
179.03999	23
179.22	14
180.08	9
181.03999	32
187.03999	14
191.12	28
193.10699	1000
201.12	23
205.088	42
211.03999	28
213.12	14
217.2	19
219.175	148
229.15601	157
245.17101	74
247.16499	264
247.52	14
254.96001	19
255.12	23
263.17599	157
273.20001	23
279.12	9
291.04001	14
291.20001	9
309.20001	14

NAME: PGF2a; LC-ESI-QIT; MS2; CE
PRECURSORMZ: 353.233348
PRECURSORTYPE: [M-H]-
FORMULA: C20H34O5
Ontology: Prostaglandins and related compounds
INCHIKEY: PXGPLTODNUVGFL-GTXDYMSZSA-N
SMILES: CCCCC[C@H](O)\C=C\[C@@H]1[C@@H](O)C[C@@H](O)[C@H]1C\C=C/CCCC(O)=O
RETENTIONTIME: 
CCS: 191.7800531
IONMODE: Negative
INSTRUMENTTYPE: LC-ESI-QIT
INSTRUMENT: 
COLLISIONENERGY: 55
Comment: registered in MassBank
Num Peaks: 46
70.88	17
80.8	33
81.04	25
83.067	175
93.12	42
97.04	25
97.2	17
109.12	67
111.12	42
112.987	58
113.2	25
119.2	50
123.04	33
125.12	42
135.03999	17
135.28	17
147.086	125
149.28	42
159.12	17
161.03999	50
162.88	17
163.2	58
165.147	675
170.99001	42
171.12	42
173.06	133
175.12	58
177.2	42
180	17
181.2	50
187.03999	33
189.12	33
191.08	67
193.077	1000
201.13	100
211.03999	50
219.12801	133
227.2	17
229.147	133
229.36	33
243.12	25
245.12	25
247.07201	133
247.2	50
263.04001	25
263.20001	33

NAME: PGF2a; LC-ESI-QIT; MS2; CE
PRECURSORMZ: 353.233348
PRECURSORTYPE: [M-H]-
FORMULA: C20H34O5
Ontology: Prostaglandins and related compounds
INCHIKEY: PXGPLTODNUVGFL-GTXDYMSZSA-N
SMILES: CCCCC[C@H](O)\C=C\[C@@H]1[C@@H](O)C[C@@H](O)[C@H]1C\C=C/CCCC(O)=O
RETENTIONTIME: 
CCS: 191.7800531
IONMODE: Negative
INSTRUMENTTYPE: LC-ESI-QIT
INSTRUMENT: 
COLLISIONENERGY: 60
Comment: registered in MassBank
Num Peaks: 44
70.8	47
81.08	47
82.8	35
90.8	35
92.88	35
93.04	47
107.04	23
110.96	35
112.96	47
113.12	35
117.04	47
119.058	267
120	23
122.96	35
137.28	23
139.12	35
144.08	35
145.12	58
147.069	163
148.24001	23
149.2	23
151.12	58
155.03999	35
161.03999	93
163.03999	221
165.091	1000
170.96001	58
173.03999	47
175.07201	70
181.12	35
189.12	58
191.12	81
192.88	140
193.101	523
201.03999	116
201.173	116
219.03999	116
224.96001	23
227.03999	23
229.12	23
229.28	47
245.03999	81
247.093	47
263.12	23

NAME: PGJ2; LC-ESI-QIT; MS2; CE
PRECURSORMZ: 333.207133
PRECURSORTYPE: [M-H]-
FORMULA: C20H30O4
Ontology: Prostaglandins and related compounds
INCHIKEY: UQOQENZZLBSFKO-POPPZSFYSA-N
SMILES: CCCCC[C@H](O)\C=C\[C@@H]1[C@@H](C\C=C/CCCC(O)=O)C=CC1=O
RETENTIONTIME: 
CCS: 187.9116908
IONMODE: Negative
INSTRUMENTTYPE: LC-ESI-QIT
INSTRUMENT: 
COLLISIONENERGY: 10
Comment: registered in MassBank
Num Peaks: 7
271.23999	821
271.91101	29
272.54501	15
272.79999	12
273.26199	6
297.26199	7
315.12201	1000

NAME: PGJ2; LC-ESI-QIT; MS2; CE
PRECURSORMZ: 333.207133
PRECURSORTYPE: [M-H]-
FORMULA: C20H30O4
Ontology: Prostaglandins and related compounds
INCHIKEY: UQOQENZZLBSFKO-POPPZSFYSA-N
SMILES: CCCCC[C@H](O)\C=C\[C@@H]1[C@@H](C\C=C/CCCC(O)=O)C=CC1=O
RETENTIONTIME: 
CCS: 187.9116908
IONMODE: Negative
INSTRUMENTTYPE: LC-ESI-QIT
INSTRUMENT: 
COLLISIONENERGY: 15
Comment: registered in MassBank
Num Peaks: 8
271.22501	1000
271.914	51
272.26099	28
272.54401	23
272.979	15
273.336	9
297.125	6
315.11499	950

NAME: PGJ2; LC-ESI-QIT; MS2; CE
PRECURSORMZ: 333.207133
PRECURSORTYPE: [M-H]-
FORMULA: C20H30O4
Ontology: Prostaglandins and related compounds
INCHIKEY: UQOQENZZLBSFKO-POPPZSFYSA-N
SMILES: CCCCC[C@H](O)\C=C\[C@@H]1[C@@H](C\C=C/CCCC(O)=O)C=CC1=O
RETENTIONTIME: 
CCS: 187.9116908
IONMODE: Negative
INSTRUMENTTYPE: LC-ESI-QIT
INSTRUMENT: 
COLLISIONENERGY: 20
Comment: registered in MassBank
Num Peaks: 6
203.14	26
217.25	17
271.18399	1000
271.94699	18
297.17001	19
315.11899	499

NAME: PGJ2; LC-ESI-QIT; MS2; CE
PRECURSORMZ: 333.207133
PRECURSORTYPE: [M-H]-
FORMULA: C20H30O4
Ontology: Prostaglandins and related compounds
INCHIKEY: UQOQENZZLBSFKO-POPPZSFYSA-N
SMILES: CCCCC[C@H](O)\C=C\[C@@H]1[C@@H](C\C=C/CCCC(O)=O)C=CC1=O
RETENTIONTIME: 
CCS: 187.9116908
IONMODE: Negative
INSTRUMENTTYPE: LC-ESI-QIT
INSTRUMENT: 
COLLISIONENERGY: 25
Comment: registered in MassBank
Num Peaks: 12
158.114	8
203.175	76
215.20599	5
217.16499	31
229.237	8
243.205	16
253.196	8
269.229	7
271.159	1000
271.94	8
297.13501	39
315.12799	231

NAME: PGJ2; LC-ESI-QIT; MS2; CE
PRECURSORMZ: 333.207133
PRECURSORTYPE: [M-H]-
FORMULA: C20H30O4
Ontology: Prostaglandins and related compounds
INCHIKEY: UQOQENZZLBSFKO-POPPZSFYSA-N
SMILES: CCCCC[C@H](O)\C=C\[C@@H]1[C@@H](C\C=C/CCCC(O)=O)C=CC1=O
RETENTIONTIME: 
CCS: 187.9116908
IONMODE: Negative
INSTRUMENTTYPE: LC-ESI-QIT
INSTRUMENT: 
COLLISIONENERGY: 30
Comment: registered in MassBank
Num Peaks: 19
158.086	16
171.05299	7
173.03999	8
187.11301	5
189.15401	15
201.03999	5
203.16299	236
215.16901	12
217.13499	50
228.24001	5
229.17999	23
241.17599	12
243.175	49
253.13	16
255.19099	7
269.17099	22
271.15701	1000
297.14301	55
315.13501	89

NAME: PGJ2; LC-ESI-QIT; MS2; CE
PRECURSORMZ: 333.207133
PRECURSORTYPE: [M-H]-
FORMULA: C20H30O4
Ontology: Prostaglandins and related compounds
INCHIKEY: UQOQENZZLBSFKO-POPPZSFYSA-N
SMILES: CCCCC[C@H](O)\C=C\[C@@H]1[C@@H](C\C=C/CCCC(O)=O)C=CC1=O
RETENTIONTIME: 
CCS: 187.9116908
IONMODE: Negative
INSTRUMENTTYPE: LC-ESI-QIT
INSTRUMENT: 
COLLISIONENERGY: 35
Comment: registered in MassBank
Num Peaks: 35
95.12	8
109.09	9
145.03	21
147.2	7
158.024	22
161.03999	10
163.12	7
171.02499	22
173.10201	41
175.10001	35
177.12	6
185.049	28
187.14799	29
189.069	34
191.03999	14
199.2	22
200	7
201.08	18
203.121	522
205.133	6
209.03999	10
213.2	8
215.12601	18
217.125	82
224.987	17
228	9
229.15199	62
241.08	30
243.147	97
253.12601	20
255.064	25
269.15302	18
271.15302	1000
297.099	90
315.116	41

NAME: PGJ2; LC-ESI-QIT; MS2; CE
PRECURSORMZ: 333.207133
PRECURSORTYPE: [M-H]-
FORMULA: C20H30O4
Ontology: Prostaglandins and related compounds
INCHIKEY: UQOQENZZLBSFKO-POPPZSFYSA-N
SMILES: CCCCC[C@H](O)\C=C\[C@@H]1[C@@H](C\C=C/CCCC(O)=O)C=CC1=O
RETENTIONTIME: 
CCS: 187.9116908
IONMODE: Negative
INSTRUMENTTYPE: LC-ESI-QIT
INSTRUMENT: 
COLLISIONENERGY: 40
Comment: registered in MassBank
Num Peaks: 44
106	7
109.04	10
118.96	19
121.107	19
142.96001	7
145.084	79
147.10699	12
157.92	12
158.08	21
159.03999	12
161.093	10
171.03999	119
173.03999	55
173.17999	76
175.136	33
185.048	26
187.12	76
189.093	60
191.12	17
199.03999	14
201.073	31
203.134	1000
205.12	10
209.12	12
213.03999	26
215.12	57
217.129	103
222.96001	10
225.108	33
227.12	17
228	10
228.24001	10
229.103	93
231.2	10
241.133	107
243.07201	165
253.12	26
255.03999	33
269.14401	45
269.28	17
271.15302	597
279.20001	7
297.15399	43
315.20001	17

NAME: PGJ2; LC-ESI-QIT; MS2; CE
PRECURSORMZ: 333.207133
PRECURSORTYPE: [M-H]-
FORMULA: C20H30O4
Ontology: Prostaglandins and related compounds
INCHIKEY: UQOQENZZLBSFKO-POPPZSFYSA-N
SMILES: CCCCC[C@H](O)\C=C\[C@@H]1[C@@H](C\C=C/CCCC(O)=O)C=CC1=O
RETENTIONTIME: 
CCS: 187.9116908
IONMODE: Negative
INSTRUMENTTYPE: LC-ESI-QIT
INSTRUMENT: 
COLLISIONENERGY: 45
Comment: registered in MassBank
Num Peaks: 47
94.91	83
95.04	34
109.12	10
119.04	29
119.2	20
120.96	15
133.03999	20
142.88	15
143.03999	15
145.03999	176
147.03999	34
157.063	34
158.08	20
160.08	15
161.07001	44
163.12	10
168.96001	15
171.12	113
172.88	29
173.164	137
175.03999	20
177.2	10
184.98399	59
185.2	15
187.13	69
189.10699	34
191.2	20
199.12	29
201.03999	20
203.11	1000
210.96001	10
213.12	20
214.987	20
217.12	49
227.12	20
229.03999	93
229.2	34
241.12	103
243.12	98
243.28	20
255.02	20
267.14001	15
269.12	10
270.95999	20
271.12	108
271.35999	20
297.20001	15

NAME: PGJ2; LC-ESI-QIT; MS2; CE
PRECURSORMZ: 333.207133
PRECURSORTYPE: [M-H]-
FORMULA: C20H30O4
Ontology: Prostaglandins and related compounds
INCHIKEY: UQOQENZZLBSFKO-POPPZSFYSA-N
SMILES: CCCCC[C@H](O)\C=C\[C@@H]1[C@@H](C\C=C/CCCC(O)=O)C=CC1=O
RETENTIONTIME: 
CCS: 187.9116908
IONMODE: Negative
INSTRUMENTTYPE: LC-ESI-QIT
INSTRUMENT: 
COLLISIONENERGY: 50
Comment: registered in MassBank
Num Peaks: 38
91.2	48
107.04	48
109.04	111
121.11	190
143.08	95
145.091	651
147.12	32
155.12	32
156.88	48
157.12	143
158	111
159.013	63
161.06	48
168.96001	63
171.08	429
173.048	349
175.14	48
183.03999	63
183.2	48
185.05299	190
187.03999	79
189.2	32
199.12	95
199.28	48
201.03999	95
203.099	1000
205.12	48
213.16	159
213.36	48
215.147	63
217.2	48
227.12	32
229.2	63
241.12	48
241.36	111
243.12	79
253.28	32
270.95999	48

NAME: TxB2; LC-ESI-QIT; MS2; CE
PRECURSORMZ: 369.228262
PRECURSORTYPE: [M-H]-
FORMULA: C20H34O6
Ontology: Thromboxanes
INCHIKEY: XNRNNGPBEPRNAR-JQBLCGNGSA-N
SMILES: CCCCC[C@H](O)\C=C\[C@H]1OC(O)C[C@H](O)[C@@H]1C\C=C/CCCC(O)=O
RETENTIONTIME: 
CCS: 194.245402
IONMODE: Negative
INSTRUMENTTYPE: LC-ESI-QIT
INSTRUMENT: 
COLLISIONENERGY: 20
Comment: registered in MassBank
Num Peaks: 19
124.72	8
125.076	69
141.03999	6
151.03999	46
159.12399	201
169.084	1000
177.08501	559
195.093	448
195.36	23
209.12	8
218.96001	13
263.16	8
279.12	6
289.14099	385
307.09299	40
315.13	50
325.04001	17
333.12	33
369.151	138

NAME: TxB2; LC-ESI-QIT; MS2; CE
PRECURSORMZ: 369.228262
PRECURSORTYPE: [M-H]-
FORMULA: C20H34O6
Ontology: Thromboxanes
INCHIKEY: XNRNNGPBEPRNAR-JQBLCGNGSA-N
SMILES: CCCCC[C@H](O)\C=C\[C@H]1OC(O)C[C@H](O)[C@@H]1C\C=C/CCCC(O)=O
RETENTIONTIME: 
CCS: 194.245402
IONMODE: Negative
INSTRUMENTTYPE: LC-ESI-QIT
INSTRUMENT: 
COLLISIONENERGY: 25
Comment: registered in MassBank
Num Peaks: 24
125.103	70
141.03999	7
141.2	5
151.101	90
159.086	204
159.44	5
163.12	28
167.03999	7
169.071	1000
169.67999	5
177.08701	588
191.013	8
195.089	378
219.03999	30
235.28	8
263.293	7
271.21301	7
279.20001	15
289.10699	432
289.51999	5
307.08701	49
315.04001	50
333.14401	9
369.21301	13

NAME: TxB2; LC-ESI-QIT; MS2; CE
PRECURSORMZ: 369.228262
PRECURSORTYPE: [M-H]-
FORMULA: C20H34O6
Ontology: Thromboxanes
INCHIKEY: XNRNNGPBEPRNAR-JQBLCGNGSA-N
SMILES: CCCCC[C@H](O)\C=C\[C@H]1OC(O)C[C@H](O)[C@@H]1C\C=C/CCCC(O)=O
RETENTIONTIME: 
CCS: 194.245402
IONMODE: Negative
INSTRUMENTTYPE: LC-ESI-QIT
INSTRUMENT: 
COLLISIONENERGY: 30
Comment: registered in MassBank
Num Peaks: 21
125.112	61
140.88	6
151.049	84
159.114	152
163.133	17
167.12	6
169.056	1000
177.05299	416
191.08	24
195.084	268
208.96001	11
227.03999	6
233.03999	6
235.03999	6
245.03999	13
263.12	13
279.10699	15
289.12	206
289.51999	6
307.20001	6
369.12	11

NAME: TxB2; LC-ESI-QIT; MS2; CE
PRECURSORMZ: 369.228262
PRECURSORTYPE: [M-H]-
FORMULA: C20H34O6
Ontology: Thromboxanes
INCHIKEY: XNRNNGPBEPRNAR-JQBLCGNGSA-N
SMILES: CCCCC[C@H](O)\C=C\[C@H]1OC(O)C[C@H](O)[C@@H]1C\C=C/CCCC(O)=O
RETENTIONTIME: 
CCS: 194.245402
IONMODE: Negative
INSTRUMENTTYPE: LC-ESI-QIT
INSTRUMENT: 
COLLISIONENERGY: 35
Comment: registered in MassBank
Num Peaks: 18
125.12	84
150.96001	19
151.12	45
159.03999	19
164.96001	39
167.12	26
169.045	1000
177.108	355
191.03999	39
195.032	90
209.12	19
227.03999	19
245.03999	71
263.12	32
279.12	58
289.04001	161
289.20001	52
301.12	26

NAME: TxB2; LC-ESI-QIT; MS2; CE
PRECURSORMZ: 369.228262
PRECURSORTYPE: [M-H]-
FORMULA: C20H34O6
Ontology: Thromboxanes
INCHIKEY: XNRNNGPBEPRNAR-JQBLCGNGSA-N
SMILES: CCCCC[C@H](O)\C=C\[C@H]1OC(O)C[C@H](O)[C@@H]1C\C=C/CCCC(O)=O
RETENTIONTIME: 
CCS: 194.245402
IONMODE: Negative
INSTRUMENTTYPE: LC-ESI-QIT
INSTRUMENT: 
COLLISIONENERGY: 40
Comment: registered in MassBank
Num Peaks: 5
125.04	229
125.28	42
151.03999	104
169.047	1000
177.05299	292

NAME: TxB2; LC-ESI-QIT; MS2; CE
PRECURSORMZ: 369.228262
PRECURSORTYPE: [M-H]-
FORMULA: C20H34O6
Ontology: Thromboxanes
INCHIKEY: XNRNNGPBEPRNAR-JQBLCGNGSA-N
SMILES: CCCCC[C@H](O)\C=C\[C@H]1OC(O)C[C@H](O)[C@@H]1C\C=C/CCCC(O)=O
RETENTIONTIME: 
CCS: 194.245402
IONMODE: Negative
INSTRUMENTTYPE: LC-ESI-QIT
INSTRUMENT: 
COLLISIONENERGY: 45
Comment: registered in MassBank
Num Peaks: 7
125.12	85
151.12	85
158.96001	43
169.013	1000
176.96001	64
177.12	149
195.03999	64

NAME: TxB2; LC-ESI-QIT; MS2; CE
PRECURSORMZ: 369.228262
PRECURSORTYPE: [M-H]-
FORMULA: C20H34O6
Ontology: Thromboxanes
INCHIKEY: XNRNNGPBEPRNAR-JQBLCGNGSA-N
SMILES: CCCCC[C@H](O)\C=C\[C@H]1OC(O)C[C@H](O)[C@@H]1C\C=C/CCCC(O)=O
RETENTIONTIME: 
CCS: 194.245402
IONMODE: Negative
INSTRUMENTTYPE: LC-ESI-QIT
INSTRUMENT: 
COLLISIONENERGY: 50
Comment: registered in MassBank
Num Peaks: 4
125.04	120
125.24	80
159.03999	120
169.03999	1000

NAME: TxB2; LC-ESI-QIT; MS2; CE
PRECURSORMZ: 369.228262
PRECURSORTYPE: [M-H]-
FORMULA: C20H34O6
Ontology: Thromboxanes
INCHIKEY: XNRNNGPBEPRNAR-JQBLCGNGSA-N
SMILES: CCCCC[C@H](O)\C=C\[C@H]1OC(O)C[C@H](O)[C@@H]1C\C=C/CCCC(O)=O
RETENTIONTIME: 
CCS: 194.245402
IONMODE: Negative
INSTRUMENTTYPE: LC-ESI-QIT
INSTRUMENT: 
COLLISIONENERGY: 55
Comment: registered in MassBank
Num Peaks: 5
69.12	750
125.12	750
141.03999	500
149.03999	500
169.12	1000

NAME: TxB2; LC-ESI-QIT; MS2; CE
PRECURSORMZ: 369.228262
PRECURSORTYPE: [M-H]-
FORMULA: C20H34O6
Ontology: Thromboxanes
INCHIKEY: XNRNNGPBEPRNAR-JQBLCGNGSA-N
SMILES: CCCCC[C@H](O)\C=C\[C@H]1OC(O)C[C@H](O)[C@@H]1C\C=C/CCCC(O)=O
RETENTIONTIME: 
CCS: 194.245402
IONMODE: Negative
INSTRUMENTTYPE: LC-ESI-QIT
INSTRUMENT: 
COLLISIONENERGY: 60
Comment: registered in MassBank
Num Peaks: 3
125.12	600
159.03999	600
168.88	1000

NAME: Phosphatidylcholine 14
PRECURSORMZ: 736.549793
PRECURSORTYPE: [M+CH3COO]-
FORMULA: C38H76NO8P
Ontology: Phosphatidylcholines
INCHIKEY: RFVFQQWKPSOBED-UHFFFAOYNA-N
SMILES: CCCCCCCCCCCCCCCC(=O)OC(COC(=O)CCCCCCCCCCCCC)COP([O-])(=O)OCC[N+](C)(C)C
RETENTIONTIME: 
CCS: -1
IONMODE: Negative
INSTRUMENTTYPE: LC-ESI-ITFT
INSTRUMENT: 
COLLISIONENERGY: 30
Comment: registered in MassBank
Num Peaks: 28
251.02	12
255.10001	390
256.03	49
257.22	6
259.20999	21
281.07001	167
282.12	19
283.26999	24
285.17999	99
303.16	325
304.23001	13
326.97	24
328.26999	58
329.10999	1000
330.10001	109
433.92999	9
434.67999	6
452.10001	231
453.01999	26
478.04999	76
482.70001	5
496.09	13
497.04999	8
508.16	13
525.92999	16
672.67999	10
690.15002	757
764.45001	227

NAME: Phosphatidylcholine 14
PRECURSORMZ: 760.549793
PRECURSORTYPE: [M+CH3COO]-
FORMULA: C40H76NO8P
Ontology: Phosphatidylcholines
INCHIKEY: IYYGCMJPRHBGGS-FTRFHSPVNA-N
SMILES: CCCCCCCCCCCCCC(=O)OCC(COP([O-])(=O)OCC[N+](C)(C)C)OC(=O)CC\C=C/C\C=C/CCCCCCCCCC
RETENTIONTIME: 
CCS: -1
IONMODE: Negative
INSTRUMENTTYPE: LC-ESI-ITFT
INSTRUMENT: 
COLLISIONENERGY: 30
Comment: registered in MassBank
Num Peaks: 8
279.54001	13
283.23001	6
327.07001	21
328.17999	32
713.60999	128
714.21002	1000
726.46997	11
755.69	5

NAME: Phosphatidylcholine 14
PRECURSORMZ: 786.565443
PRECURSORTYPE: [M+CH3COO]-
FORMULA: C42H78NO8P
Ontology: Phosphatidylcholines
INCHIKEY: BYFLSLXMNRHKEZ-YVCMCYLKNA-N
SMILES: CCCCCCCCCCCCCC(=O)OCC(COP([O-])(=O)OCC[N+](C)(C)C)OC(=O)CC\C=C/C\C=C/C\C=C/CCCCCCCCC
RETENTIONTIME: 
CCS: -1
IONMODE: Negative
INSTRUMENTTYPE: LC-ESI-ITFT
INSTRUMENT: 
COLLISIONENERGY: 30
Comment: registered in MassBank
Num Peaks: 11
279.14001	14
305.13	8
328.20001	8
388.88	6
652.70001	12
726.19	5
738.15997	8
740.23999	1000
755.14001	6
764.16998	665
765.44	6

NAME: Phosphatidylcholine 14
PRECURSORMZ: 784.549793
PRECURSORTYPE: [M+CH3COO]-
FORMULA: C42H76NO8P
Ontology: Phosphatidylcholines
INCHIKEY: LTAXKUDPWVWJJR-VONYRGFMNA-N
SMILES: CCCCCCCCCCCCCC(=O)OCC(COP([O-])(=O)OCC[N+](C)(C)C)OC(=O)CC\C=C/C\C=C/C\C=C/C\C=C/CCCCCC
RETENTIONTIME: 
CCS: -1
IONMODE: Negative
INSTRUMENTTYPE: LC-ESI-ITFT
INSTRUMENT: 
COLLISIONENERGY: 30
Comment: registered in MassBank
Num Peaks: 8
277.39001	10
303.29999	7
329.20001	12
633.15002	10
738.04999	1000
738.97998	21
753.40002	6
794.37	5

NAME: Phosphatidylcholine 14
PRECURSORMZ: 782.534143
PRECURSORTYPE: [M+CH3COO]-
FORMULA: C42H74NO8P
Ontology: Phosphatidylcholines
INCHIKEY: WOZQMKGPSSBBKF-AKCCMISZNA-N
SMILES: CCCCCCCCCCCCCC(=O)OCC(COP([O-])(=O)OCC[N+](C)(C)C)OC(=O)CC\C=C/C\C=C/C\C=C/C\C=C/C\C=C/CCC
RETENTIONTIME: 
CCS: -1
IONMODE: Negative
INSTRUMENTTYPE: LC-ESI-ITFT
INSTRUMENT: 
COLLISIONENERGY: 30
Comment: registered in MassBank
Num Peaks: 9
450.57999	33
543.04999	14
545.32001	43
633.70001	14
724.13	95
727.65997	14
736.03998	1000
737.65002	29
790.97998	14

NAME: Phosphatidylcholine 15
PRECURSORMZ: 750.565443
PRECURSORTYPE: [M+CH3COO]-
FORMULA: C39H78NO8P
Ontology: Phosphatidylcholines
INCHIKEY: LLHISNQVRRYJGL-UHFFFAOYNA-N
SMILES: CCCCCCCCCCCCCCCC(=O)OC(COC(=O)CCCCCCCCCCCCCC)COP([O-])(=O)OCC[N+](C)(C)C
RETENTIONTIME: 
CCS: -1
IONMODE: Negative
INSTRUMENTTYPE: LC-ESI-ITFT
INSTRUMENT: 
COLLISIONENERGY: 30
Comment: registered in MassBank
Num Peaks: 8
256.95001	15
283.13	37
301	19
303.34	16
513.96997	7
697.12	13
704.22998	1000
705.37	11

NAME: Phosphatidylcholine 15
PRECURSORMZ: 774.565443
PRECURSORTYPE: [M+CH3COO]-
FORMULA: C41H78NO8P
Ontology: Phosphatidylcholines
INCHIKEY: OKOJVIBHOSGPIV-JSCMVKKRNA-N
SMILES: CCCCCCCCCCCCCCC(=O)OCC(COP([O-])(=O)OCC[N+](C)(C)C)OC(=O)CC\C=C/C\C=C/CCCCCCCCCC
RETENTIONTIME: 
CCS: -1
IONMODE: Negative
INSTRUMENTTYPE: LC-ESI-ITFT
INSTRUMENT: 
COLLISIONENERGY: 30
Comment: registered in MassBank
Num Peaks: 4
728.08002	1000
728.70001	17
742.10999	17
743.07001	19

NAME: Phosphatidylcholine 15
PRECURSORMZ: 798.565443
PRECURSORTYPE: [M+CH3COO]-
FORMULA: C43H78NO8P
Ontology: Phosphatidylcholines
INCHIKEY: CLOJCJSOXWBGTM-BSBLZQCJNA-N
SMILES: CCCCCCCCCCCCCCC(=O)OCC(COP([O-])(=O)OCC[N+](C)(C)C)OC(=O)CC\C=C/C\C=C/C\C=C/C\C=C/CCCCCC
RETENTIONTIME: 
CCS: -1
IONMODE: Negative
INSTRUMENTTYPE: LC-ESI-ITFT
INSTRUMENT: 
COLLISIONENERGY: 30
Comment: registered in MassBank
Num Peaks: 5
752.10999	1000
753.22998	31
765.28003	9
766.44	39
767.15002	5

NAME: Phosphatidylcholine 15
PRECURSORMZ: 796.549793
PRECURSORTYPE: [M+CH3COO]-
FORMULA: C43H76NO8P
Ontology: Phosphatidylcholines
INCHIKEY: MFZQMCRGTGNKQM-KTWSQXGJNA-N
SMILES: CCCCCCCCCCCCCCC(=O)OCC(COP([O-])(=O)OCC[N+](C)(C)C)OC(=O)CC\C=C/C\C=C/C\C=C/C\C=C/C\C=C/CCC
RETENTIONTIME: 
CCS: -1
IONMODE: Negative
INSTRUMENTTYPE: LC-ESI-ITFT
INSTRUMENT: 
COLLISIONENERGY: 30
Comment: registered in MassBank
Num Peaks: 9
330.29001	6
483.95999	25
539.91998	14
618.95001	8
750.06	1000
751.25	35
764.07001	28
780.95001	21
793.84003	23

NAME: Phosphatidylcholine 15
PRECURSORMZ: 822.565443
PRECURSORTYPE: [M+CH3COO]-
FORMULA: C45H78NO8P
Ontology: Phosphatidylcholines
INCHIKEY: GEINPYKZLFHHIL-BDWYRQGHNA-N
SMILES: CCCCCCCCCCCCCCC(=O)OCC(COP([O-])(=O)OCC[N+](C)(C)C)OC(=O)CC\C=C/C\C=C/C\C=C/C\C=C/C\C=C/C\C=C/CC
RETENTIONTIME: 
CCS: -1
IONMODE: Negative
INSTRUMENTTYPE: LC-ESI-ITFT
INSTRUMENT: 
COLLISIONENERGY: 30
Comment: registered in MassBank
Num Peaks: 6
327.03	5
740.09003	7
776.14001	1000
790.34003	14
791.07001	11
791.78998	7

NAME: Phosphatidylcholine 16
PRECURSORMZ: 764.581093
PRECURSORTYPE: [M+CH3COO]-
FORMULA: C40H80NO8P
Ontology: Phosphatidylcholines
INCHIKEY: KILNVBDSWZSGLL-UHFFFAOYNA-N
SMILES: CCCCCCCCCCCCCCCC(=O)OCC(COP([O-])(=O)OCC[N+](C)(C)C)OC(=O)CCCCCCCCCCCCCCC
RETENTIONTIME: 
CCS: -1
IONMODE: Negative
INSTRUMENTTYPE: LC-ESI-ITFT
INSTRUMENT: 
COLLISIONENERGY: 30
Comment: registered in MassBank
Num Peaks: 4
255.14999	8
283.07999	7
329.13	8
718.15997	1000

NAME: Phosphatidylcholine 16
PRECURSORMZ: 762.565443
PRECURSORTYPE: [M+CH3COO]-
FORMULA: C40H78NO8P
Ontology: Phosphatidylcholines
INCHIKEY: QAFBBWZLSNOQGW-OHYPFYFLNA-N
SMILES: CCCCCCCCCCCCCCCC(=O)OCC(COP([O-])(=O)OCC[N+](C)(C)C)OC(=O)CC\C=C/CCCCCCCCCCC
RETENTIONTIME: 
CCS: -1
IONMODE: Negative
INSTRUMENTTYPE: LC-ESI-ITFT
INSTRUMENT: 
COLLISIONENERGY: 30
Comment: registered in MassBank
Num Peaks: 7
253.14999	5
281.20001	16
284.85999	6
329.07999	28
478.06	7
716.17999	1000
731.15002	8

NAME: Phosphatidylcholine 16
PRECURSORMZ: 790.596743
PRECURSORTYPE: [M+CH3COO]-
FORMULA: C42H82NO8P
Ontology: Phosphatidylcholines
INCHIKEY: QPHGOXQEXDWRIB-YCNYHXFENA-N
SMILES: CCCCCCCCCCCCCCCC(=O)OCC(COP([O-])(=O)OCC[N+](C)(C)C)OC(=O)CC\C=C/CCCCCCCCCCCCC
RETENTIONTIME: 
CCS: -1
IONMODE: Negative
INSTRUMENTTYPE: LC-ESI-ITFT
INSTRUMENT: 
COLLISIONENERGY: 30
Comment: registered in MassBank
Num Peaks: 2
281.22	9
744.12	1000

NAME: Phosphatidylcholine 16
PRECURSORMZ: 788.581093
PRECURSORTYPE: [M+CH3COO]-
FORMULA: C42H80NO8P
Ontology: Phosphatidylcholines
INCHIKEY: PWJTWIQVMHNOLN-WGPKDLKGNA-N
SMILES: CCCCCCCCCCCCCCCC(=O)OCC(COP([O-])(=O)OCC[N+](C)(C)C)OC(=O)CC\C=C/C\C=C/CCCCCCCCCC
RETENTIONTIME: 
CCS: -1
IONMODE: Negative
INSTRUMENTTYPE: LC-ESI-ITFT
INSTRUMENT: 
COLLISIONENERGY: 30
Comment: registered in MassBank
Num Peaks: 2
279.17001	6
742.15997	1000

NAME: Phosphatidylcholine 16
PRECURSORMZ: 786.565443
PRECURSORTYPE: [M+CH3COO]-
FORMULA: C42H78NO8P
Ontology: Phosphatidylcholines
INCHIKEY: LTFQLMSVQQIRBG-YOKRUPNWNA-N
SMILES: CCCCCCCCCCCCCCCC(=O)OCC(COP([O-])(=O)OCC[N+](C)(C)C)OC(=O)CC\C=C/C\C=C/C\C=C/CCCCCCC
RETENTIONTIME: 
CCS: -1
IONMODE: Negative
INSTRUMENTTYPE: LC-ESI-ITFT
INSTRUMENT: 
COLLISIONENERGY: 30
Comment: registered in MassBank
Num Peaks: 3
277.25	9
740.21997	1000
755.25	7

NAME: Phosphatidylcholine 16
PRECURSORMZ: 814.596743
PRECURSORTYPE: [M+CH3COO]-
FORMULA: C44H82NO8P
Ontology: Phosphatidylcholines
INCHIKEY: XWDUIGPTBYOBBP-BQYMPCJENA-N
SMILES: CCCCCCCCCCCCCCCC(=O)OCC(COP([O-])(=O)OCC[N+](C)(C)C)OC(=O)CC\C=C/C\C=C/C\C=C/CCCCCCCCC
RETENTIONTIME: 
CCS: -1
IONMODE: Negative
INSTRUMENTTYPE: LC-ESI-ITFT
INSTRUMENT: 
COLLISIONENERGY: 30
Comment: registered in MassBank
Num Peaks: 3
305.17001	6
768.13	1000
792.03998	6

NAME: Phosphatidylcholine 16
PRECURSORMZ: 812.581093
PRECURSORTYPE: [M+CH3COO]-
FORMULA: C44H80NO8P
Ontology: Phosphatidylcholines
INCHIKEY: YRCYEVIWNSLKRF-RZUUUYDYNA-N
SMILES: CCCCCCCCCCCCCCCC(=O)OCC(COP([O-])(=O)OCC[N+](C)(C)C)OC(=O)CC\C=C/C\C=C/C\C=C/C\C=C/CCCCCC
RETENTIONTIME: 
CCS: -1
IONMODE: Negative
INSTRUMENTTYPE: LC-ESI-ITFT
INSTRUMENT: 
COLLISIONENERGY: 30
Comment: registered in MassBank
Num Peaks: 3
303.07999	11
766.22998	1000
781.12	8

NAME: Phosphatidylcholine 16
PRECURSORMZ: 810.565443
PRECURSORTYPE: [M+CH3COO]-
FORMULA: C44H78NO8P
Ontology: Phosphatidylcholines
INCHIKEY: RKFHFBWDNSYADY-SNIIIARXNA-N
SMILES: CCCCCCCCCCCCCCCC(=O)OCC(COP([O-])(=O)OCC[N+](C)(C)C)OC(=O)CC\C=C/C\C=C/C\C=C/C\C=C/C\C=C/CCC
RETENTIONTIME: 
CCS: -1
IONMODE: Negative
INSTRUMENTTYPE: LC-ESI-ITFT
INSTRUMENT: 
COLLISIONENERGY: 30
Comment: registered in MassBank
Num Peaks: 2
301.13	7
764.06	1000

NAME: Phosphatidylcholine 16
PRECURSORMZ: 838.596743
PRECURSORTYPE: [M+CH3COO]-
FORMULA: C46H82NO8P
Ontology: Phosphatidylcholines
INCHIKEY: MWXAIAMSOXOQJK-TZCDOOIHNA-N
SMILES: CCCCCCCCCCCCCCCC(=O)OCC(COP([O-])(=O)OCC[N+](C)(C)C)OC(=O)CC\C=C/C\C=C/C\C=C/C\C=C/C\C=C/CCCCC
RETENTIONTIME: 
CCS: -1
IONMODE: Negative
INSTRUMENTTYPE: LC-ESI-ITFT
INSTRUMENT: 
COLLISIONENERGY: 30
Comment: registered in MassBank
Num Peaks: 1
792.12	1000

NAME: Phosphatidylcholine 16
PRECURSORMZ: 836.581093
PRECURSORTYPE: [M+CH3COO]-
FORMULA: C46H80NO8P
Ontology: Phosphatidylcholines
INCHIKEY: IESVDEZGAHUQJU-SYGPSSPWNA-N
SMILES: CCCCCCCCCCCCCCCC(=O)OCC(COP([O-])(=O)OCC[N+](C)(C)C)OC(=O)CC\C=C/C\C=C/C\C=C/C\C=C/C\C=C/C\C=C/CC
RETENTIONTIME: 
CCS: -1
IONMODE: Negative
INSTRUMENTTYPE: LC-ESI-ITFT
INSTRUMENT: 
COLLISIONENERGY: 30
Comment: registered in MassBank
Num Peaks: 2
790.07001	1000
805.04999	8

NAME: Phosphatidylcholine 16
PRECURSORMZ: 760.549793
PRECURSORTYPE: [M+CH3COO]-
FORMULA: C40H76NO8P
Ontology: Phosphatidylcholines
INCHIKEY: SOUQZYYFGDCZOX-UKDOXLPINA-N
SMILES: CCCCCCCCCCC\C=C/CCC(=O)OCC(COP([O-])(=O)OCC[N+](C)(C)C)OC(=O)CC\C=C/CCCCCCCCCCC
RETENTIONTIME: 
CCS: -1
IONMODE: Negative
INSTRUMENTTYPE: LC-ESI-ITFT
INSTRUMENT: 
COLLISIONENERGY: 30
Comment: registered in MassBank
Num Peaks: 20
249.17	22
279.04999	58
280.20001	52
281.17001	78
282.92001	93
284.09	39
285.17999	64
327.09	155
328.01001	175
328.73999	54
425.26999	19
459.5	49
475.95001	21
477.13	101
478.07999	55
706.81	33
714.09003	1000
715.10999	22
738.12	81
738.76001	21

NAME: Phosphatidylcholine 16
PRECURSORMZ: 788.581093
PRECURSORTYPE: [M+CH3COO]-
FORMULA: C42H80NO8P
Ontology: Phosphatidylcholines
INCHIKEY: QNRBHVUJSHOYGI-BRMDCIMDNA-N
SMILES: CCCCCCCCCCCCC\C=C/CCC(=O)OC(COC(=O)CC\C=C/CCCCCCCCCCC)COP([O-])(=O)OCC[N+](C)(C)C
RETENTIONTIME: 
CCS: -1
IONMODE: Negative
INSTRUMENTTYPE: LC-ESI-ITFT
INSTRUMENT: 
COLLISIONENERGY: 30
Comment: registered in MassBank
Num Peaks: 7
283.73001	23
325.23001	8
327.10999	21
504.23001	12
742.15997	1000
757.26001	18
766.46997	14

NAME: Phosphatidylcholine 16
PRECURSORMZ: 786.565443
PRECURSORTYPE: [M+CH3COO]-
FORMULA: C42H78NO8P
Ontology: Phosphatidylcholines
INCHIKEY: XSSJXFBQZLYYFK-TVGXXSNYNA-N
SMILES: CCCCCCCCCCC\C=C/CCC(=O)OCC(COP([O-])(=O)OCC[N+](C)(C)C)OC(=O)CC\C=C/C\C=C/CCCCCCCCCC
RETENTIONTIME: 
CCS: -1
IONMODE: Negative
INSTRUMENTTYPE: LC-ESI-ITFT
INSTRUMENT: 
COLLISIONENERGY: 30
Comment: registered in MassBank
Num Peaks: 3
279.14999	13
327.03	7
740.14001	1000

NAME: Phosphatidylcholine 16
PRECURSORMZ: 784.549793
PRECURSORTYPE: [M+CH3COO]-
FORMULA: C42H76NO8P
Ontology: Phosphatidylcholines
INCHIKEY: XIVMVZLGWNNXST-DGUBAHAQNA-N
SMILES: CCCCCCCCCCC\C=C/CCC(=O)OCC(COP([O-])(=O)OCC[N+](C)(C)C)OC(=O)CC\C=C/C\C=C/C\C=C/CCCCCCC
RETENTIONTIME: 
CCS: -1
IONMODE: Negative
INSTRUMENTTYPE: LC-ESI-ITFT
INSTRUMENT: 
COLLISIONENERGY: 30
Comment: registered in MassBank
Num Peaks: 13
277.26001	28
303.12	12
304.03	11
449.42001	12
496.95999	22
500.16	12
711.79999	6
724.27002	14
738.06	1000
761.87	18
762.59003	61
770.09998	10
780.31	25

NAME: Phosphatidylcholine 16
PRECURSORMZ: 810.565443
PRECURSORTYPE: [M+CH3COO]-
FORMULA: C44H78NO8P
Ontology: Phosphatidylcholines
INCHIKEY: QSBABJGBCMSZOL-RNVRRVRJNA-N
SMILES: CCCCCCCCCCC\C=C/CCC(=O)OCC(COP([O-])(=O)OCC[N+](C)(C)C)OC(=O)CC\C=C/C\C=C/C\C=C/C\C=C/CCCCCC
RETENTIONTIME: 
CCS: -1
IONMODE: Negative
INSTRUMENTTYPE: LC-ESI-ITFT
INSTRUMENT: 
COLLISIONENERGY: 30
Comment: registered in MassBank
Num Peaks: 2
500.04001	5
764.12	1000

NAME: Phosphatidylcholine 16
PRECURSORMZ: 808.549793
PRECURSORTYPE: [M+CH3COO]-
FORMULA: C44H76NO8P
Ontology: Phosphatidylcholines
INCHIKEY: CRYGVKXXJSFPAW-VDGOIRDXNA-N
SMILES: CCCCCCCCCCC\C=C/CCC(=O)OCC(COP([O-])(=O)OCC[N+](C)(C)C)OC(=O)CC\C=C/C\C=C/C\C=C/C\C=C/C\C=C/CCC
RETENTIONTIME: 
CCS: -1
IONMODE: Negative
INSTRUMENTTYPE: LC-ESI-ITFT
INSTRUMENT: 
COLLISIONENERGY: 30
Comment: registered in MassBank
Num Peaks: 11
283.29999	36
479.64999	20
494.32001	95
669.53003	20
749.28003	22
762.08002	1000
762.77002	6
776.03003	22
778.44	78
786.34998	62
810.63	17

NAME: Phosphatidylcholine 16
PRECURSORMZ: 834.565443
PRECURSORTYPE: [M+CH3COO]-
FORMULA: C46H78NO8P
Ontology: Phosphatidylcholines
INCHIKEY: ALJYHFIRPGURAF-DACYDXBYNA-N
SMILES: CCCCCCCCCCC\C=C/CCC(=O)OCC(COP([O-])(=O)OCC[N+](C)(C)C)OC(=O)CC\C=C/C\C=C/C\C=C/C\C=C/C\C=C/C\C=C/CC
RETENTIONTIME: 
CCS: -1
IONMODE: Negative
INSTRUMENTTYPE: LC-ESI-ITFT
INSTRUMENT: 
COLLISIONENERGY: 30
Comment: registered in MassBank
Num Peaks: 1
788.12	1000

NAME: Phosphatidylcholine 17
PRECURSORMZ: 802.596743
PRECURSORTYPE: [M+CH3COO]-
FORMULA: C43H82NO8P
Ontology: Phosphatidylcholines
INCHIKEY: OQJXXHSQJJIDBN-QIPJBBGZNA-N
SMILES: CCCCCCCCCCCCCCCCC(=O)OCC(COP([O-])(=O)OCC[N+](C)(C)C)OC(=O)CC\C=C/C\C=C/CCCCCCCCCC
RETENTIONTIME: 
CCS: -1
IONMODE: Negative
INSTRUMENTTYPE: LC-ESI-ITFT
INSTRUMENT: 
COLLISIONENERGY: 30
Comment: registered in MassBank
Num Peaks: 4
279.10001	7
756.09003	1000
770.42999	6
771.20001	8

NAME: Phosphatidylcholine 17
PRECURSORMZ: 828.612393
PRECURSORTYPE: [M+CH3COO]-
FORMULA: C45H84NO8P
Ontology: Phosphatidylcholines
INCHIKEY: WONILIINQKCSNA-XXLZVXFVNA-N
SMILES: CCCCCCCCCCCCCCCCC(=O)OCC(COP([O-])(=O)OCC[N+](C)(C)C)OC(=O)CC\C=C/C\C=C/C\C=C/CCCCCCCCC
RETENTIONTIME: 
CCS: -1
IONMODE: Negative
INSTRUMENTTYPE: LC-ESI-ITFT
INSTRUMENT: 
COLLISIONENERGY: 30
Comment: registered in MassBank
Num Peaks: 10
283.14999	12
305.28	10
418.92999	22
506.39999	11
546.07001	23
769.67999	30
774.31	27
781.63	172
782.27002	1000
796.23999	8

NAME: Phosphatidylcholine 17
PRECURSORMZ: 826.596743
PRECURSORTYPE: [M+CH3COO]-
FORMULA: C45H82NO8P
Ontology: Phosphatidylcholines
INCHIKEY: YGNXCWOMJZJVBI-QEKDUOKRNA-N
SMILES: CCCCCCCCCCCCCCCCC(=O)OCC(COP([O-])(=O)OCC[N+](C)(C)C)OC(=O)CC\C=C/C\C=C/C\C=C/C\C=C/CCCCCC
RETENTIONTIME: 
CCS: -1
IONMODE: Negative
INSTRUMENTTYPE: LC-ESI-ITFT
INSTRUMENT: 
COLLISIONENERGY: 30
Comment: registered in MassBank
Num Peaks: 3
303.13	17
780.09998	1000
794.09998	12

NAME: Phosphatidylcholine 17
PRECURSORMZ: 824.581093
PRECURSORTYPE: [M+CH3COO]-
FORMULA: C45H80NO8P
Ontology: Phosphatidylcholines
INCHIKEY: QNXFYUSBFXCOSM-ZXKFMESCNA-N
SMILES: CCCCCCCCCCCCCCCCC(=O)OCC(COP([O-])(=O)OCC[N+](C)(C)C)OC(=O)CC\C=C/C\C=C/C\C=C/C\C=C/C\C=C/CCC
RETENTIONTIME: 
CCS: -1
IONMODE: Negative
INSTRUMENTTYPE: LC-ESI-ITFT
INSTRUMENT: 
COLLISIONENERGY: 30
Comment: registered in MassBank
Num Peaks: 4
728.03003	24
778.19	1000
791.53003	68
792.21997	349

NAME: Phosphatidylcholine 17
PRECURSORMZ: 850.596743
PRECURSORTYPE: [M+CH3COO]-
FORMULA: C47H82NO8P
Ontology: Phosphatidylcholines
INCHIKEY: KSRURLYJRNYEOH-CRVSLQDRNA-N
SMILES: CCCCCCCCCCCCCCCCC(=O)OCC(COP([O-])(=O)OCC[N+](C)(C)C)OC(=O)CC\C=C/C\C=C/C\C=C/C\C=C/C\C=C/C\C=C/CC
RETENTIONTIME: 
CCS: -1
IONMODE: Negative
INSTRUMENTTYPE: LC-ESI-ITFT
INSTRUMENT: 
COLLISIONENERGY: 30
Comment: registered in MassBank
Num Peaks: 3
463.04999	17
791.51001	20
804.15002	1000

NAME: Phosphatidylcholine 17
PRECURSORMZ: 800.581093
PRECURSORTYPE: [M+CH3COO]-
FORMULA: C43H80NO8P
Ontology: Phosphatidylcholines
INCHIKEY: FNRBLPPAKRRBCG-QGRKPBPINA-N
SMILES: CCCCCCCCCCCC\C=C/CCC(=O)OCC(COP([O-])(=O)OCC[N+](C)(C)C)OC(=O)CC\C=C/C\C=C/CCCCCCCCCC
RETENTIONTIME: 
CCS: -1
IONMODE: Negative
INSTRUMENTTYPE: LC-ESI-ITFT
INSTRUMENT: 
COLLISIONENERGY: 30
Comment: registered in MassBank
Num Peaks: 8
391.14001	5
517.96997	13
682.92999	5
742.15997	6
754.15997	1000
755.01001	21
769.35999	14
778.27002	7

NAME: Phosphatidylcholine 17
PRECURSORMZ: 798.565443
PRECURSORTYPE: [M+CH3COO]-
FORMULA: C43H78NO8P
Ontology: Phosphatidylcholines
INCHIKEY: GTDQVCDADITTFR-IXGWNOPWNA-N
SMILES: CCCCCCCCCC\C=C/C\C=C/CCC(=O)OC(COC(=O)CC\C=C/C\C=C/CCCCCCCCC)COP([O-])(=O)OCC[N+](C)(C)C
RETENTIONTIME: 
CCS: -1
IONMODE: Negative
INSTRUMENTTYPE: LC-ESI-ITFT
INSTRUMENT: 
COLLISIONENERGY: 30
Comment: registered in MassBank
Num Peaks: 9
278.84	21
347.06	30
580.97998	11
744.38	21
749.71002	11
752.15002	1000
753.12	45
765.83002	45
767.65997	19

NAME: Phosphatidylcholine 18
PRECURSORMZ: 792.612393
PRECURSORTYPE: [M+CH3COO]-
FORMULA: C42H84NO8P
Ontology: Phosphatidylcholines
INCHIKEY: BYSIMVBIJVBVPA-UHFFFAOYNA-N
SMILES: CCCCCCCCCCCCCCCCCC(=O)OCC(COP([O-])(=O)OCC[N+](C)(C)C)OC(=O)CCCCCCCCCCCCCCC
RETENTIONTIME: 
CCS: -1
IONMODE: Negative
INSTRUMENTTYPE: LC-ESI-ITFT
INSTRUMENT: 
COLLISIONENERGY: 30
Comment: registered in MassBank
Num Peaks: 4
311.29999	7
329.20001	6
746.12	1000
760.84998	8

NAME: Phosphatidylcholine 18
PRECURSORMZ: 818.628043
PRECURSORTYPE: [M+CH3COO]-
FORMULA: C44H86NO8P
Ontology: Phosphatidylcholines
INCHIKEY: OBRNLVIDOVBLPU-FPODKLOTNA-N
SMILES: CCCCCCCCCCCCCCCCCC(=O)OCC(COP([O-])(=O)OCC[N+](C)(C)C)OC(=O)CC\C=C/CCCCCCCCCCCCC
RETENTIONTIME: 
CCS: -1
IONMODE: Negative
INSTRUMENTTYPE: LC-ESI-ITFT
INSTRUMENT: 
COLLISIONENERGY: 30
Comment: registered in MassBank
Num Peaks: 3
281.12	9
772.21002	1000
786.88	5

NAME: Phosphatidylcholine 18
PRECURSORMZ: 816.612393
PRECURSORTYPE: [M+CH3COO]-
FORMULA: C44H84NO8P
Ontology: Phosphatidylcholines
INCHIKEY: BHAATSGDDOXMJD-FOXSRGEXNA-N
SMILES: CCCCCCCCCCCCCCCCCC(=O)OCC(COP([O-])(=O)OCC[N+](C)(C)C)OC(=O)CC\C=C/C\C=C/CCCCCCCCCC
RETENTIONTIME: 
CCS: -1
IONMODE: Negative
INSTRUMENTTYPE: LC-ESI-ITFT
INSTRUMENT: 
COLLISIONENERGY: 30
Comment: registered in MassBank
Num Peaks: 3
279.17999	8
770.14001	1000
785.20001	6

NAME: Phosphatidylcholine 18
PRECURSORMZ: 814.596743
PRECURSORTYPE: [M+CH3COO]-
FORMULA: C44H82NO8P
Ontology: Phosphatidylcholines
INCHIKEY: FAUTUPCMPPIYHO-UEZFOCAYNA-N
SMILES: CCCCCCCCCCCCCCCCCC(=O)OCC(COP([O-])(=O)OCC[N+](C)(C)C)OC(=O)CC\C=C/C\C=C/C\C=C/CCCCCCC
RETENTIONTIME: 
CCS: -1
IONMODE: Negative
INSTRUMENTTYPE: LC-ESI-ITFT
INSTRUMENT: 
COLLISIONENERGY: 30
Comment: registered in MassBank
Num Peaks: 1
768.16998	1000

NAME: Phosphatidylcholine 18
PRECURSORMZ: 844.643694
PRECURSORTYPE: [M+CH3COO]-
FORMULA: C46H88NO8P
Ontology: Phosphatidylcholines
INCHIKEY: QLAPQVPZKNRKSF-ZUOCNPMVNA-N
SMILES: CCCCCCCCCCCCCCCCCC(=O)OCC(COP([O-])(=O)OCC[N+](C)(C)C)OC(=O)CC\C=C/C\C=C/CCCCCCCCCCCC
RETENTIONTIME: 
CCS: -1
IONMODE: Negative
INSTRUMENTTYPE: LC-ESI-ITFT
INSTRUMENT: 
COLLISIONENERGY: 30
Comment: registered in MassBank
Num Peaks: 5
478.34	18
588	44
704.01001	26
789.84003	18
798.21997	1000

NAME: Phosphatidylcholine 18
PRECURSORMZ: 842.628043
PRECURSORTYPE: [M+CH3COO]-
FORMULA: C46H86NO8P
Ontology: Phosphatidylcholines
INCHIKEY: JKGNHUXTJMEAQU-YDXMYUDNNA-N
SMILES: CCCCCCCCCCCCCCCCCC(=O)OCC(COP([O-])(=O)OCC[N+](C)(C)C)OC(=O)CC\C=C/C\C=C/C\C=C/CCCCCCCCC
RETENTIONTIME: 
CCS: -1
IONMODE: Negative
INSTRUMENTTYPE: LC-ESI-ITFT
INSTRUMENT: 
COLLISIONENERGY: 30
Comment: registered in MassBank
Num Peaks: 2
282.94	13
796.17999	1000

NAME: Phosphatidylcholine 18
PRECURSORMZ: 840.612393
PRECURSORTYPE: [M+CH3COO]-
FORMULA: C46H84NO8P
Ontology: Phosphatidylcholines
INCHIKEY: FALSXTSFRXGEBP-KKHNUOCRNA-N
SMILES: CCCCCCCCCCCCCCCCCC(=O)OCC(COP([O-])(=O)OCC[N+](C)(C)C)OC(=O)CC\C=C/C\C=C/C\C=C/C\C=C/CCCCCC
RETENTIONTIME: 
CCS: -1
IONMODE: Negative
INSTRUMENTTYPE: LC-ESI-ITFT
INSTRUMENT: 
COLLISIONENERGY: 30
Comment: registered in MassBank
Num Peaks: 3
784.17999	5
794.14001	1000
809.27002	5

NAME: Phosphatidylcholine 18
PRECURSORMZ: 838.596743
PRECURSORTYPE: [M+CH3COO]-
FORMULA: C46H82NO8P
Ontology: Phosphatidylcholines
INCHIKEY: QFBBGGXUDNWUMX-NBFUFYKZNA-N
SMILES: CCCCCCCCCCCCCCCCCC(=O)OCC(COP([O-])(=O)OCC[N+](C)(C)C)OC(=O)CC\C=C/C\C=C/C\C=C/C\C=C/C\C=C/CCC
RETENTIONTIME: 
CCS: -1
IONMODE: Negative
INSTRUMENTTYPE: LC-ESI-ITFT
INSTRUMENT: 
COLLISIONENERGY: 30
Comment: registered in MassBank
Num Peaks: 5
585.95001	6
792.13	1000
792.78998	18
807.09003	12
848.07001	7

NAME: Phosphatidylcholine 18
PRECURSORMZ: 866.628043
PRECURSORTYPE: [M+CH3COO]-
FORMULA: C48H86NO8P
Ontology: Phosphatidylcholines
INCHIKEY: GLPAGCOJQYNMCC-QBFOOBQRNA-N
SMILES: CCCCCCCCCCCCCCCCCC(=O)OCC(COP([O-])(=O)OCC[N+](C)(C)C)OC(=O)CC\C=C/C\C=C/C\C=C/C\C=C/C\C=C/CCCCC
RETENTIONTIME: 
CCS: -1
IONMODE: Negative
INSTRUMENTTYPE: LC-ESI-ITFT
INSTRUMENT: 
COLLISIONENERGY: 30
Comment: registered in MassBank
Num Peaks: 4
794.63	12
820.22998	1000
830.53003	10
834.26001	10

NAME: Phosphatidylcholine 18
PRECURSORMZ: 864.612393
PRECURSORTYPE: [M+CH3COO]-
FORMULA: C48H84NO8P
Ontology: Phosphatidylcholines
INCHIKEY: FAUYAENFVCNTAL-UFTZFNJNNA-N
SMILES: CCCCCCCCCCCCCCCCCC(=O)OCC(COP([O-])(=O)OCC[N+](C)(C)C)OC(=O)CC\C=C/C\C=C/C\C=C/C\C=C/C\C=C/C\C=C/CC
RETENTIONTIME: 
CCS: -1
IONMODE: Negative
INSTRUMENTTYPE: LC-ESI-ITFT
INSTRUMENT: 
COLLISIONENERGY: 30
Comment: registered in MassBank
Num Peaks: 2
817.53998	44
818.16998	1000

NAME: Phosphatidylcholine 18
PRECURSORMZ: 814.596743
PRECURSORTYPE: [M+CH3COO]-
FORMULA: C44H82NO8P
Ontology: Phosphatidylcholines
INCHIKEY: HZHAEVXGLQPJBM-KJZSVCAKNA-N
SMILES: CCCCCCCCCCCCC\C=C/CCC(=O)OCC(COP([O-])(=O)OCC[N+](C)(C)C)OC(=O)CC\C=C/C\C=C/CCCCCCCCCC
RETENTIONTIME: 
CCS: -1
IONMODE: Negative
INSTRUMENTTYPE: LC-ESI-ITFT
INSTRUMENT: 
COLLISIONENERGY: 30
Comment: registered in MassBank
Num Peaks: 3
279.12	7
768.21997	1000
782.90997	5

NAME: Phosphatidylcholine 18
PRECURSORMZ: 838.596743
PRECURSORTYPE: [M+CH3COO]-
FORMULA: C46H82NO8P
Ontology: Phosphatidylcholines
INCHIKEY: HYDKDXOLAXLJKA-ICTLDNOWNA-N
SMILES: CCCCCCCCCCCCC\C=C/CCC(=O)OCC(COP([O-])(=O)OCC[N+](C)(C)C)OC(=O)CC\C=C/C\C=C/C\C=C/C\C=C/CCCCCC
RETENTIONTIME: 
CCS: -1
IONMODE: Negative
INSTRUMENTTYPE: LC-ESI-ITFT
INSTRUMENT: 
COLLISIONENERGY: 30
Comment: registered in MassBank
Num Peaks: 3
792.15997	1000
815.98999	9
823.46002	11

NAME: Phosphatidylcholine 18
PRECURSORMZ: 862.596743
PRECURSORTYPE: [M+CH3COO]-
FORMULA: C48H82NO8P
Ontology: Phosphatidylcholines
INCHIKEY: SXQSZXLPXRGKHG-SUMKQPSKNA-N
SMILES: CCCCCCCCCCCCC\C=C/CCC(=O)OCC(COP([O-])(=O)OCC[N+](C)(C)C)OC(=O)CC\C=C/C\C=C/C\C=C/C\C=C/C\C=C/C\C=C/CC
RETENTIONTIME: 
CCS: -1
IONMODE: Negative
INSTRUMENTTYPE: LC-ESI-ITFT
INSTRUMENT: 
COLLISIONENERGY: 30
Comment: registered in MassBank
Num Peaks: 3
327.17001	9
816.15002	1000
830.89001	13

NAME: Phosphatidylcholine 18
PRECURSORMZ: 838.596743
PRECURSORTYPE: [M+CH3COO]-
FORMULA: C46H82NO8P
Ontology: Phosphatidylcholines
INCHIKEY: IIFIFYHDUBTVOC-YJECRCNZNA-N
SMILES: CCCCCCCCCC\C=C/C\C=C/CCC(=O)OCC(COP([O-])(=O)OCC[N+](C)(C)C)OC(=O)CC\C=C/C\C=C/C\C=C/CCCCCCCCC
RETENTIONTIME: 
CCS: -1
IONMODE: Negative
INSTRUMENTTYPE: LC-ESI-ITFT
INSTRUMENT: 
COLLISIONENERGY: 30
Comment: registered in MassBank
Num Peaks: 5
359.12	109
554.13	159
690.20001	58
792.21997	1000
815.92999	94

NAME: Phosphatidylcholine 18
PRECURSORMZ: 834.565443
PRECURSORTYPE: [M+CH3COO]-
FORMULA: C46H78NO8P
Ontology: Phosphatidylcholines
INCHIKEY: XAYMJCDXSDRVCT-KHVPVUJCNA-N
SMILES: CCCCCCCCCC\C=C/C\C=C/CCC(=O)OCC(COP([O-])(=O)OCC[N+](C)(C)C)OC(=O)CC\C=C/C\C=C/C\C=C/C\C=C/C\C=C/CCC
RETENTIONTIME: 
CCS: -1
IONMODE: Negative
INSTRUMENTTYPE: LC-ESI-ITFT
INSTRUMENT: 
COLLISIONENERGY: 30
Comment: registered in MassBank
Num Peaks: 3
301.10999	10
788.06	1000
803.13	11

NAME: Phosphatidylcholine 18
PRECURSORMZ: 810.565443
PRECURSORTYPE: [M+CH3COO]-
FORMULA: C44H78NO8P
Ontology: Phosphatidylcholines
INCHIKEY: JEJPTXPTKMRSCT-VNUOCOMJNA-N
SMILES: CCCCCCCCCC\C=C/C\C=C/CCC(=O)OC(COC(=O)CC\C=C/C\C=C/C\C=C/CCCCCCC)COP([O-])(=O)OCC[N+](C)(C)C
RETENTIONTIME: 
CCS: -1
IONMODE: Negative
INSTRUMENTTYPE: LC-ESI-ITFT
INSTRUMENT: 
COLLISIONENERGY: 30
Comment: registered in MassBank
Num Peaks: 6
413.04999	6
764.09998	1000
771.71997	7
779.04999	5
788.06	121
806.03998	13

NAME: Phosphatidylcholine 18
PRECURSORMZ: 1586.080648
PRECURSORTYPE: [M+CH3COO]-
FORMULA: C88H152N2O16P2
Ontology: Phosphatidylcholines
INCHIKEY: ITARWCGVFBXBLA-KNNCWTNFNA-N
SMILES: CCCCCCCCCC\C=C/C\C=C/CCC(=O)OC(COC(=O)CC\C=C/C\C=C/C\C=C/C\C=C/CCCC)COP([O-])(=O)OCC[N+](C)(C)C.CCCCCCC\C=C/C\C=C/C\C=C/CCC(=O)OCC(COP([O-])(=O)OCC[N+](C)(C)C)OC(=O)CC\C=C/C\C=C/C\C=C/CCCCCCC
RETENTIONTIME: 
CCS: -1
IONMODE: Negative
INSTRUMENTTYPE: LC-ESI-ITFT
INSTRUMENT: 
COLLISIONENERGY: 30
Comment: registered in MassBank
Num Peaks: 5
301.07999	46
388.59	18
748.20001	14
751.23999	38
762.04999	1000

NAME: Phosphatidylcholine 19
PRECURSORMZ: 832.643694
PRECURSORTYPE: [M+CH3COO]-
FORMULA: C45H88NO8P
Ontology: Phosphatidylcholines
INCHIKEY: QKEFIMCGHFOKRT-YJKCNMNRNA-N
SMILES: CCCCCCCCCCCCCCCCCCC(=O)OCC(COP([O-])(=O)OCC[N+](C)(C)C)OC(=O)CC\C=C/CCCCCCCCCCCCC
RETENTIONTIME: 
CCS: -1
IONMODE: Negative
INSTRUMENTTYPE: LC-ESI-ITFT
INSTRUMENT: 
COLLISIONENERGY: 30
Comment: registered in MassBank
Num Peaks: 13
341.29001	16
519.14001	23
546.03998	39
565.95001	23
575.17999	23
645.79999	23
772.64001	21
774.26001	39
774.90002	35
786.21002	1000
808.15002	14
817.91998	53
824.35999	12

NAME: Phosphatidylcholine 19
PRECURSORMZ: 830.628043
PRECURSORTYPE: [M+CH3COO]-
FORMULA: C45H86NO8P
Ontology: Phosphatidylcholines
INCHIKEY: BESSFRQTRGTUBA-XJKRCVSZNA-N
SMILES: CCCCCCCCCCCCCCCCCCC(=O)OCC(COP([O-])(=O)OCC[N+](C)(C)C)OC(=O)CC\C=C/C\C=C/CCCCCCCCCC
RETENTIONTIME: 
CCS: -1
IONMODE: Negative
INSTRUMENTTYPE: LC-ESI-ITFT
INSTRUMENT: 
COLLISIONENERGY: 30
Comment: registered in MassBank
Num Peaks: 2
784.20001	1000
798.37	6

NAME: Phosphatidylcholine 19
PRECURSORMZ: 878.628043
PRECURSORTYPE: [M+CH3COO]-
FORMULA: C49H86NO8P
Ontology: Phosphatidylcholines
INCHIKEY: MCBZZOAHAMROOU-DSFOIJQZNA-N
SMILES: CCCCCCCCCCCCCCCCCCC(=O)OCC(COP([O-])(=O)OCC[N+](C)(C)C)OC(=O)CC\C=C/C\C=C/C\C=C/C\C=C/C\C=C/C\C=C/CC
RETENTIONTIME: 
CCS: -1
IONMODE: Negative
INSTRUMENTTYPE: LC-ESI-ITFT
INSTRUMENT: 
COLLISIONENERGY: 30
Comment: registered in MassBank
Num Peaks: 8
283.07999	56
366.92999	30
761.17999	75
770.32001	82
773.59998	16
786.34003	16
823.98999	105
832.16998	1000

NAME: Phosphatidylcholine 19
PRECURSORMZ: 828.612393
PRECURSORTYPE: [M+CH3COO]-
FORMULA: C45H84NO8P
Ontology: Phosphatidylcholines
INCHIKEY: BLCTXUGKOYYBFA-DFWRNDSJNA-N
SMILES: CCCCCCCCCCCCCC\C=C/CCC(=O)OCC(COP([O-])(=O)OCC[N+](C)(C)C)OC(=O)CC\C=C/C\C=C/CCCCCCCCCC
RETENTIONTIME: 
CCS: -1
IONMODE: Negative
INSTRUMENTTYPE: LC-ESI-ITFT
INSTRUMENT: 
COLLISIONENERGY: 30
Comment: registered in MassBank
Num Peaks: 26
261.70999	22
279.95001	26
283.06	461
284.14999	39
327.07999	41
419.14001	590
420.14001	104
459.25	19
462.82999	104
463.92001	62
474.66	47
506.12	60
528.33002	11
546.17999	737
547.15997	75
572.17999	19
589.75	69
590.46002	21
740.10999	60
752.21997	24
768.90002	927
770.07001	351
774.33002	84
782.19	1000
796.72998	17
844.37	24

NAME: Phosphatidylcholine 20
PRECURSORMZ: 844.643694
PRECURSORTYPE: [M+CH3COO]-
FORMULA: C46H88NO8P
Ontology: Phosphatidylcholines
INCHIKEY: GUNFNSQQERLYDH-ZUOCNPMVNA-N
SMILES: CCCCCCCCCCCCCCCCCCCC(=O)OCC(COP([O-])(=O)OCC[N+](C)(C)C)OC(=O)CC\C=C/C\C=C/CCCCCCCCCC
RETENTIONTIME: 
CCS: -1
IONMODE: Negative
INSTRUMENTTYPE: LC-ESI-ITFT
INSTRUMENT: 
COLLISIONENERGY: 30
Comment: registered in MassBank
Num Peaks: 2
798.17999	1000
813.34003	10

NAME: Phosphatidylcholine 20
PRECURSORMZ: 868.643694
PRECURSORTYPE: [M+CH3COO]-
FORMULA: C48H88NO8P
Ontology: Phosphatidylcholines
INCHIKEY: LKDQVYYANCMMNT-CTMZMWSNNA-N
SMILES: CCCCCCCCCCCCCCCCCCCC(=O)OCC(COP([O-])(=O)OCC[N+](C)(C)C)OC(=O)CC\C=C/C\C=C/C\C=C/C\C=C/CCCCCC
RETENTIONTIME: 
CCS: -1
IONMODE: Negative
INSTRUMENTTYPE: LC-ESI-ITFT
INSTRUMENT: 
COLLISIONENERGY: 30
Comment: registered in MassBank
Num Peaks: 5
270.23999	23
417.98001	23
769.51001	27
822.15002	1000
822.78003	57

NAME: Phosphatidylcholine 20
PRECURSORMZ: 892.643694
PRECURSORTYPE: [M+CH3COO]-
FORMULA: C50H88NO8P
Ontology: Phosphatidylcholines
INCHIKEY: WAFWSBFKIPCFOF-ZOHKZEOUNA-N
SMILES: CCCCCCCCCCCCCCCCCCCC(=O)OCC(COP([O-])(=O)OCC[N+](C)(C)C)OC(=O)CC\C=C/C\C=C/C\C=C/C\C=C/C\C=C/C\C=C/CC
RETENTIONTIME: 
CCS: -1
IONMODE: Negative
INSTRUMENTTYPE: LC-ESI-ITFT
INSTRUMENT: 
COLLISIONENERGY: 30
Comment: registered in MassBank
Num Peaks: 2
846.16998	1000
861.40002	10

NAME: Phosphatidylcholine 20
PRECURSORMZ: 890.628043
PRECURSORTYPE: [M+CH3COO]-
FORMULA: C50H86NO8P
Ontology: Phosphatidylcholines
INCHIKEY: NDXZRODTPALTBU-HCJNTHTKNA-N
SMILES: CCCCCCCCCCCCCCC\C=C/CCC(=O)OCC(COP([O-])(=O)OCC[N+](C)(C)C)OC(=O)CC\C=C/C\C=C/C\C=C/C\C=C/C\C=C/C\C=C/CC
RETENTIONTIME: 
CCS: -1
IONMODE: Negative
INSTRUMENTTYPE: LC-ESI-ITFT
INSTRUMENT: 
COLLISIONENERGY: 30
Comment: registered in MassBank
Num Peaks: 4
813.23999	99
844.25	1000
858.27002	40
861.17999	168

NAME: Phosphatidylcholine 22
PRECURSORMZ: 872.674994
PRECURSORTYPE: [M+CH3COO]-
FORMULA: C48H92NO8P
Ontology: Phosphatidylcholines
INCHIKEY: WRWYRAWKRKLJLU-VTFKHGFONA-N
SMILES: CCCCCCCCCCCCCCCCCCCCCC(=O)OCC(COP([O-])(=O)OCC[N+](C)(C)C)OC(=O)CC\C=C/C\C=C/CCCCCCCCCC
RETENTIONTIME: 
CCS: -1
IONMODE: Negative
INSTRUMENTTYPE: LC-ESI-ITFT
INSTRUMENT: 
COLLISIONENERGY: 30
Comment: registered in MassBank
Num Peaks: 4
339.25	19
781.14001	22
818.21002	44
826.33002	1000

NAME: Phosphatidylcholine alkenyl 16
PRECURSORMZ: 748.586179
PRECURSORTYPE: [M+CH3COO]-
FORMULA: C40H80NO7P
Ontology: 1-(1Z-alkenyl),2-acyl-glycerophosphocholines
INCHIKEY: PEWXKAOBUSBJLD-LVYIWIAJNA-N
SMILES: CCCCCCCCCCCCCCCC(=O)OC(CO\C=C\CCCCCCCCCCCCCC)COP([O-])(=O)OCC[N+](C)(C)C
RETENTIONTIME: 
CCS: -1
IONMODE: Negative
INSTRUMENTTYPE: LC-ESI-ITFT
INSTRUMENT: 
COLLISIONENERGY: 30
Comment: registered in MassBank
Num Peaks: 16
231.10001	11
270.89001	5
283.09	34
284.95999	105
286.01999	5
327.17999	66
329.09	1000
330.16	137
405.38	7
446.14001	65
447.13	12
464.16	412
465.23999	60
466.23999	91
702.15002	163
702.78003	6

NAME: Phosphatidylcholine alkenyl 16
PRECURSORMZ: 796.586179
PRECURSORTYPE: [M+CH3COO]-
FORMULA: C44H80NO7P
Ontology: 1-(1Z-alkenyl),2-acyl-glycerophosphocholines
INCHIKEY: WPFUZBNWEKXHJI-TUJGGYRWNA-N
SMILES: CCCCCCCCCCCCCC\C=C\OCC(COP([O-])(=O)OCC[N+](C)(C)C)OC(=O)CC\C=C/C\C=C/C\C=C/C\C=C/CCCCCC
RETENTIONTIME: 
CCS: -1
IONMODE: Negative
INSTRUMENTTYPE: LC-ESI-ITFT
INSTRUMENT: 
COLLISIONENERGY: 30
Comment: registered in MassBank
Num Peaks: 13
278.98001	6
303.10001	19
305.06	10
458.12	6
540.02002	6
567.19	6
714.47998	8
736.52002	12
738.21002	6
740.97998	6
750.10999	1000
750.96002	14
757.85999	8

NAME: Phosphatidylcholine alkenyl 16
PRECURSORMZ: 820.586179
PRECURSORTYPE: [M+CH3COO]-
FORMULA: C46H80NO7P
Ontology: 1-(1Z-alkenyl),2-acyl-glycerophosphocholines
INCHIKEY: QICWUUGBNFIZAZ-OUHBEAGRNA-N
SMILES: CCCCCCCCCCCCCC\C=C\OCC(COP([O-])(=O)OCC[N+](C)(C)C)OC(=O)CC\C=C/C\C=C/C\C=C/C\C=C/C\C=C/C\C=C/CC
RETENTIONTIME: 
CCS: -1
IONMODE: Negative
INSTRUMENTTYPE: LC-ESI-ITFT
INSTRUMENT: 
COLLISIONENERGY: 30
Comment: registered in MassBank
Num Peaks: 5
421.10999	7
738.21997	5
766.34998	6
774.12	1000
790.06	6

NAME: Phosphatidylcholine alkyl 16
PRECURSORMZ: 750.601829
PRECURSORTYPE: [M+CH3COO]-
FORMULA: C40H82NO7P
Ontology: 1-alkyl,2-acylglycero-3-phosphocholines
INCHIKEY: WOTHHEHCEYHCFE-UHFFFAOYNA-N
SMILES: CCCCCCCCCCCCCCCCOCC(COP([O-])(=O)OCC[N+](C)(C)C)OC(=O)CCCCCCCCCCCCCCC
RETENTIONTIME: 
CCS: -1
IONMODE: Negative
INSTRUMENTTYPE: LC-ESI-ITFT
INSTRUMENT: 
COLLISIONENERGY: 30
Comment: registered in MassBank
Num Peaks: 11
285.23999	17
329.07999	135
330.17001	42
359.34	8
446.98999	6
448.31	19
466.19	95
467.20001	18
695.64001	8
704.20001	1000
704.95001	9

NAME: Phosphatidylcholine alkyl 16
PRECURSORMZ: 774.601829
PRECURSORTYPE: [M+CH3COO]-
FORMULA: C42H82NO7P
Ontology: 1-alkyl,2-acylglycero-3-phosphocholines
INCHIKEY: CBJWWPFFZRSLMX-WGPKDLKGNA-N
SMILES: CCCCCCCCCCCCCCCCOCC(COP([O-])(=O)OCC[N+](C)(C)C)OC(=O)CC\C=C/C\C=C/CCCCCCCCCC
RETENTIONTIME: 
CCS: -1
IONMODE: Negative
INSTRUMENTTYPE: LC-ESI-ITFT
INSTRUMENT: 
COLLISIONENERGY: 30
Comment: registered in MassBank
Num Peaks: 3
728.21997	1000
729.10999	51
745.21997	6

NAME: Phosphatidylcholine alkyl 16
PRECURSORMZ: 798.601829
PRECURSORTYPE: [M+CH3COO]-
FORMULA: C44H82NO7P
Ontology: 1-alkyl,2-acylglycero-3-phosphocholines
INCHIKEY: MHOAZZSMGQCHNX-GJWWTBRZNA-N
SMILES: CCCCCCCCCCCCCCCCOCC(COP([O-])(=O)OCC[N+](C)(C)C)OC(=O)CC\C=C/C\C=C/C\C=C/C\C=C/CCCCCC
RETENTIONTIME: 
CCS: -1
IONMODE: Negative
INSTRUMENTTYPE: LC-ESI-ITFT
INSTRUMENT: 
COLLISIONENERGY: 30
Comment: registered in MassBank
Num Peaks: 3
303.38	7
752.19	1000
753.28003	22

NAME: Phosphatidylcholine alkyl 16
PRECURSORMZ: 824.617479
PRECURSORTYPE: [M+CH3COO]-
FORMULA: C46H84NO7P
Ontology: 1-alkyl,2-acylglycero-3-phosphocholines
INCHIKEY: JMQLAFWVISATAG-PEUCRCJUNA-N
SMILES: CCCCCCCCCCCCCCCCOCC(COP([O-])(=O)OCC[N+](C)(C)C)OC(=O)CC\C=C/C\C=C/C\C=C/C\C=C/C\C=C/CCCCC
RETENTIONTIME: 
CCS: -1
IONMODE: Negative
INSTRUMENTTYPE: LC-ESI-ITFT
INSTRUMENT: 
COLLISIONENERGY: 30
Comment: registered in MassBank
Num Peaks: 2
450.04999	47
778.13	1000

NAME: Phosphatidylcholine alkyl 16
PRECURSORMZ: 822.601829
PRECURSORTYPE: [M+CH3COO]-
FORMULA: C46H82NO7P
Ontology: 1-alkyl,2-acylglycero-3-phosphocholines
INCHIKEY: QQQQNYAHSSIZBU-XTQGPSINNA-N
SMILES: CCCCCCCCCCCCCCCCOCC(COP([O-])(=O)OCC[N+](C)(C)C)OC(=O)CC\C=C/C\C=C/C\C=C/C\C=C/C\C=C/C\C=C/CC
RETENTIONTIME: 
CCS: -1
IONMODE: Negative
INSTRUMENTTYPE: LC-ESI-ITFT
INSTRUMENT: 
COLLISIONENERGY: 30
Comment: registered in MassBank
Num Peaks: 9
327.29001	7
466.51999	5
527.08002	11
736.15002	17
765.5	5
768.14001	87
776.15002	1000
814.70001	8
817.15002	10

NAME: Phosphatidylcholine alkyl 18
PRECURSORMZ: 778.633129
PRECURSORTYPE: [M+CH3COO]-
FORMULA: C42H86NO7P
Ontology: 1-alkyl,2-acylglycero-3-phosphocholines
INCHIKEY: GTFLTTXDLGEBAI-UHFFFAOYNA-N
SMILES: CCCCCCCCCCCCCCCCCCOCC(COP([O-])(=O)OCC[N+](C)(C)C)OC(=O)CCCCCCCCCCCCCCC
RETENTIONTIME: 
CCS: -1
IONMODE: Negative
INSTRUMENTTYPE: LC-ESI-ITFT
INSTRUMENT: 
COLLISIONENERGY: 30
Comment: registered in MassBank
Num Peaks: 19
329.23999	82
343.07999	22
359.06	71
424.70001	13
462.95999	26
465.32001	11
492.17001	26
493.14001	46
494.35001	30
686.39001	9
718.87	26
719.60999	32
720.25	11
724.38	11
732.17999	1000
733.60999	28
747.5	17
757.34003	33
778.06	24

NAME: Phosphatidylcholine alkyl 18
PRECURSORMZ: 802.633129
PRECURSORTYPE: [M+CH3COO]-
FORMULA: C44H86NO7P
Ontology: 1-alkyl,2-acylglycero-3-phosphocholines
INCHIKEY: BXRBEIASHZFHSW-FOXSRGEXNA-N
SMILES: CCCCCCCCCCCCCCCCCCOCC(COP([O-])(=O)OCC[N+](C)(C)C)OC(=O)CC\C=C/C\C=C/CCCCCCCCCC
RETENTIONTIME: 
CCS: -1
IONMODE: Negative
INSTRUMENTTYPE: LC-ESI-ITFT
INSTRUMENT: 
COLLISIONENERGY: 30
Comment: registered in MassBank
Num Peaks: 10
284.14001	55
285.29001	6
298.98001	10
327.60999	14
328.25	20
419.10001	7
480.75	7
666.73999	8
756.28998	1000
757.53003	23

NAME: Phosphatidylcholine alkyl 18
PRECURSORMZ: 826.633129
PRECURSORTYPE: [M+CH3COO]-
FORMULA: C46H86NO7P
Ontology: 1-alkyl,2-acylglycero-3-phosphocholines
INCHIKEY: VEJXVXTVFCQWMP-VROGFSTJNA-N
SMILES: CCCCCCCCCCCCCCCCCCOCC(COP([O-])(=O)OCC[N+](C)(C)C)OC(=O)CC\C=C/C\C=C/C\C=C/C\C=C/CCCCCC
RETENTIONTIME: 
CCS: -1
IONMODE: Negative
INSTRUMENTTYPE: LC-ESI-ITFT
INSTRUMENT: 
COLLISIONENERGY: 30
Comment: registered in MassBank
Num Peaks: 7
280.23001	11
771.46997	28
780.21002	1000
781.53998	22
794.28998	74
796.66998	63
810.46997	20

NAME: Phosphatidylcholine alkyl 18
PRECURSORMZ: 850.633129
PRECURSORTYPE: [M+CH3COO]-
FORMULA: C48H86NO7P
Ontology: 1-alkyl,2-acylglycero-3-phosphocholines
INCHIKEY: QBZALASVZLFAHF-RRHSVIFUNA-N
SMILES: CCCCCCCCCCCCCCCCCCOCC(COP([O-])(=O)OCC[N+](C)(C)C)OC(=O)CC\C=C/C\C=C/C\C=C/C\C=C/C\C=C/C\C=C/CC
RETENTIONTIME: 
CCS: -1
IONMODE: Negative
INSTRUMENTTYPE: LC-ESI-ITFT
INSTRUMENT: 
COLLISIONENERGY: 30
Comment: registered in MassBank
Num Peaks: 8
517.87	44
525.04999	88
763.91998	175
764.78003	73
784.21002	44
791.03003	248
795.94	124
804.28998	1000

NAME: Phosphatidylcholine alkyl 18
PRECURSORMZ: 776.617479
PRECURSORTYPE: [M+CH3COO]-
FORMULA: C42H84NO7P
Ontology: 1-alkyl,2-acylglycero-3-phosphocholines
INCHIKEY: ITFYCOXGRQISEW-HYOGKJQXNA-N
SMILES: CCCCCCCCCCCCCCCC(=O)OC(COCCC\C=C/CCCCCCCCCCCCC)COP([O-])(=O)OCC[N+](C)(C)C
RETENTIONTIME: 
CCS: -1
IONMODE: Negative
INSTRUMENTTYPE: LC-ESI-ITFT
INSTRUMENT: 
COLLISIONENERGY: 30
Comment: registered in MassBank
Num Peaks: 7
255.25	11
438.87	6
540.98999	6
717.06	5
722.65002	5
730.16998	1000
730.85999	11

NAME: Phosphatidylcholine lyso 15
PRECURSORMZ: 512.335778
PRECURSORTYPE: [M+CH3COO]-
FORMULA: C23H48NO7P
Ontology: 2-acyl-sn-glycero-3-phosphocholines
INCHIKEY: AGHWJZIEMKQLQP-UHFFFAOYNA-N
SMILES: CCCCCCCCCCCCCCC(=O)OC(CO)COP([O-])(=O)OCC[N+](C)(C)C
RETENTIONTIME: 
CCS: -1
IONMODE: Negative
INSTRUMENTTYPE: LC-ESI-ITFT
INSTRUMENT: 
COLLISIONENERGY: 30
Comment: registered in MassBank
Num Peaks: 8
272.67999	6
372.78	15
377.29001	8
458.57999	26
466.09	1000
466.85001	7
481.04001	6
519.84003	9

NAME: Phosphatidylcholine lyso 16
PRECURSORMZ: 526.351428
PRECURSORTYPE: [M+CH3COO]-
FORMULA: C24H50NO7P
Ontology: 2-acyl-sn-glycero-3-phosphocholines
INCHIKEY: NEGQHKSYEYVFTD-UHFFFAOYNA-N
SMILES: CCCCCCCCCCCCCCCC(=O)OC(CO)COP([O-])(=O)OCC[N+](C)(C)C
RETENTIONTIME: 
CCS: -1
IONMODE: Negative
INSTRUMENTTYPE: LC-ESI-ITFT
INSTRUMENT: 
COLLISIONENERGY: 30
Comment: registered in MassBank
Num Peaks: 1
480.04999	1000

NAME: Phosphatidylcholine lyso 16
PRECURSORMZ: 524.335778
PRECURSORTYPE: [M+CH3COO]-
FORMULA: C24H48NO7P
Ontology: 2-acyl-sn-glycero-3-phosphocholines
INCHIKEY: GMEZONVWGDDWOJ-NXVVXOECNA-N
SMILES: CCCCCCCCCCC\C=C/CCC(=O)OC(CO)COP([O-])(=O)OCC[N+](C)(C)C
RETENTIONTIME: 
CCS: -1
IONMODE: Negative
INSTRUMENTTYPE: LC-ESI-ITFT
INSTRUMENT: 
COLLISIONENERGY: 30
Comment: registered in MassBank
Num Peaks: 1
478.07001	1000

NAME: Phosphatidylcholine lyso 17
PRECURSORMZ: 540.367078
PRECURSORTYPE: [M+CH3COO]-
FORMULA: C25H52NO7P
Ontology: 2-acyl-sn-glycero-3-phosphocholines
INCHIKEY: ODFZXVWAVNPFPM-UHFFFAOYNA-N
SMILES: CCCCCCCCCCCCCCCCC(=O)OC(CO)COP([O-])(=O)OCC[N+](C)(C)C
RETENTIONTIME: 
CCS: -1
IONMODE: Negative
INSTRUMENTTYPE: LC-ESI-ITFT
INSTRUMENT: 
COLLISIONENERGY: 30
Comment: registered in MassBank
Num Peaks: 6
325.10001	12
428.95001	10
431.45999	6
452.16	7
480.98999	13
494.16	1000

NAME: Phosphatidylcholine lyso 18
PRECURSORMZ: 554.382728
PRECURSORTYPE: [M+CH3COO]-
FORMULA: C26H54NO7P
Ontology: 2-acyl-sn-glycero-3-phosphocholines
INCHIKEY: IQGPMZRCLCCXAG-UHFFFAOYNA-N
SMILES: CCCCCCCCCCCCCCCCCC(=O)OC(CO)COP([O-])(=O)OCC[N+](C)(C)C
RETENTIONTIME: 
CCS: -1
IONMODE: Negative
INSTRUMENTTYPE: LC-ESI-ITFT
INSTRUMENT: 
COLLISIONENERGY: 30
Comment: registered in MassBank
Num Peaks: 1
508.10001	1000

NAME: Phosphatidylcholine lyso 18
PRECURSORMZ: 552.367078
PRECURSORTYPE: [M+CH3COO]-
FORMULA: C26H52NO7P
Ontology: 2-acyl-sn-glycero-3-phosphocholines
INCHIKEY: WZSWWJLIQCVBRG-ZCXUNETKNA-N
SMILES: CCCCCCCCCCCCC\C=C/CCC(=O)OC(CO)COP([O-])(=O)OCC[N+](C)(C)C
RETENTIONTIME: 
CCS: -1
IONMODE: Negative
INSTRUMENTTYPE: LC-ESI-ITFT
INSTRUMENT: 
COLLISIONENERGY: 30
Comment: registered in MassBank
Num Peaks: 1
506.04999	1000

NAME: Phosphatidylcholine lyso 18
PRECURSORMZ: 550.351428
PRECURSORTYPE: [M+CH3COO]-
FORMULA: C26H50NO7P
Ontology: 2-acyl-sn-glycero-3-phosphocholines
INCHIKEY: HQNGWMLDFPEZSR-NFYLBXPENA-N
SMILES: CCCCCCCCCC\C=C/C\C=C/CCC(=O)OC(CO)COP([O-])(=O)OCC[N+](C)(C)C
RETENTIONTIME: 
CCS: -1
IONMODE: Negative
INSTRUMENTTYPE: LC-ESI-ITFT
INSTRUMENT: 
COLLISIONENERGY: 30
Comment: registered in MassBank
Num Peaks: 3
503.98001	1000
519.03003	10
528.16998	12

NAME: Phosphatidylcholine lyso 18
PRECURSORMZ: 548.335778
PRECURSORTYPE: [M+CH3COO]-
FORMULA: C26H48NO7P
Ontology: 2-acyl-sn-glycero-3-phosphocholines
INCHIKEY: JPMIFOSJPGRLCB-IHDWIWDKNA-N
SMILES: CCCCCCC\C=C/C\C=C/C\C=C/CCC(=O)OC(CO)COP([O-])(=O)OCC[N+](C)(C)C
RETENTIONTIME: 
CCS: -1
IONMODE: Negative
INSTRUMENTTYPE: LC-ESI-ITFT
INSTRUMENT: 
COLLISIONENERGY: 30
Comment: registered in MassBank
Num Peaks: 8
187.11	9
435.14001	21
461.17001	30
489.12	21
501.51999	68
502.17999	1000
532.59998	17
550.45001	16

NAME: Phosphatidylcholine lyso 19
PRECURSORMZ: 568.398378
PRECURSORTYPE: [M+CH3COO]-
FORMULA: C27H56NO7P
Ontology: 2-acyl-sn-glycero-3-phosphocholines
INCHIKEY: FPTNXEGPLIELIU-UHFFFAOYNA-N
SMILES: CCCCCCCCCCCCCCCCCCC(=O)OC(CO)COP([O-])(=O)OCC[N+](C)(C)C
RETENTIONTIME: 
CCS: -1
IONMODE: Negative
INSTRUMENTTYPE: LC-ESI-ITFT
INSTRUMENT: 
COLLISIONENERGY: 30
Comment: registered in MassBank
Num Peaks: 8
232.95	26
241.31	15
391.76999	26
483.98999	8
507.16	10
514.81	23
522.08002	1000
524.71002	16

NAME: Phosphatidylcholine lyso 20
PRECURSORMZ: 582.414028
PRECURSORTYPE: [M+CH3COO]-
FORMULA: C28H58NO7P
Ontology: 2-acyl-sn-glycero-3-phosphocholines
INCHIKEY: WQBSSUPHAAAVSW-UHFFFAOYNA-N
SMILES: CCCCCCCCCCCCCCCCCCCC(=O)OC(CO)COP([O-])(=O)OCC[N+](C)(C)C
RETENTIONTIME: 
CCS: -1
IONMODE: Negative
INSTRUMENTTYPE: LC-ESI-ITFT
INSTRUMENT: 
COLLISIONENERGY: 30
Comment: registered in MassBank
Num Peaks: 5
311.28	7
432.88	25
523.95001	14
536.13	1000
566.01001	15

NAME: Phosphatidylcholine lyso 20
PRECURSORMZ: 580.398378
PRECURSORTYPE: [M+CH3COO]-
FORMULA: C28H56NO7P
Ontology: 2-acyl-sn-glycero-3-phosphocholines
INCHIKEY: IDRKESNUEGURSD-VXPUYCOJNA-N
SMILES: CCCCCCCCCCCCCCC\C=C/CCC(=O)OC(CO)COP([O-])(=O)OCC[N+](C)(C)C
RETENTIONTIME: 
CCS: -1
IONMODE: Negative
INSTRUMENTTYPE: LC-ESI-ITFT
INSTRUMENT: 
COLLISIONENERGY: 30
Comment: registered in MassBank
Num Peaks: 5
317.91	11
520.71002	7
525.62	18
534.13	1000
546.28998	5

NAME: Phosphatidylcholine lyso 20
PRECURSORMZ: 578.382728
PRECURSORTYPE: [M+CH3COO]-
FORMULA: C28H54NO7P
Ontology: 2-acyl-sn-glycero-3-phosphocholines
INCHIKEY: UYFMNJBGVSPBGJ-LTXDKZCQNA-N
SMILES: CCCCCCCCCCCC\C=C/C\C=C/CCC(=O)OC(CO)COP([O-])(=O)OCC[N+](C)(C)C
RETENTIONTIME: 
CCS: -1
IONMODE: Negative
INSTRUMENTTYPE: LC-ESI-ITFT
INSTRUMENT: 
COLLISIONENERGY: 30
Comment: registered in MassBank
Num Peaks: 4
480.14999	19
532.07001	1000
542.39001	13
579.57001	13

NAME: Phosphatidylcholine lyso 20
PRECURSORMZ: 576.367078
PRECURSORTYPE: [M+CH3COO]-
FORMULA: C28H52NO7P
Ontology: 2-acyl-sn-glycero-3-phosphocholines
INCHIKEY: BLWVEPQPFFTFIJ-BYBPBHJYNA-N
SMILES: CCCCCCCCC\C=C/C\C=C/C\C=C/CCC(=O)OC(CO)COP([O-])(=O)OCC[N+](C)(C)C
RETENTIONTIME: 
CCS: -1
IONMODE: Negative
INSTRUMENTTYPE: LC-ESI-ITFT
INSTRUMENT: 
COLLISIONENERGY: 30
Comment: registered in MassBank
Num Peaks: 3
369.06	7
530.03998	1000
545.02002	11

NAME: Phosphatidylcholine lyso 20
PRECURSORMZ: 574.351428
PRECURSORTYPE: [M+CH3COO]-
FORMULA: C28H50NO7P
Ontology: 2-acyl-sn-glycero-3-phosphocholines
INCHIKEY: XHKVQFBZSMLFNL-AILJCPQKNA-N
SMILES: CCCCCC\C=C/C\C=C/C\C=C/C\C=C/CCC(=O)OC(CO)COP([O-])(=O)OCC[N+](C)(C)C
RETENTIONTIME: 
CCS: -1
IONMODE: Negative
INSTRUMENTTYPE: LC-ESI-ITFT
INSTRUMENT: 
COLLISIONENERGY: 30
Comment: registered in MassBank
Num Peaks: 3
527.98999	1000
542.96002	8
552.04999	18

NAME: Phosphatidylcholine lyso 20
PRECURSORMZ: 572.335778
PRECURSORTYPE: [M+CH3COO]-
FORMULA: C28H48NO7P
Ontology: 2-acyl-sn-glycero-3-phosphocholines
INCHIKEY: OYUDYTIZCLNYHF-NEUKSRIFNA-N
SMILES: CCC\C=C/C\C=C/C\C=C/C\C=C/C\C=C/CCC(=O)OC(CO)COP([O-])(=O)OCC[N+](C)(C)C
RETENTIONTIME: 
CCS: -1
IONMODE: Negative
INSTRUMENTTYPE: LC-ESI-ITFT
INSTRUMENT: 
COLLISIONENERGY: 30
Comment: registered in MassBank
Num Peaks: 13
300.64999	9
312.92999	9
329.03	9
366.79001	6
386.29999	6
456.70999	16
457.95999	34
458.95999	46
525.95001	1000
526.62	14
539.97998	8
557.91998	13
567.84003	5

NAME: Phosphatidylcholine lyso 22
PRECURSORMZ: 610.445328
PRECURSORTYPE: [M+CH3COO]-
FORMULA: C30H62NO7P
Ontology: 2-acyl-sn-glycero-3-phosphocholines
INCHIKEY: NTLXEWYXJAAKIX-UHFFFAOYNA-N
SMILES: CCCCCCCCCCCCCCCCCCCCCC(=O)OC(CO)COP([O-])(=O)OCC[N+](C)(C)C
RETENTIONTIME: 
CCS: -1
IONMODE: Negative
INSTRUMENTTYPE: LC-ESI-ITFT
INSTRUMENT: 
COLLISIONENERGY: 30
Comment: registered in MassBank
Num Peaks: 9
385.91	25
432.84	18
456.38	27
462.28	30
466.07001	50
518.70001	23
530.76001	18
557.38	14
564.28003	1000

NAME: Phosphatidylcholine lyso 22
PRECURSORMZ: 598.351428
PRECURSORTYPE: [M+CH3COO]-
FORMULA: C30H50NO7P
Ontology: 2-acyl-sn-glycero-3-phosphocholines
INCHIKEY: FTLVGMFFHDRYDI-WSDBEMKQNA-N
SMILES: CC\C=C/C\C=C/C\C=C/C\C=C/C\C=C/C\C=C/CCC(=O)OC(CO)COP([O-])(=O)OCC[N+](C)(C)C
RETENTIONTIME: 
CCS: -1
IONMODE: Negative
INSTRUMENTTYPE: LC-ESI-ITFT
INSTRUMENT: 
COLLISIONENERGY: 30
Comment: registered in MassBank
Num Peaks: 3
327.03	6
552.08002	1000
566.81	9

NAME: Phosphatidylcholine lyso alkyl 16
PRECURSORMZ: 512.372163
PRECURSORTYPE: [M+CH3COO]-
FORMULA: C24H52NO6P
Ontology: Monoalkylglycerophosphocholines
INCHIKEY: RKKJZVVEVRCBJA-UHFFFAOYNA-N
SMILES: CCCCCCCCCCCCCCCCOC(CO)COP([O-])(=O)OCC[N+](C)(C)C
RETENTIONTIME: 
CCS: -1
IONMODE: Negative
INSTRUMENTTYPE: LC-ESI-ITFT
INSTRUMENT: 
COLLISIONENERGY: 30
Comment: registered in MassBank
Num Peaks: 11
294.98999	5
308.79999	5
441.92001	6
442.76001	6
457.32999	8
465.72	32
466.35001	1000
479.16	6
480.06	8
480.79999	10
482.04999	12

NAME: Phosphatidylcholine lyso alkyl 18
PRECURSORMZ: 540.403463
PRECURSORTYPE: [M+CH3COO]-
FORMULA: C26H56NO6P
Ontology: Monoalkylglycerophosphocholines
INCHIKEY: GGVRMOJUHVWYBR-UHFFFAOYNA-N
SMILES: CCCCCCCCCCCCCCCCCCOC(CO)COP([O-])(=O)OCC[N+](C)(C)C
RETENTIONTIME: 
CCS: -1
IONMODE: Negative
INSTRUMENTTYPE: LC-ESI-ITFT
INSTRUMENT: 
COLLISIONENERGY: 30
Comment: registered in MassBank
Num Peaks: 8
239.39	40
426.81	24
467.20999	29
485.23001	11
494.29001	1000
505.48999	20
523.77002	13
536.40997	27

NAME: Phosphatidylethanolamine 15
PRECURSORMZ: 724.492278
PRECURSORTYPE: [M-H]-
FORMULA: C40H72NO8P
Ontology: Phosphatidylethanolamines
INCHIKEY: LXBLQTXTKDXBMT-UTYDGVOLNA-N
SMILES: CCCCCCCCCCCCCCC(=O)OCC(COP(O)(=O)OCCN)OC(=O)CC\C=C/C\C=C/C\C=C/C\C=C/CCCCCC
RETENTIONTIME: 
CCS: -1
IONMODE: Negative
INSTRUMENTTYPE: LC-ESI-ITFT
INSTRUMENT: 
COLLISIONENERGY: 30
Comment: registered in MassBank
Num Peaks: 11
206.16	44
241.27	202
242.16	20
255.44	15
259.01999	61
303.12	1000
304.13	44
438.04999	193
523.85999	15
581.02002	15
611.08002	18

NAME: Phosphatidylethanolamine 15
PRECURSORMZ: 748.492278
PRECURSORTYPE: [M-H]-
FORMULA: C42H72NO8P
Ontology: Phosphatidylethanolamines
INCHIKEY: WIJRNOBSWIZHST-JTURFRPLNA-N
SMILES: CCCCCCCCCCCCCCC(=O)OCC(COP(O)(=O)OCCN)OC(=O)CC\C=C/C\C=C/C\C=C/C\C=C/C\C=C/C\C=C/CC
RETENTIONTIME: 
CCS: 383.7427226
IONMODE: Negative
INSTRUMENTTYPE: LC-ESI-ITFT
INSTRUMENT: 
COLLISIONENERGY: 30
Comment: registered in MassBank
Num Peaks: 12
230.00999	26
241.05	489
242.11	64
283.14001	635
284.14999	47
327.09	1000
328.20001	137
419.87	26
421.16	39
438.10001	657
439.22	60
523.78998	60

NAME: Phosphatidylethanolamine 16
PRECURSORMZ: 688.492278
PRECURSORTYPE: [M-H]-
FORMULA: C37H72NO8P
Ontology: Phosphatidylethanolamines
INCHIKEY: NJQOUKFMDSLWNH-LCUIJRPUNA-N
SMILES: CCCCCCCCCCCCCCCC(=O)OCC(COP(O)(=O)OCCN)OC(=O)CC\C=C/CCCCCCCCCCC
RETENTIONTIME: 
CCS: -1
IONMODE: Negative
INSTRUMENTTYPE: LC-ESI-ITFT
INSTRUMENT: 
COLLISIONENERGY: 30
Comment: registered in MassBank
Num Peaks: 17
241.32001	22
253.12	1000
254.11	57
255.17999	423
256.12	75
377.89001	12
432.28	18
435.17999	10
449.14001	10
451.25	14
452.23999	125
456.39001	8
464.07001	12
590.5	9
599.28998	7
617.64001	14
668.95001	12

NAME: Phosphatidylethanolamine 16
PRECURSORMZ: 716.523578
PRECURSORTYPE: [M-H]-
FORMULA: C39H76NO8P
Ontology: Phosphatidylethanolamines
INCHIKEY: RECBGBLFDMTQRS-SGEDCAFJNA-N
SMILES: CCCCCCCCCCCCCCCC(=O)OCC(COP(O)(=O)OCCN)OC(=O)CC\C=C/CCCCCCCCCCCCC
RETENTIONTIME: 
CCS: -1
IONMODE: Negative
INSTRUMENTTYPE: LC-ESI-ITFT
INSTRUMENT: 
COLLISIONENERGY: 30
Comment: registered in MassBank
Num Peaks: 7
255.07001	283
281.07999	1000
282.10999	12
434.06	12
452.09	113
460.17001	8
478.12	16

NAME: Phosphatidylethanolamine 16
PRECURSORMZ: 714.507928
PRECURSORTYPE: [M-H]-
FORMULA: C39H74NO8P
Ontology: Phosphatidylethanolamines
INCHIKEY: JXRDSKPCJNWQEG-BAOXYHDDNA-N
SMILES: CCCCCCCCCCCCCCCC(=O)OCC(COP(O)(=O)OCCN)OC(=O)CC\C=C/C\C=C/CCCCCCCCCC
RETENTIONTIME: 
CCS: -1
IONMODE: Negative
INSTRUMENTTYPE: LC-ESI-ITFT
INSTRUMENT: 
COLLISIONENERGY: 30
Comment: registered in MassBank
Num Peaks: 7
255.07001	293
261.07999	6
279.07999	1000
434.17001	6
452.07999	137
458.04001	5
476.26001	12

NAME: Phosphatidylethanolamine 16
PRECURSORMZ: 712.492278
PRECURSORTYPE: [M-H]-
FORMULA: C39H72NO8P
Ontology: Phosphatidylethanolamines
INCHIKEY: BXKYCESYRFZXHJ-FFPWFUNSNA-N
SMILES: CCCCCCCCCCCCCCCC(=O)OCC(COP(O)(=O)OCCN)OC(=O)CC\C=C/C\C=C/C\C=C/CCCCCCC
RETENTIONTIME: 
CCS: -1
IONMODE: Negative
INSTRUMENTTYPE: LC-ESI-ITFT
INSTRUMENT: 
COLLISIONENERGY: 30
Comment: registered in MassBank
Num Peaks: 14
204.73	10
233.06	25
255.12	353
256.14999	31
275.10001	7
277.09	1000
278.16	83
433.06	17
434.04001	6
452.14001	321
456.13	14
457.32999	5
474.14999	12
622.71997	25

NAME: Phosphatidylethanolamine 16
PRECURSORMZ: 744.554879
PRECURSORTYPE: [M-H]-
FORMULA: C41H80NO8P
Ontology: Phosphatidylethanolamines
INCHIKEY: QRLWPEYQYHTNGC-HYOGKJQXNA-N
SMILES: CCCCCCCCCCCCCCC\C=C/CCC(=O)OC(COC(=O)CCCCCCCCCCCCCCC)COP(O)(=O)OCCN
RETENTIONTIME: 
CCS: -1
IONMODE: Negative
INSTRUMENTTYPE: LC-ESI-ITFT
INSTRUMENT: 
COLLISIONENERGY: 30
Comment: registered in MassBank
Num Peaks: 9
255.07001	211
256.28	14
309.10999	1000
310.10999	135
452.01999	99
488.42001	5
506.07999	13
680.76001	45
695.15002	5

NAME: Phosphatidylethanolamine 16
PRECURSORMZ: 740.523578
PRECURSORTYPE: [M-H]-
FORMULA: C41H76NO8P
Ontology: Phosphatidylethanolamines
INCHIKEY: FOZMADPVSAYPHH-PNECARMWNA-N
SMILES: CCCCCCCCCCCCCCCC(=O)OCC(COP(O)(=O)OCCN)OC(=O)CC\C=C/C\C=C/C\C=C/CCCCCCCCC
RETENTIONTIME: 
CCS: -1
IONMODE: Negative
INSTRUMENTTYPE: LC-ESI-ITFT
INSTRUMENT: 
COLLISIONENERGY: 30
Comment: registered in MassBank
Num Peaks: 10
255.08	269
256.10999	19
279.09	20
281.20001	7
303.04001	11
305.04999	1000
306.12	91
452.01001	118
484.10999	5
502.17001	8

NAME: Phosphatidylethanolamine 16
PRECURSORMZ: 738.507928
PRECURSORTYPE: [M-H]-
FORMULA: C41H74NO8P
Ontology: Phosphatidylethanolamines
INCHIKEY: ARFPLDYYIYCLNV-WRDNLCFKNA-N
SMILES: CCCCCCCCCCCCCCCC(=O)OCC(COP(O)(=O)OCCN)OC(=O)CC\C=C/C\C=C/C\C=C/C\C=C/CCCCCC
RETENTIONTIME: 
CCS: -1
IONMODE: Negative
INSTRUMENTTYPE: LC-ESI-ITFT
INSTRUMENT: 
COLLISIONENERGY: 30
Comment: registered in MassBank
Num Peaks: 10
255.03	402
256.17001	13
259.16	68
285.14001	7
303.07999	1000
304.13	20
434.07999	11
452.07001	238
453.10001	13
500.12	22

NAME: Phosphatidylethanolamine 16
PRECURSORMZ: 736.492278
PRECURSORTYPE: [M-H]-
FORMULA: C41H72NO8P
Ontology: Phosphatidylethanolamines
INCHIKEY: QLFZCNOCZYRVAU-JPOVHVJANA-N
SMILES: CCCCCCCCCCCCCCCC(=O)OCC(COP(O)(=O)OCCN)OC(=O)CC\C=C/C\C=C/C\C=C/C\C=C/C\C=C/CCC
RETENTIONTIME: 
CCS: -1
IONMODE: Negative
INSTRUMENTTYPE: LC-ESI-ITFT
INSTRUMENT: 
COLLISIONENERGY: 30
Comment: registered in MassBank
Num Peaks: 11
255.05	518
256.26999	17
257.10999	197
258.13	7
301.03	1000
302.07999	56
434.25	27
452.04001	349
453.12	17
479.95999	20
498.01001	27

NAME: Phosphatidylethanolamine 16
PRECURSORMZ: 766.539229
PRECURSORTYPE: [M-H]-
FORMULA: C43H78NO8P
Ontology: Phosphatidylethanolamines
INCHIKEY: WRJMLLZQXDAGES-ASOJYNRJNA-N
SMILES: CCCCCCCCCCCCCCCC(=O)OCC(COP(O)(=O)OCCN)OC(=O)CC\C=C/C\C=C/C\C=C/C\C=C/CCCCCCCC
RETENTIONTIME: 
CCS: -1
IONMODE: Negative
INSTRUMENTTYPE: LC-ESI-ITFT
INSTRUMENT: 
COLLISIONENERGY: 30
Comment: registered in MassBank
Num Peaks: 22
255.09	363
281.14999	135
281.79001	7
283.16	108
286.89001	23
303.04001	46
304.17001	8
305.20999	167
306.37	36
331.10001	1000
332.22	181
393.32001	15
452.20001	152
453.39999	50
477.88	82
482.09	9
506.26999	20
510.16	23
527.96997	65
529.15002	38
692.48999	8
746.76001	24

NAME: Phosphatidylethanolamine 16
PRECURSORMZ: 762.507928
PRECURSORTYPE: [M-H]-
FORMULA: C43H74NO8P
Ontology: Phosphatidylethanolamines
INCHIKEY: MPWUZHVZZKSTPV-LGFBOSHVNA-N
SMILES: CCCCCCCCCCCCCCCC(=O)OCC(COP(O)(=O)OCCN)OC(=O)CC\C=C/C\C=C/C\C=C/C\C=C/C\C=C/C\C=C/CC
RETENTIONTIME: 
CCS: 364.4650752
IONMODE: Negative
INSTRUMENTTYPE: LC-ESI-ITFT
INSTRUMENT: 
COLLISIONENERGY: 30
Comment: registered in MassBank
Num Peaks: 14
229.08	29
248.96001	12
255.07001	661
255.98	71
283.04999	492
284.10001	56
309.12	7
327.07999	1000
328.09	125
434.19	17
452.04999	423
453.13	63
506.04001	11
524	34

NAME: Phosphatidylethanolamine 16
PRECURSORMZ: 712.492278
PRECURSORTYPE: [M-H]-
FORMULA: C39H72NO8P
Ontology: Phosphatidylethanolamines
INCHIKEY: FRABUNWXDQTBFH-XTKKSKBQNA-N
SMILES: CCCCCCCCCCC\C=C/CCC(=O)OCC(COP(O)(=O)OCCN)OC(=O)CC\C=C/C\C=C/CCCCCCCCCC
RETENTIONTIME: 
CCS: -1
IONMODE: Negative
INSTRUMENTTYPE: LC-ESI-ITFT
INSTRUMENT: 
COLLISIONENERGY: 30
Comment: registered in MassBank
Num Peaks: 11
253.17	349
254.11	36
261.04001	11
279.10001	1000
280.17001	186
432.14999	6
450.20999	155
507.98999	5
525.89001	12
536.34998	5
661.82001	16

NAME: Phosphatidylethanolamine 16
PRECURSORMZ: 736.492278
PRECURSORTYPE: [M-H]-
FORMULA: C41H72NO8P
Ontology: Phosphatidylethanolamines
INCHIKEY: TUAWQIYXFSBSNQ-RQDZWXAXNA-N
SMILES: CCCCCCCCCCC\C=C/CCC(=O)OCC(COP(O)(=O)OCCN)OC(=O)CC\C=C/C\C=C/C\C=C/C\C=C/CCCCCC
RETENTIONTIME: 
CCS: -1
IONMODE: Negative
INSTRUMENTTYPE: LC-ESI-ITFT
INSTRUMENT: 
COLLISIONENERGY: 30
Comment: registered in MassBank
Num Peaks: 21
253.06	400
254.03999	77
259.14001	44
260.03	19
275.17999	40
277.17999	7
281.29999	20
285.19	7
303.07001	1000
304.23001	139
329.12	17
389.10999	15
432	68
450.01001	242
451.12	16
472.29999	6
482.03	26
500.19	32
531.89001	12
617.90002	10
662.15002	44

NAME: Phosphatidylethanolamine 16
PRECURSORMZ: 734.476628
PRECURSORTYPE: [M-H]-
FORMULA: C41H70NO8P
Ontology: Phosphatidylethanolamines
INCHIKEY: ACLGJPXDLXCCME-YJWVUPOONA-N
SMILES: CCCCCCCCCCC\C=C/CCC(=O)OCC(COP(O)(=O)OCCN)OC(=O)CC\C=C/C\C=C/C\C=C/C\C=C/C\C=C/CCC
RETENTIONTIME: 
CCS: -1
IONMODE: Negative
INSTRUMENTTYPE: LC-ESI-ITFT
INSTRUMENT: 
COLLISIONENERGY: 30
Comment: registered in MassBank
Num Peaks: 15
253.11	413
254.13	82
257.07001	101
258	11
258.98999	26
301.10999	1000
302.16	214
448.78	48
449.89999	143
577.58002	40
636.81	56
651.65002	21
673.06	19
673.81	45
674.77002	29

NAME: Phosphatidylethanolamine 16
PRECURSORMZ: 760.492278
PRECURSORTYPE: [M-H]-
FORMULA: C43H72NO8P
Ontology: Phosphatidylethanolamines
INCHIKEY: ZJBSZOUPRJVSRB-SIEWZCRLNA-N
SMILES: CCCCCCCCCCC\C=C/CCC(=O)OCC(COP(O)(=O)OCCN)OC(=O)CC\C=C/C\C=C/C\C=C/C\C=C/C\C=C/C\C=C/CC
RETENTIONTIME: 
CCS: -1
IONMODE: Negative
INSTRUMENTTYPE: LC-ESI-ITFT
INSTRUMENT: 
COLLISIONENERGY: 30
Comment: registered in MassBank
Num Peaks: 23
229.19	45
249.11	19
253.03999	669
254.2	107
279.13	6
283.16	432
284.07001	66
300.94	41
303.23999	8
327.09	1000
328.09	134
389.20001	6
432.17999	17
450.04999	584
451.17999	30
466.13	8
474.03	5
475.81	7
505.98999	10
524.17999	28
640.48999	8
678.48999	5
740.84003	5

NAME: Phosphatidylethanolamine 17
PRECURSORMZ: 728.523578
PRECURSORTYPE: [M-H]-
FORMULA: C40H76NO8P
Ontology: Phosphatidylethanolamines
INCHIKEY: FGLSWIGNKJQROW-FTRFHSPVNA-N
SMILES: CCCCCCCCCCCCCCCCC(=O)OCC(COP(O)(=O)OCCN)OC(=O)CC\C=C/C\C=C/CCCCCCCCCC
RETENTIONTIME: 
CCS: -1
IONMODE: Negative
INSTRUMENTTYPE: LC-ESI-ITFT
INSTRUMENT: 
COLLISIONENERGY: 30
Comment: registered in MassBank
Num Peaks: 8
269.16	296
270.19	26
279.07999	1000
280.09	124
457.66	6
466.06	151
467.23001	26
476.26001	10

NAME: Phosphatidylethanolamine 17
PRECURSORMZ: 754.539229
PRECURSORTYPE: [M-H]-
FORMULA: C42H78NO8P
Ontology: Phosphatidylethanolamines
INCHIKEY: VDLZAIRAJICUJV-FMYBJREMNA-N
SMILES: CCCCCCCCCCCCCCCCC(=O)OCC(COP(O)(=O)OCCN)OC(=O)CC\C=C/C\C=C/C\C=C/CCCCCCCCC
RETENTIONTIME: 
CCS: -1
IONMODE: Negative
INSTRUMENTTYPE: LC-ESI-ITFT
INSTRUMENT: 
COLLISIONENERGY: 30
Comment: registered in MassBank
Num Peaks: 11
261.42001	19
269.28	266
270.04999	72
280.19	14
305.17001	1000
306.22	96
320.12	17
448	38
466.23001	144
549.10999	29
669.78003	48

NAME: Phosphatidylethanolamine 17
PRECURSORMZ: 752.523578
PRECURSORTYPE: [M-H]-
FORMULA: C42H76NO8P
Ontology: Phosphatidylethanolamines
INCHIKEY: LUNHOOJLWJQRDB-VTJLAKARNA-N
SMILES: CCCCCCCCCCCCCCCCC(=O)OCC(COP(O)(=O)OCCN)OC(=O)CC\C=C/C\C=C/C\C=C/C\C=C/CCCCCC
RETENTIONTIME: 
CCS: -1
IONMODE: Negative
INSTRUMENTTYPE: LC-ESI-ITFT
INSTRUMENT: 
COLLISIONENERGY: 30
Comment: registered in MassBank
Num Peaks: 12
259.20001	61
260.20001	11
269.13	350
270.17001	33
303.09	1000
304.20001	85
329.14001	8
448.13	15
464.42999	6
466.06	273
466.94	19
499.95999	17

NAME: Phosphatidylethanolamine 17
PRECURSORMZ: 776.523578
PRECURSORTYPE: [M-H]-
FORMULA: C44H76NO8P
Ontology: Phosphatidylethanolamines
INCHIKEY: WVGREBRFGJNLSB-KAFSZNKPNA-N
SMILES: CCCCCCCCCCCCCCCCC(=O)OCC(COP(O)(=O)OCCN)OC(=O)CC\C=C/C\C=C/C\C=C/C\C=C/C\C=C/C\C=C/CC
RETENTIONTIME: 
CCS: -1
IONMODE: Negative
INSTRUMENTTYPE: LC-ESI-ITFT
INSTRUMENT: 
COLLISIONENERGY: 30
Comment: registered in MassBank
Num Peaks: 23
229.24001	8
249.36	9
250.23	15
257.17999	7
269.17001	911
270.16	88
282.64999	53
283.28	562
284.17001	90
307.17001	13
309.20999	21
327.10001	1000
328.10999	145
329.16	33
418.91	22
448.10001	29
466.16	599
467.10999	74
506	21
506.91	8
523.82001	42
538.09003	26
599.52002	9

NAME: Phosphatidylethanolamine 17
PRECURSORMZ: 726.507928
PRECURSORTYPE: [M-H]-
FORMULA: C40H74NO8P
Ontology: Phosphatidylethanolamines
INCHIKEY: NXIAGSLBMLOYBM-ONGBHLIUNA-N
SMILES: CCCCCCCCCCCC\C=C/CCC(=O)OCC(COP(O)(=O)OCCN)OC(=O)CC\C=C/C\C=C/CCCCCCCCCC
RETENTIONTIME: 
CCS: -1
IONMODE: Negative
INSTRUMENTTYPE: LC-ESI-ITFT
INSTRUMENT: 
COLLISIONENERGY: 30
Comment: registered in MassBank
Num Peaks: 8
261.04001	11
267.22	281
268.17001	68
279.20001	1000
280.17001	177
281.20001	38
464.01999	81
465.34	9

NAME: Phosphatidylethanolamine 17
PRECURSORMZ: 774.507928
PRECURSORTYPE: [M-H]-
FORMULA: C44H74NO8P
Ontology: Phosphatidylethanolamines
INCHIKEY: PKKFLKWXJRZTFJ-YZIPONAMNA-N
SMILES: CCCCCCCCCCCC\C=C/CCC(=O)OCC(COP(O)(=O)OCCN)OC(=O)CC\C=C/C\C=C/C\C=C/C\C=C/C\C=C/C\C=C/CC
RETENTIONTIME: 
CCS: -1
IONMODE: Negative
INSTRUMENTTYPE: LC-ESI-ITFT
INSTRUMENT: 
COLLISIONENERGY: 30
Comment: registered in MassBank
Num Peaks: 22
229.47	18
267.07999	523
268.23999	124
283.14999	449
284.25	112
309.20001	20
327.14999	1000
328.19	244
358.98999	18
404.60001	38
446.35001	46
464.14001	518
465.17999	79
490.66	25
523.90002	43
537.83002	20
626.78998	25
627.79999	23
692.07001	36
699.54999	25
714.07001	51
714.81	20

NAME: Phosphatidylethanolamine 18
PRECURSORMZ: 718.539229
PRECURSORTYPE: [M-H]-
FORMULA: C39H78NO8P
Ontology: Phosphatidylethanolamines
INCHIKEY: JRTZGTYHEHCHTM-UHFFFAOYNA-N
SMILES: CCCCCCCCCCCCCCCCCC(=O)OCC(COP(O)(=O)OCCN)OC(=O)CCCCCCCCCCCCCCC
RETENTIONTIME: 
CCS: 342.469734
IONMODE: Negative
INSTRUMENTTYPE: LC-ESI-ITFT
INSTRUMENT: 
COLLISIONENERGY: 30
Comment: registered in MassBank
Num Peaks: 14
255.10001	1000
256.31	25
283.22	393
284.23999	75
368.92001	29
434.17999	25
462.12	61
463.07001	10
480.10001	107
635.54999	106
636.41998	17
654.79999	17
686.78003	19
687.64001	31

NAME: Phosphatidylethanolamine 18
PRECURSORMZ: 746.570529
PRECURSORTYPE: [M-H]-
FORMULA: C41H82NO8P
Ontology: Phosphatidylethanolamines
INCHIKEY: LVNGJLRDBYCPGB-UHFFFAOYNA-N
SMILES: CCCCCCCCCCCCCCCCCC(=O)OCC(COP(O)(=O)OCCN)OC(=O)CCCCCCCCCCCCCCCCC
RETENTIONTIME: 
CCS: 348.7175943
IONMODE: Negative
INSTRUMENTTYPE: LC-ESI-ITFT
INSTRUMENT: 
COLLISIONENERGY: 30
Comment: registered in MassBank
Num Peaks: 10
281.07999	133
283.38	1000
423.29001	156
463.97	222
480.03	200
582.14001	244
582.85999	111
664.67999	467
681.14001	311
683.04999	422

NAME: Phosphatidylethanolamine 18
PRECURSORMZ: 744.554879
PRECURSORTYPE: [M-H]-
FORMULA: C41H80NO8P
Ontology: Phosphatidylethanolamines
INCHIKEY: YNUVHPZRNQDFHS-HYOGKJQXNA-N
SMILES: CCCCCCCCCCCCCCCCCC(=O)OCC(COP(O)(=O)OCCN)OC(=O)CC\C=C/CCCCCCCCCCCCC
RETENTIONTIME: 
CCS: -1
IONMODE: Negative
INSTRUMENTTYPE: LC-ESI-ITFT
INSTRUMENT: 
COLLISIONENERGY: 30
Comment: registered in MassBank
Num Peaks: 9
281.06	1000
282.16	75
283.07999	331
284.23999	20
460.04999	7
462.09	6
478.12	15
480.09	104
481.23999	14

NAME: Phosphatidylethanolamine 18
PRECURSORMZ: 742.539229
PRECURSORTYPE: [M-H]-
FORMULA: C41H78NO8P
Ontology: Phosphatidylethanolamines
INCHIKEY: CJVLBVKIFVTUPS-JSCMVKKRNA-N
SMILES: CCCCCCCCCCCCCCCCCC(=O)OCC(COP(O)(=O)OCCN)OC(=O)CC\C=C/C\C=C/CCCCCCCCCC
RETENTIONTIME: 
CCS: -1
IONMODE: Negative
INSTRUMENTTYPE: LC-ESI-ITFT
INSTRUMENT: 
COLLISIONENERGY: 30
Comment: registered in MassBank
Num Peaks: 9
261.07001	6
279.10001	1000
280.20001	137
283.14001	384
284.07999	56
462.16	13
476.04999	17
480.10999	127
481.17999	31

NAME: Phosphatidylethanolamine 18
PRECURSORMZ: 740.523578
PRECURSORTYPE: [M-H]-
FORMULA: C41H76NO8P
Ontology: Phosphatidylethanolamines
INCHIKEY: LXDJYUCSACQJRW-FQQNHZGCNA-N
SMILES: CCCCCCCCCCCCCCCCCC(=O)OCC(COP(O)(=O)OCCN)OC(=O)CC\C=C/C\C=C/C\C=C/CCCCCCC
RETENTIONTIME: 
CCS: -1
IONMODE: Negative
INSTRUMENTTYPE: LC-ESI-ITFT
INSTRUMENT: 
COLLISIONENERGY: 30
Comment: registered in MassBank
Num Peaks: 16
254.95	15
258.84	6
277.03	1000
278.17999	137
279.26999	41
281.07001	6
283.14001	519
284.20999	24
305.14001	170
306.35001	14
452.01001	44
462.17999	26
476.25	7
480.14001	279
481.35001	17
484.34	7

NAME: Phosphatidylethanolamine 18
PRECURSORMZ: 772.586179
PRECURSORTYPE: [M-H]-
FORMULA: C43H84NO8P
Ontology: Phosphatidylethanolamines
INCHIKEY: HCYMNYLUWGMUCG-GCUVURNUNA-N
SMILES: CCCCCCCCCCCCCCCCCC(=O)OCC(COP(O)(=O)OCCN)OC(=O)CC\C=C/CCCCCCCCCCCCCCC
RETENTIONTIME: 
CCS: -1
IONMODE: Negative
INSTRUMENTTYPE: LC-ESI-ITFT
INSTRUMENT: 
COLLISIONENERGY: 30
Comment: registered in MassBank
Num Peaks: 9
283.20001	266
284.17999	32
309.10001	1000
310.14999	178
462.04001	6
480.17999	123
481.07999	7
488.39001	8
505.79001	6

NAME: Phosphatidylethanolamine 18
PRECURSORMZ: 768.554879
PRECURSORTYPE: [M-H]-
FORMULA: C43H80NO8P
Ontology: Phosphatidylethanolamines
INCHIKEY: BDESLISUEJTDHD-JCXYTCFZNA-N
SMILES: CCCCCCCCCCCCCCCCCC(=O)OCC(COP(O)(=O)OCCN)OC(=O)CC\C=C/C\C=C/C\C=C/CCCCCCCCC
RETENTIONTIME: 
CCS: -1
IONMODE: Negative
INSTRUMENTTYPE: LC-ESI-ITFT
INSTRUMENT: 
COLLISIONENERGY: 30
Comment: registered in MassBank
Num Peaks: 10
260.95999	7
283.12	404
284.14999	34
305.04001	1000
306.13	80
462.25	15
480.09	141
481.16	11
484.04999	9
501.98001	10

NAME: Phosphatidylethanolamine 18
PRECURSORMZ: 766.539229
PRECURSORTYPE: [M-H]-
FORMULA: C43H78NO8P
Ontology: Phosphatidylethanolamines
INCHIKEY: VUDFSDNQOHMQTE-NQWSYULSNA-N
SMILES: CCCCCCCCCCCCCCCCCC(=O)OCC(COP(O)(=O)OCCN)OC(=O)CC\C=C/C\C=C/C\C=C/C\C=C/CCCCCC
RETENTIONTIME: 
CCS: -1
IONMODE: Negative
INSTRUMENTTYPE: LC-ESI-ITFT
INSTRUMENT: 
COLLISIONENERGY: 30
Comment: registered in MassBank
Num Peaks: 7
259.04001	66
283.14999	479
303.04999	1000
462.06	11
480.04999	263
481.95001	11
500.06	17

NAME: Phosphatidylethanolamine 18
PRECURSORMZ: 794.570529
PRECURSORTYPE: [M-H]-
FORMULA: C45H82NO8P
Ontology: Phosphatidylethanolamines
INCHIKEY: QDYAMUDPRJZWQB-BPSDUUPONA-N
SMILES: CCCCCCCCCCCCCCCCCC(=O)OCC(COP(O)(=O)OCCN)OC(=O)CC\C=C/C\C=C/C\C=C/C\C=C/CCCCCCCC
RETENTIONTIME: 
CCS: -1
IONMODE: Negative
INSTRUMENTTYPE: LC-ESI-ITFT
INSTRUMENT: 
COLLISIONENERGY: 30
Comment: registered in MassBank
Num Peaks: 17
233.33	6
283.14999	340
284.20001	44
287.32999	23
311.26999	8
331.04001	1000
332.10999	145
462.01999	18
480.16	158
481.32999	16
508.20999	6
509.82001	10
511.04001	7
528.13	13
594.56	9
719.64001	11
730.78003	33

NAME: Phosphatidylethanolamine 18
PRECURSORMZ: 792.554879
PRECURSORTYPE: [M-H]-
FORMULA: C45H80NO8P
Ontology: Phosphatidylethanolamines
INCHIKEY: DPRXQVIZBLENFV-WZARRQHINA-N
SMILES: CCCCCCCCCCCCCCCCCC(=O)OCC(COP(O)(=O)OCCN)OC(=O)CC\C=C/C\C=C/C\C=C/C\C=C/C\C=C/CCCCC
RETENTIONTIME: 
CCS: 400.5178659
IONMODE: Negative
INSTRUMENTTYPE: LC-ESI-ITFT
INSTRUMENT: 
COLLISIONENERGY: 30
Comment: registered in MassBank
Num Peaks: 16
283.12	605
284.07001	121
285.17999	337
286.16	117
311.03	20
329.13	1000
330.22	227
346.29001	18
462.82999	18
480.17001	198
481.13	18
482.03	14
508.16	33
586.46997	63
627.71002	18
640.54999	12

NAME: Phosphatidylethanolamine 18
PRECURSORMZ: 790.539229
PRECURSORTYPE: [M-H]-
FORMULA: C45H78NO8P
Ontology: Phosphatidylethanolamines
INCHIKEY: XYYHNDVKALDFHQ-HSBBONCLNA-N
SMILES: CCCCCCCCCCCCCCCCCC(=O)OCC(COP(O)(=O)OCCN)OC(=O)CC\C=C/C\C=C/C\C=C/C\C=C/C\C=C/C\C=C/CC
RETENTIONTIME: 
CCS: 396.325474
IONMODE: Negative
INSTRUMENTTYPE: LC-ESI-ITFT
INSTRUMENT: 
COLLISIONENERGY: 30
Comment: registered in MassBank
Num Peaks: 11
229.23	7
249.22	7
283.12	1000
284.29999	102
327.01001	686
328.04001	71
462.16	14
480.01999	402
481.10001	47
506.09	20
524.10999	7

NAME: Phosphatidylethanolamine 18
PRECURSORMZ: 740.523578
PRECURSORTYPE: [M-H]-
FORMULA: C41H76NO8P
Ontology: Phosphatidylethanolamines
INCHIKEY: SDQYMWWODQDLBO-XBCPOCNBNA-N
SMILES: CCCCCCCCCCCCC\C=C/CCC(=O)OCC(COP(O)(=O)OCCN)OC(=O)CC\C=C/C\C=C/CCCCCCCCCC
RETENTIONTIME: 
CCS: -1
IONMODE: Negative
INSTRUMENTTYPE: LC-ESI-ITFT
INSTRUMENT: 
COLLISIONENERGY: 30
Comment: registered in MassBank
Num Peaks: 7
279.09	1000
280.39001	81
281.10999	323
282.01999	22
475.98999	21
478.04999	111
478.98999	15

NAME: Phosphatidylethanolamine 18
PRECURSORMZ: 758.570529
PRECURSORTYPE: [M-H]-
FORMULA: C42H82NO8P
Ontology: Phosphatidylethanolamines
INCHIKEY: VDFCHVPNRGGNPX-HYOGKJQXNA-N
SMILES: CCCCCCCCCCCCCCCCCCC(=O)OC(COC(=O)CC\C=C/CCCCCCCCCCCCC)COP(O)(=O)OCCN
RETENTIONTIME: 
CCS: -1
IONMODE: Negative
INSTRUMENTTYPE: LC-ESI-ITFT
INSTRUMENT: 
COLLISIONENERGY: 30
Comment: registered in MassBank
Num Peaks: 5
281.35001	333
297.23001	500
494.29001	333
675.82001	1000
676.78003	444

NAME: Phosphatidylethanolamine 18
PRECURSORMZ: 770.570529
PRECURSORTYPE: [M-H]-
FORMULA: C43H82NO8P
Ontology: Phosphatidylethanolamines
INCHIKEY: UVYKYAJJWJKGHK-SZDCHMHBNA-N
SMILES: CCCCCCCCCCCCCCC\C=C/CCC(=O)OC(COC(=O)CC\C=C/CCCCCCCCCCCCC)COP(O)(=O)OCCN
RETENTIONTIME: 
CCS: -1
IONMODE: Negative
INSTRUMENTTYPE: LC-ESI-ITFT
INSTRUMENT: 
COLLISIONENERGY: 30
Comment: registered in MassBank
Num Peaks: 14
281	294
282.32001	26
284.07001	11
305.14001	24
309.09	1000
310.23001	156
389.51999	7
446.29001	9
478.07001	96
479.12	51
505.85999	19
576.60999	33
672.08002	9
676.73999	16

NAME: Phosphatidylethanolamine 18
PRECURSORMZ: 768.554879
PRECURSORTYPE: [M-H]-
FORMULA: C43H80NO8P
Ontology: Phosphatidylethanolamines
INCHIKEY: IJPGDTSEDOEETE-QGRKPBPINA-N
SMILES: CCCCCCCCCCCCC\C=C/CCC(=O)OCC(COP(O)(=O)OCCN)OC(=O)CC\C=C/C\C=C/CCCCCCCCCCCC
RETENTIONTIME: 
CCS: -1
IONMODE: Negative
INSTRUMENTTYPE: LC-ESI-ITFT
INSTRUMENT: 
COLLISIONENERGY: 30
Comment: registered in MassBank
Num Peaks: 19
279.39001	32
281.26001	228
282.12	42
283.35001	23
303.95999	13
307.12	1000
308.19	178
309.23001	23
335.32999	36
336.22	13
460.19	34
466.87	34
478.29999	61
478.97	38
480.23001	42
506.20999	44
507.28	13
630.75	30
666.35999	23

NAME: Phosphatidylethanolamine 18
PRECURSORMZ: 764.523578
PRECURSORTYPE: [M-H]-
FORMULA: C43H76NO8P
Ontology: Phosphatidylethanolamines
INCHIKEY: QBVUKWXEFSHJOQ-MOYSMJPMNA-N
SMILES: CCCCCCCCCCCCC\C=C/CCC(=O)OCC(COP(O)(=O)OCCN)OC(=O)CC\C=C/C\C=C/C\C=C/C\C=C/CCCCCC
RETENTIONTIME: 
CCS: -1
IONMODE: Negative
INSTRUMENTTYPE: LC-ESI-ITFT
INSTRUMENT: 
COLLISIONENERGY: 30
Comment: registered in MassBank
Num Peaks: 8
259.17001	88
281.12	505
303.10999	1000
328.04001	7
460.12	30
478.20001	272
481.92999	18
499.98001	19

NAME: Phosphatidylethanolamine 18
PRECURSORMZ: 762.507928
PRECURSORTYPE: [M-H]-
FORMULA: C43H74NO8P
Ontology: Phosphatidylethanolamines
INCHIKEY: MQYQFMSHGWBKBV-XKMJRSRDNA-N
SMILES: CCCCCCCCCCCCC\C=C/CCC(=O)OCC(COP(O)(=O)OCCN)OC(=O)CC\C=C/C\C=C/C\C=C/C\C=C/C\C=C/CCC
RETENTIONTIME: 
CCS: -1
IONMODE: Negative
INSTRUMENTTYPE: LC-ESI-ITFT
INSTRUMENT: 
COLLISIONENERGY: 30
Comment: registered in MassBank
Num Peaks: 28
255.13	32
256.32999	27
257.16	235
258.22	48
259.20001	10
279.17001	113
281.09	853
282.13	81
301.03	1000
302.09	204
302.97	118
304.19	51
326.06	28
329.12	17
452.67999	17
454.22	15
455.06	9
460.14001	18
474.13	10
476.12	54
476.91	14
478.10999	355
479.22	69
480.10001	39
481.22	9
498.01001	44
525.21997	8
688.03003	6

NAME: Phosphatidylethanolamine 18
PRECURSORMZ: 798.601829
PRECURSORTYPE: [M-H]-
FORMULA: C45H86NO8P
Ontology: Phosphatidylethanolamines
INCHIKEY: URZHPEMDTOWQOA-WANSBIPINA-N
SMILES: CCCCCCCCCCCCCCCCC\C=C/CCC(=O)OC(COC(=O)CC\C=C/CCCCCCCCCCCCC)COP(O)(=O)OCCN
RETENTIONTIME: 
CCS: -1
IONMODE: Negative
INSTRUMENTTYPE: LC-ESI-ITFT
INSTRUMENT: 
COLLISIONENERGY: 30
Comment: registered in MassBank
Num Peaks: 12
281.14001	520
306.53	71
309.17999	136
337.17999	1000
338.13	418
478.01999	40
506.73001	34
516.82001	59
533.95001	23
618.77002	34
634.77002	48
693.85999	51

NAME: Phosphatidylethanolamine 18
PRECURSORMZ: 792.554879
PRECURSORTYPE: [M-H]-
FORMULA: C45H80NO8P
Ontology: Phosphatidylethanolamines
INCHIKEY: XBPHCFQOKKXKHJ-IVJZGABJNA-N
SMILES: CCCCCCCCCCCCC\C=C/CCC(=O)OCC(COP(O)(=O)OCCN)OC(=O)CC\C=C/C\C=C/C\C=C/C\C=C/CCCCCCCC
RETENTIONTIME: 
CCS: -1
IONMODE: Negative
INSTRUMENTTYPE: LC-ESI-ITFT
INSTRUMENT: 
COLLISIONENERGY: 30
Comment: registered in MassBank
Num Peaks: 18
254.96001	17
278.95001	34
281.22	390
282	13
283.26999	28
287.20999	26
306.28	15
327.22	58
328.09	56
329.26001	45
331.07999	1000
332.06	317
414.79001	39
478.32001	148
481.25	30
528.37	17
689.56	45
690.59998	24

NAME: Phosphatidylethanolamine 18
PRECURSORMZ: 788.523578
PRECURSORTYPE: [M-H]-
FORMULA: C45H76NO8P
Ontology: Phosphatidylethanolamines
INCHIKEY: VPTWUJPVIKSANV-QRPORDCINA-N
SMILES: CCCCCCCCCCCCC\C=C/CCC(=O)OCC(COP(O)(=O)OCCN)OC(=O)CC\C=C/C\C=C/C\C=C/C\C=C/C\C=C/C\C=C/CC
RETENTIONTIME: 
CCS: -1
IONMODE: Negative
INSTRUMENTTYPE: LC-ESI-ITFT
INSTRUMENT: 
COLLISIONENERGY: 30
Comment: registered in MassBank
Num Peaks: 14
229.03	19
248.99001	11
281.07001	788
282.34	117
283.01001	512
284.23001	35
291.23001	6
327.12	1000
328.13	76
460.12	38
478.04999	488
479.06	46
506.34	14
524.03003	44

NAME: Phosphatidylethanolamine 18
PRECURSORMZ: 762.507928
PRECURSORTYPE: [M-H]-
FORMULA: C43H74NO8P
Ontology: Phosphatidylethanolamines
INCHIKEY: VTQZPEHDNCIYJA-IPVVXUKZNA-N
SMILES: CCCCCCCCCC\C=C/C\C=C/CCC(=O)OCC(COP(O)(=O)OCCN)OC(=O)CC\C=C/C\C=C/C\C=C/C\C=C/CCCCCC
RETENTIONTIME: 
CCS: -1
IONMODE: Negative
INSTRUMENTTYPE: LC-ESI-ITFT
INSTRUMENT: 
COLLISIONENERGY: 30
Comment: registered in MassBank
Num Peaks: 17
259.10999	78
260.29001	11
279.10999	476
280.10001	79
284.89001	5
303.09	1000
304.22	160
327.06	5
329.14999	9
330.42001	9
458.03	21
476.14999	187
477.14999	31
482.16	18
499.94	7
685.29999	8
688.37	13

NAME: Phosphatidylethanolamine 18
PRECURSORMZ: 760.492278
PRECURSORTYPE: [M-H]-
FORMULA: C43H72NO8P
Ontology: Phosphatidylethanolamines
INCHIKEY: NZDVQHVTTWTVMW-DFEPEIOWNA-N
SMILES: CCCCCCCCCC\C=C/C\C=C/CCC(=O)OCC(COP(O)(=O)OCCN)OC(=O)CC\C=C/C\C=C/C\C=C/C\C=C/C\C=C/CCC
RETENTIONTIME: 
CCS: -1
IONMODE: Negative
INSTRUMENTTYPE: LC-ESI-ITFT
INSTRUMENT: 
COLLISIONENERGY: 30
Comment: registered in MassBank
Num Peaks: 22
223.95	17
257.26001	125
258.04999	17
259.20999	17
276.53	49
277.17001	237
278.07999	81
279.09	660
280.20999	122
282.92999	12
285.03	64
301.17001	1000
302.20001	152
303.14001	567
304.34	110
458.03	93
473.97	139
475.01001	103
476.01001	306
477.16	98
479.97	44
554.91998	17

NAME: Phosphatidylethanolamine 18
PRECURSORMZ: 786.507928
PRECURSORTYPE: [M-H]-
FORMULA: C45H74NO8P
Ontology: Phosphatidylethanolamines
INCHIKEY: UWCJYOTVTHYMRF-XPMHQQHXNA-N
SMILES: CCCCCCCCCC\C=C/C\C=C/CCC(=O)OCC(COP(O)(=O)OCCN)OC(=O)CC\C=C/C\C=C/C\C=C/C\C=C/C\C=C/C\C=C/CC
RETENTIONTIME: 
CCS: -1
IONMODE: Negative
INSTRUMENTTYPE: LC-ESI-ITFT
INSTRUMENT: 
COLLISIONENERGY: 30
Comment: registered in MassBank
Num Peaks: 22
229.09	20
240.44	6
249.17999	8
259.10001	17
279.07999	868
280.19	65
281.06	5
283.10001	560
284.23001	78
303.07001	158
309.10999	11
326.98999	1000
328.16	119
457.97	27
459	5
476.09	574
477.13	82
500.10999	29
501.10001	12
506.09	26
524	30
525.03998	11

NAME: Phosphatidylethanolamine 18
PRECURSORMZ: 736.492278
PRECURSORTYPE: [M-H]-
FORMULA: C41H72NO8P
Ontology: Phosphatidylethanolamines
INCHIKEY: HIQJFUWUAGQURV-FOPRJHBCNA-N
SMILES: CCCCCCCCCC\C=C/C\C=C/CCC(=O)OC(COC(=O)CC\C=C/C\C=C/C\C=C/CCCCCCC)COP(O)(=O)OCCN
RETENTIONTIME: 
CCS: -1
IONMODE: Negative
INSTRUMENTTYPE: LC-ESI-ITFT
INSTRUMENT: 
COLLISIONENERGY: 30
Comment: registered in MassBank
Num Peaks: 8
277.19	350
279.10001	1000
280.13	109
371.82001	7
451.95001	15
474.01999	147
475.13	12
674.92999	13

NAME: Phosphatidylethanolamine 18
PRECURSORMZ: 784.492278
PRECURSORTYPE: [M-H]-
FORMULA: C45H72NO8P
Ontology: Phosphatidylethanolamines
INCHIKEY: QHBRBPVFJNFNGF-CMKTUIRZNA-N
SMILES: CCCCCCC\C=C/C\C=C/C\C=C/CCC(=O)OCC(COP(O)(=O)OCCN)OC(=O)CC\C=C/C\C=C/C\C=C/C\C=C/C\C=C/C\C=C/CC
RETENTIONTIME: 
CCS: -1
IONMODE: Negative
INSTRUMENTTYPE: LC-ESI-ITFT
INSTRUMENT: 
COLLISIONENERGY: 30
Comment: registered in MassBank
Num Peaks: 17
229.22	50
249.14999	69
277.13	579
278.01001	195
279.25	94
283.06	1000
283.75	346
302.5	38
327.14001	604
328.14001	208
375.57999	57
473.44	101
474.23001	365
475.39999	50
486.66	44
524.10999	138
619.35999	82

NAME: Phosphatidylethanolamine 19
PRECURSORMZ: 756.554879
PRECURSORTYPE: [M-H]-
FORMULA: C42H80NO8P
Ontology: Phosphatidylethanolamines
INCHIKEY: GTOGJRHPAQPWSR-WGPKDLKGNA-N
SMILES: CCCCCCCCCCCCCCCCCCC(=O)OCC(COP(O)(=O)OCCN)OC(=O)CC\C=C/C\C=C/CCCCCCCCCC
RETENTIONTIME: 
CCS: -1
IONMODE: Negative
INSTRUMENTTYPE: LC-ESI-ITFT
INSTRUMENT: 
COLLISIONENERGY: 30
Comment: registered in MassBank
Num Peaks: 12
279.04999	1000
280.10999	219
283.51999	5
297.13	368
298.01999	51
475.70999	6
476.32999	15
494.12	187
495.23999	76
636.83002	6
673.41998	9
674.40002	25

NAME: Phosphatidylethanolamine 19
PRECURSORMZ: 780.554879
PRECURSORTYPE: [M-H]-
FORMULA: C44H80NO8P
Ontology: Phosphatidylethanolamines
INCHIKEY: GGEYNVXDNWJXIN-SLLFMANONA-N
SMILES: CCCCCCCCCCCCCCCCCCC(=O)OCC(COP(O)(=O)OCCN)OC(=O)CC\C=C/C\C=C/C\C=C/C\C=C/CCCCCC
RETENTIONTIME: 
CCS: -1
IONMODE: Negative
INSTRUMENTTYPE: LC-ESI-ITFT
INSTRUMENT: 
COLLISIONENERGY: 30
Comment: registered in MassBank
Num Peaks: 14
259.17001	112
285.23001	6
297.12	582
298.17001	75
303.04999	1000
304.10999	93
475.92001	32
481.89999	15
494.17999	302
495.26001	45
500.38	5
501.17001	7
698.22998	8
730.37	13

NAME: Phosphatidylethanolamine 19
PRECURSORMZ: 804.554879
PRECURSORTYPE: [M-H]-
FORMULA: C46H80NO8P
Ontology: Phosphatidylethanolamines
INCHIKEY: PITVJCPCBXGCHJ-MXQGKLILNA-N
SMILES: CCCCCCCCCCCCCCCCCCC(=O)OCC(COP(O)(=O)OCCN)OC(=O)CC\C=C/C\C=C/C\C=C/C\C=C/C\C=C/C\C=C/CC
RETENTIONTIME: 
CCS: -1
IONMODE: Negative
INSTRUMENTTYPE: LC-ESI-ITFT
INSTRUMENT: 
COLLISIONENERGY: 30
Comment: registered in MassBank
Num Peaks: 18
241.13	10
248.74001	8
256.32001	44
280.19	7
281.32999	19
283.07001	531
284	113
297.25	1000
298.20999	96
309.17999	21
327.14999	928
328.03	195
494.17001	484
495.17001	100
505.87	19
518.03998	10
521.27002	21
524.28998	11

NAME: Phosphatidylethanolamine 20
PRECURSORMZ: 770.570529
PRECURSORTYPE: [M-H]-
FORMULA: C43H82NO8P
Ontology: Phosphatidylethanolamines
INCHIKEY: VWYTUCQACXRPSI-QIPJBBGZNA-N
SMILES: CCCCCCCCCCCCCCCCCCCC(=O)OCC(COP(O)(=O)OCCN)OC(=O)CC\C=C/C\C=C/CCCCCCCCCC
RETENTIONTIME: 
CCS: -1
IONMODE: Negative
INSTRUMENTTYPE: LC-ESI-ITFT
INSTRUMENT: 
COLLISIONENERGY: 30
Comment: registered in MassBank
Num Peaks: 8
279.04001	1000
280.10001	108
311.16	454
312.28	74
457.76999	5
490.14001	16
508.01001	175
509.07999	29

NAME: Phosphatidylethanolamine 20
PRECURSORMZ: 796.586179
PRECURSORTYPE: [M-H]-
FORMULA: C45H84NO8P
Ontology: Phosphatidylethanolamines
INCHIKEY: FJLSFWWSNVGVIN-KWKIUDPJNA-N
SMILES: CCCCCCCCCCCCCCCCCCCC(=O)OCC(COP(O)(=O)OCCN)OC(=O)CC\C=C/C\C=C/C\C=C/CCCCCCCCC
RETENTIONTIME: 
CCS: -1
IONMODE: Negative
INSTRUMENTTYPE: LC-ESI-ITFT
INSTRUMENT: 
COLLISIONENERGY: 30
Comment: registered in MassBank
Num Peaks: 12
261.29001	21
305.07001	1000
306.14001	37
311.04001	325
312.17001	80
342.29001	40
490.44	46
508.13	160
616.13	55
620.15002	21
631.46997	34
632.51001	21

NAME: Phosphatidylethanolamine 20
PRECURSORMZ: 794.570529
PRECURSORTYPE: [M-H]-
FORMULA: C45H82NO8P
Ontology: Phosphatidylethanolamines
INCHIKEY: NWMRMMRJNCGRTC-CDNBUOKMNA-N
SMILES: CCCCCCCCCCCCCCCCCCCC(=O)OCC(COP(O)(=O)OCCN)OC(=O)CC\C=C/C\C=C/C\C=C/C\C=C/CCCCCC
RETENTIONTIME: 
CCS: -1
IONMODE: Negative
INSTRUMENTTYPE: LC-ESI-ITFT
INSTRUMENT: 
COLLISIONENERGY: 30
Comment: registered in MassBank
Num Peaks: 13
259.04999	84
260.14999	5
303.07001	1000
304.10001	106
311.20001	597
312.26001	70
332.22	5
482.09	16
490.17999	24
500.13	22
508.09	284
509.13	70
730.81	18

NAME: Phosphatidylethanolamine 20
PRECURSORMZ: 792.554879
PRECURSORTYPE: [M-H]-
FORMULA: C45H80NO8P
Ontology: Phosphatidylethanolamines
INCHIKEY: VNLXORDQXXPODA-WARBFJPKNA-N
SMILES: CCCCCCCCCCCCCCCCCCCC(=O)OCC(COP(O)(=O)OCCN)OC(=O)CC\C=C/C\C=C/C\C=C/C\C=C/C\C=C/CCC
RETENTIONTIME: 
CCS: -1
IONMODE: Negative
INSTRUMENTTYPE: LC-ESI-ITFT
INSTRUMENT: 
COLLISIONENERGY: 30
Comment: registered in MassBank
Num Peaks: 17
257.26001	272
283.32999	40
284.20001	35
286.16	69
301.06	717
302.29001	220
303.01999	46
311.29999	1000
312.32001	69
327.19	81
329.29999	40
330.16	35
480.25	75
508.04999	145
508.98001	29
626.20001	35
670.98999	81

NAME: Phosphatidylethanolamine 20
PRECURSORMZ: 814.539229
PRECURSORTYPE: [M-H]-
FORMULA: C47H78NO8P
Ontology: Phosphatidylethanolamines
INCHIKEY: BSGJBDYIUVDIRF-LPXIWEFZNA-N
SMILES: CCCCCCCCCCCC\C=C/C\C=C/CCC(=O)OCC(COP(O)(=O)OCCN)OC(=O)CC\C=C/C\C=C/C\C=C/C\C=C/C\C=C/C\C=C/CC
RETENTIONTIME: 
CCS: -1
IONMODE: Negative
INSTRUMENTTYPE: LC-ESI-ITFT
INSTRUMENT: 
COLLISIONENERGY: 30
Comment: registered in MassBank
Num Peaks: 13
238.85001	22
249.25	37
281.26001	46
283.20999	345
284.26999	28
307.20001	766
308.39001	108
327.10999	1000
328.41	22
329.20001	28
504.04001	714
505.01001	105
636.54999	22

NAME: Phosphatidylethanolamine 20
PRECURSORMZ: 788.523578
PRECURSORTYPE: [M-H]-
FORMULA: C45H76NO8P
Ontology: Phosphatidylethanolamines
INCHIKEY: KOORSVXMLRAPQP-YWHZSVKVNA-N
SMILES: CCCCCCCCC\C=C/C\C=C/C\C=C/CCC(=O)OCC(COP(O)(=O)OCCN)OC(=O)CC\C=C/C\C=C/C\C=C/C\C=C/CCCCCC
RETENTIONTIME: 
CCS: -1
IONMODE: Negative
INSTRUMENTTYPE: LC-ESI-ITFT
INSTRUMENT: 
COLLISIONENERGY: 30
Comment: registered in MassBank
Num Peaks: 11
260.26001	29
282.04999	37
303.17999	1000
304.14999	21
305.10001	352
306.20001	84
329.14001	42
502.06	245
503.25	159
505.07999	279
506.06	164

NAME: Phosphatidylethanolamine 20
PRECURSORMZ: 810.507928
PRECURSORTYPE: [M-H]-
FORMULA: C47H74NO8P
Ontology: Phosphatidylethanolamines
INCHIKEY: QYRBWBWQALDZGP-YARNEYDXNA-N
SMILES: CCCCCC\C=C/C\C=C/C\C=C/C\C=C/CCC(=O)OCC(COP(O)(=O)OCCN)OC(=O)CC\C=C/C\C=C/C\C=C/C\C=C/C\C=C/C\C=C/CC
RETENTIONTIME: 
CCS: -1
IONMODE: Negative
INSTRUMENTTYPE: LC-ESI-ITFT
INSTRUMENT: 
COLLISIONENERGY: 30
Comment: registered in MassBank
Num Peaks: 14
259.34	61
283.13	123
303.12	1000
304.10001	95
327.17999	268
420.20001	9
427.32999	11
476.28	15
497.56	49
499.98999	173
506.12	93
523.91998	169
525.15997	23
554.09998	42

NAME: Phosphatidylethanolamine 22
PRECURSORMZ: 798.601829
PRECURSORTYPE: [M-H]-
FORMULA: C45H86NO8P
Ontology: Phosphatidylethanolamines
INCHIKEY: JTIHPLOLGGYHEZ-XJKRCVSZNA-N
SMILES: CCCCCCCCCCCCCCCCCCCCCC(=O)OCC(COP(O)(=O)OCCN)OC(=O)CC\C=C/C\C=C/CCCCCCCCCC
RETENTIONTIME: 
CCS: -1
IONMODE: Negative
INSTRUMENTTYPE: LC-ESI-ITFT
INSTRUMENT: 
COLLISIONENERGY: 30
Comment: registered in MassBank
Num Peaks: 9
279.12	1000
280.29001	120
335.66	15
339.28	483
340.32999	117
458.35999	7
476.16	8
536.15997	113
537.10999	21

NAME: Phosphatidylethanolamine 22
PRECURSORMZ: 796.586179
PRECURSORTYPE: [M-H]-
FORMULA: C45H84NO8P
Ontology: Phosphatidylethanolamines
INCHIKEY: MKIWGOUJSUAXPP-DFWRNDSJNA-N
SMILES: CCCCCCCCCCCCCCCCC\C=C/CCC(=O)OCC(COP(O)(=O)OCCN)OC(=O)CC\C=C/C\C=C/CCCCCCCCCC
RETENTIONTIME: 
CCS: -1
IONMODE: Negative
INSTRUMENTTYPE: LC-ESI-ITFT
INSTRUMENT: 
COLLISIONENERGY: 30
Comment: registered in MassBank
Num Peaks: 14
255.03999	21
279.14001	514
280.41	123
307.45001	17
309.04999	17
337.25	1000
338.10001	161
405.06	21
468.5	31
476.10999	24
534.15997	21
535.40997	21
562.38	21
698.78003	38

NAME: Phosphatidylethanolamine 22
PRECURSORMZ: 834.507928
PRECURSORTYPE: [M-H]-
FORMULA: C49H74NO8P
Ontology: Phosphatidylethanolamines
INCHIKEY: RBDNSJMXMWTPCS-GZSOIYOPNA-N
SMILES: CC\C=C/C\C=C/C\C=C/C\C=C/C\C=C/C\C=C/CCC(=O)OCC(COP(O)(=O)OCCN)OC(=O)CC\C=C/C\C=C/C\C=C/C\C=C/C\C=C/C\C=C/CC
RETENTIONTIME: 
CCS: 426.1375328
IONMODE: Negative
INSTRUMENTTYPE: LC-ESI-ITFT
INSTRUMENT: 
COLLISIONENERGY: 30
Comment: registered in MassBank
Num Peaks: 12
249.64	50
283.14999	810
284.10999	113
309.26999	14
327.01999	1000
328.17999	91
506.04001	60
506.82001	22
524.01001	440
524.96997	113
597.84998	22
645.34998	34

NAME: Phosphatidylethanolamine alkenyl 16
PRECURSORMZ: 724.528664
PRECURSORTYPE: [M-H]-
FORMULA: C41H76NO7P
Ontology: 1-(1Z-alkenyl),2-acylglycerophosphoethanolamines
INCHIKEY: QUEBLWWLERMNAP-RYYWRRNANA-N
SMILES: CCCCCCCCCCCCCC\C=C\OCC(COP(O)(=O)OCCN)OC(=O)CC\C=C/C\C=C/C\C=C/CCCCCCCCC
RETENTIONTIME: 
CCS: -1
IONMODE: Negative
INSTRUMENTTYPE: LC-ESI-ITFT
INSTRUMENT: 
COLLISIONENERGY: 30
Comment: registered in MassBank
Num Peaks: 9
261.26999	7
303.04001	14
305.16	1000
306.17001	138
418.09	42
436.04999	143
437.06	94
525.87	17
617.84003	8

NAME: Phosphatidylethanolamine alkenyl 16
PRECURSORMZ: 722.513014
PRECURSORTYPE: [M-H]-
FORMULA: C41H74NO7P
Ontology: 1-(1Z-alkenyl),2-acylglycerophosphoethanolamines
INCHIKEY: QDRJMAHGAQYRIN-PKKQLAOCNA-N
SMILES: CCCCCCCCCCCCCC\C=C\OCC(COP(O)(=O)OCCN)OC(=O)CC\C=C/C\C=C/C\C=C/C\C=C/CCCCCC
RETENTIONTIME: 
CCS: -1
IONMODE: Negative
INSTRUMENTTYPE: LC-ESI-ITFT
INSTRUMENT: 
COLLISIONENERGY: 30
Comment: registered in MassBank
Num Peaks: 7
259.16	75
303.04001	1000
304.09	36
375.20999	6
418.17999	72
436.07001	369
437.16	12

NAME: Phosphatidylethanolamine alkenyl 16
PRECURSORMZ: 720.497364
PRECURSORTYPE: [M-H]-
FORMULA: C41H72NO7P
Ontology: 1-(1Z-alkenyl),2-acylglycerophosphoethanolamines
INCHIKEY: RPMVRPOBBVLOLS-HAQSCEBBNA-N
SMILES: CCCCCCCCCCCCCC\C=C\OCC(COP(O)(=O)OCCN)OC(=O)CC\C=C/C\C=C/C\C=C/C\C=C/C\C=C/CCC
RETENTIONTIME: 
CCS: -1
IONMODE: Negative
INSTRUMENTTYPE: LC-ESI-ITFT
INSTRUMENT: 
COLLISIONENERGY: 30
Comment: registered in MassBank
Num Peaks: 13
238.89	10
255.94	28
257.14999	182
273.19	7
301.04001	1000
302.17001	145
303.17999	144
375.48999	28
418.14999	126
434.03	35
436.19	590
437.20999	48
660.31	17

NAME: Phosphatidylethanolamine alkenyl 16
PRECURSORMZ: 750.544314
PRECURSORTYPE: [M-H]-
FORMULA: C43H78NO7P
Ontology: 1-(1Z-alkenyl),2-acylglycerophosphoethanolamines
INCHIKEY: RKVZUTPSIGLURV-BLAGHTKONA-N
SMILES: CCCCCCCCCCCCCC\C=C\OCC(COP(O)(=O)OCCN)OC(=O)CC\C=C/C\C=C/C\C=C/C\C=C/CCCCCCCC
RETENTIONTIME: 
CCS: -1
IONMODE: Negative
INSTRUMENTTYPE: LC-ESI-ITFT
INSTRUMENT: 
COLLISIONENERGY: 30
Comment: registered in MassBank
Num Peaks: 13
255.14999	10
287.17001	31
303.13	31
304.04001	6
305.26999	5
329.13	8
331.14001	1000
332.25	108
375.17999	8
418.10999	17
419.23001	17
436.04999	343
437.25	50

NAME: Phosphatidylethanolamine alkenyl 16
PRECURSORMZ: 748.528664
PRECURSORTYPE: [M-H]-
FORMULA: C43H76NO7P
Ontology: 1-(1Z-alkenyl),2-acylglycerophosphoethanolamines
INCHIKEY: IRRKKHCAJLHSJE-NBLHLOSHNA-N
SMILES: CCCCCCCCCCCCCC\C=C\OCC(COP(O)(=O)OCCN)OC(=O)CC\C=C/C\C=C/C\C=C/C\C=C/C\C=C/CCCCC
RETENTIONTIME: 
CCS: 371.0133016
IONMODE: Negative
INSTRUMENTTYPE: LC-ESI-ITFT
INSTRUMENT: 
COLLISIONENERGY: 30
Comment: registered in MassBank
Num Peaks: 17
251.03	9
258.82001	7
282.89001	6
285.07001	152
285.98999	9
292.89001	5
303.23001	12
327.16	13
329.13	1000
330.20001	137
375.13	6
418.19	38
436.07999	400
437.14001	65
438.01999	12
439.17999	6
462.22	9

NAME: Phosphatidylethanolamine alkenyl 18
PRECURSORMZ: 728.559964
PRECURSORTYPE: [M-H]-
FORMULA: C41H80NO7P
Ontology: 1-(1Z-alkenyl),2-acylglycerophosphoethanolamines
INCHIKEY: GJEZRMBBMQUCBS-NLBLVIAENA-N
SMILES: CCCCCCCCCCCCCCCC\C=C\OCC(COP(O)(=O)OCCN)OC(=O)CC\C=C/CCCCCCCCCCCCC
RETENTIONTIME: 
CCS: -1
IONMODE: Negative
INSTRUMENTTYPE: LC-ESI-ITFT
INSTRUMENT: 
COLLISIONENERGY: 30
Comment: registered in MassBank
Num Peaks: 9
280.98001	1000
282.13	115
446.17999	25
447.32999	42
464.26001	233
465.32999	24
507.03	19
631.45001	19
664.84998	6

NAME: Phosphatidylethanolamine alkenyl 18
PRECURSORMZ: 726.544314
PRECURSORTYPE: [M-H]-
FORMULA: C41H78NO7P
Ontology: 1-(1Z-alkenyl),2-acylglycerophosphoethanolamines
INCHIKEY: QBAQUPWJTLVJBD-CZAAGYDRNA-N
SMILES: CCCCCCCCCCCCCCCC\C=C\OCC(COP(O)(=O)OCCN)OC(=O)CC\C=C/C\C=C/CCCCCCCCCC
RETENTIONTIME: 
CCS: -1
IONMODE: Negative
INSTRUMENTTYPE: LC-ESI-ITFT
INSTRUMENT: 
COLLISIONENERGY: 30
Comment: registered in MassBank
Num Peaks: 7
267.35001	7
279.07001	1000
280.25	96
420.04001	9
446.54999	14
464.14999	199
465.16	19

NAME: Phosphatidylethanolamine alkenyl 18
PRECURSORMZ: 726.544314
PRECURSORTYPE: [M-H]-
FORMULA: C41H78NO7P
Ontology: 1-(1Z-alkenyl),2-acylglycerophosphoethanolamines
INCHIKEY: QBAQUPWJTLVJBD-CZAAGYDRNA-N
SMILES: CCCCCCCCCCCCCCCC\C=C\OCC(COP(O)(=O)OCCN)OC(=O)CC\C=C/C\C=C/CCCCCCCCCC
RETENTIONTIME: 
CCS: -1
IONMODE: Negative
INSTRUMENTTYPE: LC-ESI-ITFT
INSTRUMENT: 
COLLISIONENERGY: 30
Comment: registered in MassBank
Num Peaks: 7
267.35001	7
279.07001	1000
280.25	96
420.04001	9
446.54999	14
464.14999	199
465.16	19

NAME: Phosphatidylethanolamine alkenyl 20
PRECURSORMZ: 754.575614
PRECURSORTYPE: [M-H]-
FORMULA: C43H82NO7P
Ontology: 1-alkyl,2-acylglycerophosphoethanolamines
INCHIKEY: GPGJCRAIGHOCDQ-QGRKPBPINA-N
SMILES: CCCCCCCCCCCCCCC\C=C/CCCOCC(COP(O)(=O)OCCN)OC(=O)CC\C=C/C\C=C/CCCCCCCCCC
RETENTIONTIME: 
CCS: -1
IONMODE: Negative
INSTRUMENTTYPE: LC-ESI-ITFT
INSTRUMENT: 
COLLISIONENERGY: 30
Comment: registered in MassBank
Num Peaks: 7
279.07001	1000
279.98001	277
453.62	30
492.23999	339
493.39999	27
575.65002	45
630.78003	21

NAME: Phosphatidylethanolamine alkenyl 20
PRECURSORMZ: 754.575614
PRECURSORTYPE: [M-H]-
FORMULA: C43H82NO7P
Ontology: 1-alkyl,2-acylglycerophosphoethanolamines
INCHIKEY: GPGJCRAIGHOCDQ-QGRKPBPINA-N
SMILES: CCCCCCCCCCCCCCC\C=C/CCCOCC(COP(O)(=O)OCCN)OC(=O)CC\C=C/C\C=C/CCCCCCCCCC
RETENTIONTIME: 
CCS: -1
IONMODE: Negative
INSTRUMENTTYPE: LC-ESI-ITFT
INSTRUMENT: 
COLLISIONENERGY: 30
Comment: registered in MassBank
Num Peaks: 7
279.07001	1000
279.98001	277
453.62	30
492.23999	339
493.39999	27
575.65002	45
630.78003	21

NAME: Phosphatidylethanolamine alkenyl 18
PRECURSORMZ: 750.544314
PRECURSORTYPE: [M-H]-
FORMULA: C43H78NO7P
Ontology: 1-(1Z-alkenyl),2-acylglycerophosphoethanolamines
INCHIKEY: RZZGAMUARHRLJN-ZOWVHDLQNA-N
SMILES: CCCCCCCCCCCCCCCC\C=C\OCC(COP(O)(=O)OCCN)OC(=O)CC\C=C/C\C=C/C\C=C/C\C=C/CCCCCC
RETENTIONTIME: 
CCS: -1
IONMODE: Negative
INSTRUMENTTYPE: LC-ESI-ITFT
INSTRUMENT: 
COLLISIONENERGY: 30
Comment: registered in MassBank
Num Peaks: 7
259.04999	81
260.07999	11
303.06	1000
304.17999	65
446.26999	68
464.19	388
465.13	34

NAME: Phosphatidylethanolamine alkenyl 18
PRECURSORMZ: 748.528664
PRECURSORTYPE: [M-H]-
FORMULA: C43H76NO7P
Ontology: 1-(1Z-alkenyl),2-acylglycerophosphoethanolamines
INCHIKEY: UZKXXUJVNWVEAA-GWWWPDGYNA-N
SMILES: CCCCCCCCCCCCCCCC\C=C\OCC(COP(O)(=O)OCCN)OC(=O)CC\C=C/C\C=C/C\C=C/C\C=C/C\C=C/CCC
RETENTIONTIME: 
CCS: -1
IONMODE: Negative
INSTRUMENTTYPE: LC-ESI-ITFT
INSTRUMENT: 
COLLISIONENERGY: 30
Comment: registered in MassBank
Num Peaks: 14
245.03	19
257.26001	198
258.14999	10
283.04999	43
301.01001	1000
301.78	12
303.07001	166
304.06	12
403.04999	27
421.14001	36
446.29999	92
462.01001	19
464.17999	453
465.39999	99

NAME: Phosphatidylethanolamine alkenyl 18
PRECURSORMZ: 778.575614
PRECURSORTYPE: [M-H]-
FORMULA: C45H82NO7P
Ontology: 1-(1Z-alkenyl),2-acylglycerophosphoethanolamines
INCHIKEY: GZMXKUALKXYCMM-XSEHFSNENA-N
SMILES: CCCCCCCCCCCCCCCC\C=C\OCC(COP(O)(=O)OCCN)OC(=O)CC\C=C/C\C=C/C\C=C/C\C=C/CCCCCCCC
RETENTIONTIME: 
CCS: -1
IONMODE: Negative
INSTRUMENTTYPE: LC-ESI-ITFT
INSTRUMENT: 
COLLISIONENERGY: 30
Comment: registered in MassBank
Num Peaks: 8
268.13	14
287.16	120
331.12	1000
332.10001	187
446.07001	48
447.31	22
464.19	248
469.57001	22

NAME: Phosphatidylethanolamine alkenyl 18
PRECURSORMZ: 774.544314
PRECURSORTYPE: [M-H]-
FORMULA: C45H78NO7P
Ontology: 1-(1Z-alkenyl),2-acylglycerophosphoethanolamines
INCHIKEY: FIJFPUAJUDAZEY-NUANVQICNA-N
SMILES: CCCCCCCCCCCCCCCC\C=C\OCC(COP(O)(=O)OCCN)OC(=O)CC\C=C/C\C=C/C\C=C/C\C=C/C\C=C/C\C=C/CC
RETENTIONTIME: 
CCS: 346.2524854
IONMODE: Negative
INSTRUMENTTYPE: LC-ESI-ITFT
INSTRUMENT: 
COLLISIONENERGY: 30
Comment: registered in MassBank
Num Peaks: 14
229.06	17
249.06	9
281.10999	20
283.14001	512
284.23001	48
309.09	9
327.09	1000
328.10001	83
403.12	9
404.04001	7
446.32999	111
447.25	6
464.09	918
465.17001	111

NAME: Phosphatidylethanolamine alkenyl 18
PRECURSORMZ: 726.544314
PRECURSORTYPE: [M-H]-
FORMULA: C41H78NO7P
Ontology: 1-(1Z-alkenyl),2-acylglycerophosphoethanolamines
INCHIKEY: IEKMVBFEEDNXGT-WECHNZQXNA-N
SMILES: CCCCCCCCCCCCC\C=C/CCC(=O)OC(CO\C=C\C\C=C/CCCCCCCCCCCCC)COP(O)(=O)OCCN
RETENTIONTIME: 
CCS: -1
IONMODE: Negative
INSTRUMENTTYPE: LC-ESI-ITFT
INSTRUMENT: 
COLLISIONENERGY: 30
Comment: registered in MassBank
Num Peaks: 9
278.92001	25
281.14999	1000
282.10001	80
437.25	15
445.35001	46
462.14001	95
465.12	13
489.04001	12
727.65002	16

NAME: Phosphatidylethanolamine alkenyl 18
PRECURSORMZ: 748.528664
PRECURSORTYPE: [M-H]-
FORMULA: C43H76NO7P
Ontology: 1-(1Z-alkenyl),2-acylglycerophosphoethanolamines
INCHIKEY: YJPYELPDWSEQHM-KTUZNUCGNA-N
SMILES: CCCCCCCCCCCCC\C=C/C\C=C\OCC(COP(O)(=O)OCCN)OC(=O)CC\C=C/C\C=C/C\C=C/C\C=C/CCCCCC
RETENTIONTIME: 
CCS: -1
IONMODE: Negative
INSTRUMENTTYPE: LC-ESI-ITFT
INSTRUMENT: 
COLLISIONENERGY: 30
Comment: registered in MassBank
Num Peaks: 16
255.91	18
259.14999	72
281.20001	9
283.22	27
285.20999	15
300.88	11
303.04001	1000
304.17999	80
373.45001	14
401.51001	7
419.01999	8
444.22	27
462.19	460
463.20001	53
631.5	9
656.70001	7

NAME: Phosphatidylethanolamine alkenyl 18
PRECURSORMZ: 776.559964
PRECURSORTYPE: [M-H]-
FORMULA: C45H80NO7P
Ontology: 1-(1Z-alkenyl),2-acylglycerophosphoethanolamines
INCHIKEY: LLGDMLIODPBDGJ-IVEVXDSTNA-N
SMILES: CCCCCCCCCCCCC\C=C/C\C=C\OCC(COP(O)(=O)OCCN)OC(=O)CC\C=C/C\C=C/C\C=C/C\C=C/CCCCCCCC
RETENTIONTIME: 
CCS: -1
IONMODE: Negative
INSTRUMENTTYPE: LC-ESI-ITFT
INSTRUMENT: 
COLLISIONENERGY: 30
Comment: registered in MassBank
Num Peaks: 15
284.25	19
287.41	71
288.29001	16
293.07999	10
327.29001	10
331.12	1000
331.95999	161
444.29999	69
447.39001	29
462.14001	370
462.85001	9
506.45001	22
510.25	9
692.78998	21
695.29999	21

NAME: Phosphatidylethanolamine alkenyl 18
PRECURSORMZ: 774.544314
PRECURSORTYPE: [M-H]-
FORMULA: C45H78NO7P
Ontology: 1-(1Z-alkenyl),2-acylglycerophosphoethanolamines
INCHIKEY: BGXUVAFAQIKOQM-OYRSOWGGNA-N
SMILES: CCCCCCCCCCCCC\C=C/C\C=C\OCC(COP(O)(=O)OCCN)OC(=O)CC\C=C/C\C=C/C\C=C/C\C=C/C\C=C/CCCCC
RETENTIONTIME: 
CCS: -1
IONMODE: Negative
INSTRUMENTTYPE: LC-ESI-ITFT
INSTRUMENT: 
COLLISIONENERGY: 30
Comment: registered in MassBank
Num Peaks: 25
231.14	10
255.3	75
281.04001	35
283.37	21
285.17999	85
286.07999	22
293.01001	9
303.10001	12
307.20001	239
308.29999	64
309.26001	19
310.66	14
329.14001	1000
330.14001	112
391.10001	46
418.95999	10
444.25	107
444.85999	10
462.14999	308
463.28	95
465.07001	49
483.20999	21
484.06	7
702.71997	6
715.96002	9

NAME: Phosphatidylethanolamine alkenyl 18
PRECURSORMZ: 772.528664
PRECURSORTYPE: [M-H]-
FORMULA: C45H76NO7P
Ontology: 1-(1Z-alkenyl),2-acylglycerophosphoethanolamines
INCHIKEY: MEWSEYMCACAAEE-YLACOYRINA-N
SMILES: CCCCCCCCCCCCC\C=C/C\C=C\OCC(COP(O)(=O)OCCN)OC(=O)CC\C=C/C\C=C/C\C=C/C\C=C/C\C=C/C\C=C/CC
RETENTIONTIME: 
CCS: -1
IONMODE: Negative
INSTRUMENTTYPE: LC-ESI-ITFT
INSTRUMENT: 
COLLISIONENERGY: 30
Comment: registered in MassBank
Num Peaks: 13
229.14	12
281.25	24
283.10001	714
284.04999	98
327.07999	1000
328.12	100
401.37	6
402.29001	9
444.07999	177
445.32999	23
462.13	965
463.28	138
699.46997	10

NAME: Phosphatidylethanolamine alkenyl 18
PRECURSORMZ: 770.513014
PRECURSORTYPE: [M-H]-
FORMULA: C45H74NO7P
Ontology: 1-(1Z-alkenyl),2-acylglycerophosphoethanolamines
INCHIKEY: CQUWHUPPHYSSCA-QOAWOPSMNA-N
SMILES: CCCCCCCCCC\C=C/C\C=C/C\C=C\OCC(COP(O)(=O)OCCN)OC(=O)CC\C=C/C\C=C/C\C=C/C\C=C/C\C=C/C\C=C/CC
RETENTIONTIME: 
CCS: -1
IONMODE: Negative
INSTRUMENTTYPE: LC-ESI-ITFT
INSTRUMENT: 
COLLISIONENERGY: 30
Comment: registered in MassBank
Num Peaks: 16
229.03999	96
255.11	117
259.31	137
260.29999	46
281.03	61
283.13	96
284.23999	61
303.42999	102
304.23001	315
309.35999	56
327.01001	1000
443.17001	91
460.16	305
461.29999	234
466.17001	61
676.45001	36

NAME: Phosphatidylethanolamine alkenyl 20
PRECURSORMZ: 778.575614
PRECURSORTYPE: [M-H]-
FORMULA: C45H82NO7P
Ontology: 1-(1Z-alkenyl),2-acylglycerophosphoethanolamines
INCHIKEY: PZJZEOZHLWBYFI-MHNSSQRMNA-N
SMILES: CCCCCCCCCCCCCCCCCC\C=C\OCC(COP(O)(=O)OCCN)OC(=O)CC\C=C/C\C=C/C\C=C/C\C=C/CCCCCC
RETENTIONTIME: 
CCS: -1
IONMODE: Negative
INSTRUMENTTYPE: LC-ESI-ITFT
INSTRUMENT: 
COLLISIONENERGY: 30
Comment: registered in MassBank
Num Peaks: 15
259.04001	117
260.04999	6
268.26001	7
285.06	11
301.13	8
303.03	1000
303.98999	63
474.29001	32
475.29999	36
478.85999	20
486.57001	14
492.17001	331
493.09	108
658.40997	6
695.41998	22

NAME: Phosphatidylethanolamine alkenyl 20
PRECURSORMZ: 802.575614
PRECURSORTYPE: [M-H]-
FORMULA: C47H82NO7P
Ontology: 1-(1Z-alkenyl),2-acylglycerophosphoethanolamines
INCHIKEY: GWWKPJFGKBNJDJ-DYEXTAMENA-N
SMILES: CCCCCCCCCCCCCCCCCC\C=C\OCC(COP(O)(=O)OCCN)OC(=O)CC\C=C/C\C=C/C\C=C/C\C=C/C\C=C/C\C=C/CC
RETENTIONTIME: 
CCS: -1
IONMODE: Negative
INSTRUMENTTYPE: LC-ESI-ITFT
INSTRUMENT: 
COLLISIONENERGY: 30
Comment: registered in MassBank
Num Peaks: 14
229.58	8
249.08	6
266.81	6
283.17999	374
284.07001	117
327.10999	1000
328.03	168
474.26999	175
475.34	19
492.14001	933
493.28	161
501.32999	8
578.71997	7
682.28003	8

NAME: Phosphatidylethanolamine alkyl 16
PRECURSORMZ: 724.528664
PRECURSORTYPE: [M-H]-
FORMULA: C41H76NO7P
Ontology: 1-alkyl,2-acylglycerophosphoethanolamines
INCHIKEY: MAYZJBKZHVGHAB-HNBVIXCXNA-N
SMILES: CCCCCCCCCCCCCCCCOCC(COP(O)(=O)OCCN)OC(=O)CC\C=C/C\C=C/C\C=C/C\C=C/CCCCCC
RETENTIONTIME: 
CCS: -1
IONMODE: Negative
INSTRUMENTTYPE: LC-ESI-ITFT
INSTRUMENT: 
COLLISIONENERGY: 30
Comment: registered in MassBank
Num Peaks: 15
254.74001	31
259.25	82
260.20999	12
281.20001	26
283.12	12
284.10999	46
303.01001	1000
304.13	149
377.13	29
418.89999	24
419.84	70
420.45001	24
438.29001	331
439.06	72
679.67999	14

NAME: Phosphatidylethanolamine alkyl 18
PRECURSORMZ: 728.559964
PRECURSORTYPE: [M-H]-
FORMULA: C41H80NO7P
Ontology: 1-alkyl,2-acylglycerophosphoethanolamines
INCHIKEY: RFXWTAVLHHOPPS-JSCMVKKRNA-N
SMILES: CCCCCCCCCCCCCCCCCCOCC(COP(O)(=O)OCCN)OC(=O)CC\C=C/C\C=C/CCCCCCCCCC
RETENTIONTIME: 
CCS: -1
IONMODE: Negative
INSTRUMENTTYPE: LC-ESI-ITFT
INSTRUMENT: 
COLLISIONENERGY: 30
Comment: registered in MassBank
Num Peaks: 8
279.14001	1000
280.07999	170
283.29001	7
405.35001	27
448.25	14
466.25	286
467.62	18
696.28003	32

NAME: Phosphatidylethanolamine alkyl 18
PRECURSORMZ: 728.559964
PRECURSORTYPE: [M-H]-
FORMULA: C41H80NO7P
Ontology: 1-alkyl,2-acylglycerophosphoethanolamines
INCHIKEY: RFXWTAVLHHOPPS-JSCMVKKRNA-N
SMILES: CCCCCCCCCCCCCCCCCCOCC(COP(O)(=O)OCCN)OC(=O)CC\C=C/C\C=C/CCCCCCCCCC
RETENTIONTIME: 
CCS: -1
IONMODE: Negative
INSTRUMENTTYPE: LC-ESI-ITFT
INSTRUMENT: 
COLLISIONENERGY: 30
Comment: registered in MassBank
Num Peaks: 8
279.14001	1000
280.07999	170
283.29001	7
405.35001	27
448.25	14
466.25	286
467.62	18
696.28003	32

NAME: Phosphatidylethanolamine alkyl 20
PRECURSORMZ: 756.591264
PRECURSORTYPE: [M-H]-
FORMULA: C43H84NO7P
Ontology: 1-alkyl,2-acylglycerophosphoethanolamines
INCHIKEY: LJTFYNCGYVJVFV-QIPJBBGZNA-N
SMILES: CCCCCCCCCCCCCCCCCCCCOCC(COP(O)(=O)OCCN)OC(=O)CC\C=C/C\C=C/CCCCCCCCCC
RETENTIONTIME: 
CCS: -1
IONMODE: Negative
INSTRUMENTTYPE: LC-ESI-ITFT
INSTRUMENT: 
COLLISIONENERGY: 30
Comment: registered in MassBank
Num Peaks: 12
279.12	1000
280.10999	226
431.32999	9
476.25	66
494.28	368
495.17999	81
536.85999	5
592.03003	14
592.78998	8
630.54999	9
674.15002	20
697.21002	6

NAME: Phosphatidylethanolamine alkyl 20
PRECURSORMZ: 756.591264
PRECURSORTYPE: [M-H]-
FORMULA: C43H84NO7P
Ontology: 1-alkyl,2-acylglycerophosphoethanolamines
INCHIKEY: LJTFYNCGYVJVFV-QIPJBBGZNA-N
SMILES: CCCCCCCCCCCCCCCCCCCCOCC(COP(O)(=O)OCCN)OC(=O)CC\C=C/C\C=C/CCCCCCCCCC
RETENTIONTIME: 
CCS: -1
IONMODE: Negative
INSTRUMENTTYPE: LC-ESI-ITFT
INSTRUMENT: 
COLLISIONENERGY: 30
Comment: registered in MassBank
Num Peaks: 12
279.12	1000
280.10999	226
431.32999	9
476.25	66
494.28	368
495.17999	81
536.85999	5
592.03003	14
592.78998	8
630.54999	9
674.15002	20
697.21002	6

NAME: Phosphatidylethanolamine alkyl 18
PRECURSORMZ: 752.559964
PRECURSORTYPE: [M-H]-
FORMULA: C43H80NO7P
Ontology: 1-alkyl,2-acylglycerophosphoethanolamines
INCHIKEY: DTYWTGFWGGLGBS-NZPWPDRSNA-N
SMILES: CCCCCCCCCCCCCCCCCCOCC(COP(O)(=O)OCCN)OC(=O)CC\C=C/C\C=C/C\C=C/C\C=C/CCCCCC
RETENTIONTIME: 
CCS: -1
IONMODE: Negative
INSTRUMENTTYPE: LC-ESI-ITFT
INSTRUMENT: 
COLLISIONENERGY: 30
Comment: registered in MassBank
Num Peaks: 13
258.95001	83
285.04001	9
303.19	1000
304.16	141
448.29999	43
464.34	5
466.22	446
467.28	109
587.39001	14
669.65997	14
671.31	7
691.37	59
692.97998	12

NAME: Phosphatidylethanolamine alkyl 20
PRECURSORMZ: 780.591264
PRECURSORTYPE: [M-H]-
FORMULA: C45H84NO7P
Ontology: 1-alkyl,2-acylglycerophosphoethanolamines
INCHIKEY: BLFJXWVGBRMOTJ-CDNBUOKMNA-N
SMILES: CCCCCCCCCCCCCCCCCCCCOCC(COP(O)(=O)OCCN)OC(=O)CC\C=C/C\C=C/C\C=C/C\C=C/CCCCCC
RETENTIONTIME: 
CCS: -1
IONMODE: Negative
INSTRUMENTTYPE: LC-ESI-ITFT
INSTRUMENT: 
COLLISIONENERGY: 30
Comment: registered in MassBank
Num Peaks: 10
258.79001	197
303.04999	1000
304.06	71
333.10001	205
434.64999	42
472.57999	25
477.48001	21
494.29001	531
495.09	54
611.37	42

NAME: Phosphatidylethanolamine alkyl 20
PRECURSORMZ: 804.591264
PRECURSORTYPE: [M-H]-
FORMULA: C47H84NO7P
Ontology: 1-alkyl,2-acylglycerophosphoethanolamines
INCHIKEY: CQIPPLYYEQYRAX-JQIYMLLDNA-N
SMILES: CCCCCCCCCCCCCCCCCCCCOCC(COP(O)(=O)OCCN)OC(=O)CC\C=C/C\C=C/C\C=C/C\C=C/C\C=C/C\C=C/CC
RETENTIONTIME: 
CCS: -1
IONMODE: Negative
INSTRUMENTTYPE: LC-ESI-ITFT
INSTRUMENT: 
COLLISIONENERGY: 30
Comment: registered in MassBank
Num Peaks: 29
241.60001	20
251.57001	20
283.09	507
285.20001	35
286.32999	99
327.17001	408
328.22	111
329.23999	647
330.12	20
431	52
433.22	20
473.98001	44
476.29001	96
492.07999	198
493.10999	38
494.17999	1000
495.31	181
517.94	35
639.51001	23
640.47998	26
680.56	17
721.53003	38
722.44	20
729.28998	47
730.15997	166
743.33002	35
744.48999	55
785.56	117
804.71997	17

NAME: Phosphatidylethanolamine lyso 16
PRECURSORMZ: 452.278263
PRECURSORTYPE: [M-H]-
FORMULA: C21H44NO7P
Ontology: 2-acyl-sn-glycero-3-phosphoethanolamines
INCHIKEY: CKPBBEOJHAPPBT-UHFFFAOYNA-N
SMILES: CCCCCCCCCCCCCCCC(=O)OC(CO)COP(O)(=O)OCCN
RETENTIONTIME: 
CCS: 251.8398466
IONMODE: Negative
INSTRUMENTTYPE: LC-ESI-ITFT
INSTRUMENT: 
COLLISIONENERGY: 30
Comment: registered in MassBank
Num Peaks: 3
195.94	23
213.89999	16
255.06	1000

NAME: Phosphatidylethanolamine lyso 17
PRECURSORMZ: 466.293913
PRECURSORTYPE: [M-H]-
FORMULA: C22H46NO7P
Ontology: 2-acyl-sn-glycero-3-phosphoethanolamines
INCHIKEY: SZAICHDWEOHRLW-UHFFFAOYNA-N
SMILES: CCCCCCCCCCCCCCCCC(=O)OC(CO)COP(O)(=O)OCCN
RETENTIONTIME: 
CCS: -1
IONMODE: Negative
INSTRUMENTTYPE: LC-ESI-ITFT
INSTRUMENT: 
COLLISIONENERGY: 30
Comment: registered in MassBank
Num Peaks: 6
195.89	9
214.02	48
269.17001	1000
325.35001	9
383.06	7
445.95001	7

NAME: Phosphatidylethanolamine lyso 18
PRECURSORMZ: 480.309563
PRECURSORTYPE: [M-H]-
FORMULA: C23H48NO7P
Ontology: 2-acyl-sn-glycero-3-phosphoethanolamines
INCHIKEY: KIHAGWUUUHJRMS-UHFFFAOYNA-N
SMILES: CCCCCCCCCCCCCCCCCC(=O)OC(CO)COP(O)(=O)OCCN
RETENTIONTIME: 
CCS: 264.1964953
IONMODE: Negative
INSTRUMENTTYPE: LC-ESI-ITFT
INSTRUMENT: 
COLLISIONENERGY: 30
Comment: registered in MassBank
Num Peaks: 2
213.78	14
283.10999	1000

NAME: Phosphatidylethanolamine lyso 18
PRECURSORMZ: 478.293913
PRECURSORTYPE: [M-H]-
FORMULA: C23H46NO7P
Ontology: 2-acyl-sn-glycero-3-phosphoethanolamines
INCHIKEY: FEVAUEZKXSRQPS-PFONDFGANA-N
SMILES: CCCCCCCCCCCCC\C=C/CCC(=O)OC(CO)COP(O)(=O)OCCN
RETENTIONTIME: 
CCS: -1
IONMODE: Negative
INSTRUMENTTYPE: LC-ESI-ITFT
INSTRUMENT: 
COLLISIONENERGY: 30
Comment: registered in MassBank
Num Peaks: 10
214.02	67
255.03999	7
259.29001	7
281.22	1000
282.23001	10
303.03	52
408.01999	7
421.20999	6
443.06	6
446.07001	10

NAME: Phosphatidylethanolamine lyso 18
PRECURSORMZ: 476.278263
PRECURSORTYPE: [M-H]-
FORMULA: C23H44NO7P
Ontology: 2-acyl-sn-glycero-3-phosphoethanolamines
INCHIKEY: DTTGTTCKWRAIFM-HDXUUTQWNA-N
SMILES: CCCCCCCCCC\C=C/C\C=C/CCC(=O)OC(CO)COP(O)(=O)OCCN
RETENTIONTIME: 
CCS: -1
IONMODE: Negative
INSTRUMENTTYPE: LC-ESI-ITFT
INSTRUMENT: 
COLLISIONENERGY: 30
Comment: registered in MassBank
Num Peaks: 2
213.91	17
279.03	1000

NAME: Phosphatidylethanolamine lyso 20
PRECURSORMZ: 508.340863
PRECURSORTYPE: [M-H]-
FORMULA: C25H52NO7P
Ontology: 2-acyl-sn-glycero-3-phosphoethanolamines
INCHIKEY: QEQAJJJSRGAOOG-UHFFFAOYNA-N
SMILES: CCCCCCCCCCCCCCCCCCCC(=O)OC(CO)COP(O)(=O)OCCN
RETENTIONTIME: 
CCS: 271.5245516
IONMODE: Negative
INSTRUMENTTYPE: LC-ESI-ITFT
INSTRUMENT: 
COLLISIONENERGY: 30
Comment: registered in MassBank
Num Peaks: 7
196.28	8
283.17001	6
311.10001	1000
312.22	104
373.26999	7
423.5	12
425.64999	6

NAME: Phosphatidylethanolamine lyso 20
PRECURSORMZ: 506.325213
PRECURSORTYPE: [M-H]-
FORMULA: C25H50NO7P
Ontology: 2-acyl-sn-glycero-3-phosphoethanolamines
INCHIKEY: URXPORXPKXWHEF-MSUUIHNZNA-N
SMILES: CCCCCCCCCCCCCCC\C=C/CCC(=O)OC(CO)COP(O)(=O)OCCN
RETENTIONTIME: 
CCS: -1
IONMODE: Negative
INSTRUMENTTYPE: LC-ESI-ITFT
INSTRUMENT: 
COLLISIONENERGY: 30
Comment: registered in MassBank
Num Peaks: 6
214.03999	7
309.04999	1000
310.07999	206
329.67001	10
355.04999	7
446.76001	29

NAME: Phosphatidylethanolamine lyso 20
PRECURSORMZ: 502.293913
PRECURSORTYPE: [M-H]-
FORMULA: C25H46NO7P
Ontology: 2-acyl-sn-glycero-3-phosphoethanolamines
INCHIKEY: BGJVXSMYONPLDN-NWFXIAEYNA-N
SMILES: CCCCCCCCC\C=C/C\C=C/C\C=C/CCC(=O)OC(CO)COP(O)(=O)OCCN
RETENTIONTIME: 
CCS: -1
IONMODE: Negative
INSTRUMENTTYPE: LC-ESI-ITFT
INSTRUMENT: 
COLLISIONENERGY: 30
Comment: registered in MassBank
Num Peaks: 9
152.87	10
305.06	1000
306.10999	93
328.89999	11
352.76999	22
358.57001	15
361.19	8
420.73001	6
441.29001	8

NAME: Phosphatidylethanolamine lyso 20
PRECURSORMZ: 500.278263
PRECURSORTYPE: [M-H]-
FORMULA: C25H44NO7P
Ontology: 2-acyl-sn-glycero-3-phosphoethanolamines
INCHIKEY: SOFGMCJQWLTKCE-ZKWNWVNENA-N
SMILES: CCCCCC\C=C/C\C=C/C\C=C/C\C=C/CCC(=O)OC(CO)COP(O)(=O)OCCN
RETENTIONTIME: 
CCS: -1
IONMODE: Negative
INSTRUMENTTYPE: LC-ESI-ITFT
INSTRUMENT: 
COLLISIONENERGY: 30
Comment: registered in MassBank
Num Peaks: 4
205.09	7
213.99001	19
259.19	52
303.06	1000

NAME: Phosphatidylethanolamine lyso 20
PRECURSORMZ: 498.262613
PRECURSORTYPE: [M-H]-
FORMULA: C25H42NO7P
Ontology: 2-acyl-sn-glycero-3-phosphoethanolamines
INCHIKEY: UNILCTDPRMGSDM-JEBPEJKENA-N
SMILES: CCC\C=C/C\C=C/C\C=C/C\C=C/C\C=C/CCC(=O)OC(CO)COP(O)(=O)OCCN
RETENTIONTIME: 
CCS: -1
IONMODE: Negative
INSTRUMENTTYPE: LC-ESI-ITFT
INSTRUMENT: 
COLLISIONENERGY: 30
Comment: registered in MassBank
Num Peaks: 17
203.25	10
214.03999	41
223.12	9
257.04001	217
258.28	11
301.06	1000
302.07001	69
333.67001	6
356.14999	6
357.04001	29
369.23001	12
407.07999	6
415.84	22
416.48001	9
418.20001	8
437.67999	29
439.07999	10

NAME: Phosphatidylethanolamine lyso 22
PRECURSORMZ: 524.278263
PRECURSORTYPE: [M-H]-
FORMULA: C27H44NO7P
Ontology: 2-acyl-sn-glycero-3-phosphoethanolamines
INCHIKEY: TWBVHOYVCUOMJY-KUBAVDMBNA-N
SMILES: CC\C=C/C\C=C/C\C=C/C\C=C/C\C=C/C\C=C/CCC(=O)OC(CO)COP(O)(=O)OCCN
RETENTIONTIME: 
CCS: 293.7164849
IONMODE: Negative
INSTRUMENTTYPE: LC-ESI-ITFT
INSTRUMENT: 
COLLISIONENERGY: 30
Comment: registered in MassBank
Num Peaks: 9
177.03	7
190.89	39
195.92999	6
213.92999	37
229.02	28
249.05	11
283.17001	446
327	1000
327.98001	14

NAME: Phosphatidylethanolamine lyso alkenyl 16
PRECURSORMZ: 436.283348
PRECURSORTYPE: [M-H]-
FORMULA: C21H44NO6P
Ontology: Glycerophosphoethanolamines
INCHIKEY: LULXDGNUFGVYDS-BMRADRMJNA-N
SMILES: CCCCCCCCCCCCCC\C=C\OC(CO)COP(O)(=O)OCCN
RETENTIONTIME: 
CCS: -1
IONMODE: Negative
INSTRUMENTTYPE: LC-ESI-ITFT
INSTRUMENT: 
COLLISIONENERGY: 30
Comment: registered in MassBank
Num Peaks: 12
139.78999	153
195.8	1000
206.83	24
239.28999	289
331.72	41
350.84	15
353.39999	38
354.07001	15
354.69	15
375.03	484
376.12	150
393.22	59

NAME: Phosphatidylethanolamine lyso alkenyl 18
PRECURSORMZ: 464.314648
PRECURSORTYPE: [M-H]-
FORMULA: C23H48NO6P
Ontology: Glycerophosphoethanolamines
INCHIKEY: RGAPGIRIYHJSJY-HTXNQAPBNA-N
SMILES: CCCCCCCCCCCCCCCC\C=C\OC(CO)COP(O)(=O)OCCN
RETENTIONTIME: 
CCS: -1
IONMODE: Negative
INSTRUMENTTYPE: LC-ESI-ITFT
INSTRUMENT: 
COLLISIONENERGY: 30
Comment: registered in MassBank
Num Peaks: 12
195.89	1000
196.97	62
260.20001	42
267.14001	224
366.48999	23
381.76999	58
382.70001	73
401.01001	31
403.09	552
404.12	89
404.97	104
422.13	31

NAME: Phosphatidylethanolamine lyso alkenyl 18
PRECURSORMZ: 464.314648
PRECURSORTYPE: [M-H]-
FORMULA: C23H48NO6P
Ontology: Glycerophosphoethanolamines
INCHIKEY: RGAPGIRIYHJSJY-HTXNQAPBNA-N
SMILES: CCCCCCCCCCCCCCCC\C=C\OC(CO)COP(O)(=O)OCCN
RETENTIONTIME: 
CCS: -1
IONMODE: Negative
INSTRUMENTTYPE: LC-ESI-ITFT
INSTRUMENT: 
COLLISIONENERGY: 30
Comment: registered in MassBank
Num Peaks: 12
195.89	1000
196.97	62
260.20001	42
267.14001	224
366.48999	23
381.76999	58
382.70001	73
401.01001	31
403.09	552
404.12	89
404.97	104
422.13	31

NAME: Phosphatidylglyceride 16
PRECURSORMZ: 747.518159
PRECURSORTYPE: [M-H]-
FORMULA: C40H77O10P
Ontology: Phosphatidylglycerols
INCHIKEY: JITAGSMRIUAUGR-SGEDCAFJNA-N
SMILES: CCCCCCCCCCCCCCCC(=O)OCC(COP(O)(=O)OCC(O)CO)OC(=O)CC\C=C/CCCCCCCCCCCCC
RETENTIONTIME: 
CCS: -1
IONMODE: Negative
INSTRUMENTTYPE: LC-ESI-ITFT
INSTRUMENT: 
COLLISIONENERGY: 30
Comment: registered in MassBank
Num Peaks: 24
255.08	356
256.03	55
281.09	1000
282.04999	90
283.10999	122
284.12	103
327.09	233
328.07001	150
329.20999	10
391.04001	149
392.01999	23
417	9
418.12	13
419.10001	10
436.04999	208
437.14001	138
438.04001	6
465.03	79
466.13	12
483.22	86
484.25	12
490.97	23
492.32999	7
509.07001	18

NAME: Phosphatidylglyceride 16
PRECURSORMZ: 745.502509
PRECURSORTYPE: [M-H]-
FORMULA: C40H75O10P
Ontology: Phosphatidylglycerols
INCHIKEY: SHHLVVJXLWXVNI-BAOXYHDDNA-N
SMILES: CCCCCCCCCCCCCCCC(=O)OCC(COP(O)(=O)OCC(O)CO)OC(=O)CC\C=C/C\C=C/CCCCCCCCCC
RETENTIONTIME: 
CCS: -1
IONMODE: Negative
INSTRUMENTTYPE: LC-ESI-ITFT
INSTRUMENT: 
COLLISIONENERGY: 30
Comment: registered in MassBank
Num Peaks: 26
226.86	6
255.10001	385
256.06	34
259.20999	90
279.09	1000
280.09	114
287.07999	14
301.16	14
303.10001	437
326.97	20
369.23001	10
390.75	50
392.28	9
415.04999	36
417.17001	38
441.92999	27
442.62	7
460.16	172
465.17999	46
483.29001	122
484.12	36
488.97	18
655.66998	37
671.04999	7
680.71002	84
682.28003	6

NAME: Phosphatidylglyceride 16
PRECURSORMZ: 773.533809
PRECURSORTYPE: [M-H]-
FORMULA: C42H79O10P
Ontology: Phosphatidylglycerols
INCHIKEY: BWROGLIMDHGHPP-JSCMVKKRNA-N
SMILES: CCCCCCCCCCCCCCCC(=O)OCC(COP(O)(=O)OCC(O)CO)OC(=O)CC\C=C/C\C=C/CCCCCCCCCCCC
RETENTIONTIME: 
CCS: -1
IONMODE: Negative
INSTRUMENTTYPE: LC-ESI-ITFT
INSTRUMENT: 
COLLISIONENERGY: 30
Comment: registered in MassBank
Num Peaks: 26
255.21001	418
255.95	31
283.32001	39
284.13	31
285.22	39
307.14001	1000
308.20999	129
327.12	22
329.13	71
331.07999	29
391.17999	149
443	29
444.20001	25
462.20001	102
464.20001	137
464.92999	37
466.13	112
483.16	29
484.10999	16
492.64001	31
517.26001	25
534.88	18
685.12	45
692.42999	27
714.34003	18
741.29999	39

NAME: Phosphatidylglyceride 18
PRECURSORMZ: 773.533809
PRECURSORTYPE: [M-H]-
FORMULA: C42H79O10P
Ontology: Phosphatidylglycerols
INCHIKEY: AOWDUWHTDPWHIC-JSCMVKKRNA-N
SMILES: CCCCCCCCCCCCCCCCCC(=O)OCC(COP(O)(=O)OCC(O)CO)OC(=O)CC\C=C/C\C=C/CCCCCCCCCC
RETENTIONTIME: 
CCS: -1
IONMODE: Negative
INSTRUMENTTYPE: LC-ESI-ITFT
INSTRUMENT: 
COLLISIONENERGY: 30
Comment: registered in MassBank
Num Peaks: 20
279.13	1000
280.10999	113
283.14999	571
284.20001	35
326.94	14
329.23999	14
415.84	5
417.12	13
419.14001	224
423.39001	5
436.67001	6
489.04999	15
493.07001	145
493.95001	62
507.07001	15
511.17999	176
512.09998	10
625.67999	17
699.22998	5
700.16998	16

NAME: Phosphatidylglyceride 18
PRECURSORMZ: 773.533809
PRECURSORTYPE: [M-H]-
FORMULA: C42H79O10P
Ontology: Phosphatidylglycerols
INCHIKEY: VCGWKVSKEWOYEM-ZUELCTOONA-N
SMILES: CCCCCCCCCCCCC\C=C/CCC(=O)OCC(COP(O)(=O)OCC(O)CO)OC(=O)CC\C=C/CCCCCCCCCCCCC
RETENTIONTIME: 
CCS: -1
IONMODE: Negative
INSTRUMENTTYPE: LC-ESI-ITFT
INSTRUMENT: 
COLLISIONENERGY: 30
Comment: registered in MassBank
Num Peaks: 14
266.76001	15
281.20999	1000
282.09	161
283.20001	50
294.84	5
327.23999	21
342.45001	34
417.10999	13
417.89999	28
491.20999	60
509.92001	5
550.87	11
624.95001	11
629.73999	8

NAME: Phosphatidylglyceride 18
PRECURSORMZ: 771.518159
PRECURSORTYPE: [M-H]-
FORMULA: C42H77O10P
Ontology: Phosphatidylglycerols
INCHIKEY: YNBZQPMSTPSIJD-XBCPOCNBNA-N
SMILES: CCCCCCCCCCCCC\C=C/CCC(=O)OCC(COP(O)(=O)OCC(O)CO)OC(=O)CC\C=C/C\C=C/CCCCCCCCCC
RETENTIONTIME: 
CCS: -1
IONMODE: Negative
INSTRUMENTTYPE: LC-ESI-ITFT
INSTRUMENT: 
COLLISIONENERGY: 30
Comment: registered in MassBank
Num Peaks: 17
279.17999	696
280.07001	262
281.19	1000
282.20001	262
298.98001	70
309.42999	58
326.41	22
365.26999	83
416.26001	54
461.59	32
489.26001	13
507.17999	86
509.31	38
510.35001	54
636.06	83
680.53003	64
710.85999	13

NAME: Phosphatidylglyceride 18
PRECURSORMZ: 795.518159
PRECURSORTYPE: [M-H]-
FORMULA: C44H77O10P
Ontology: Phosphatidylglycerols
INCHIKEY: ITIOHRDVKOPUBF-MOYSMJPMNA-N
SMILES: CCCCCCCCCCCCC\C=C/CCC(=O)OCC(COP(O)(=O)OCC(O)CO)OC(=O)CC\C=C/C\C=C/C\C=C/C\C=C/CCCCCC
RETENTIONTIME: 
CCS: -1
IONMODE: Negative
INSTRUMENTTYPE: LC-ESI-ITFT
INSTRUMENT: 
COLLISIONENERGY: 30
Comment: registered in MassBank
Num Peaks: 19
259.47	79
260.13	26
281.04001	842
282.17001	44
303.06	1000
304.29001	22
447.01999	26
452.07001	48
488.91	26
491.20999	31
509.16	70
530.97998	79
568.23999	53
630.31	31
668.73999	88
676.35999	61
730.65997	623
731.81	197
777.14001	18

NAME: Phosphatidylglyceride 18
PRECURSORMZ: 793.502509
PRECURSORTYPE: [M-H]-
FORMULA: C44H75O10P
Ontology: Phosphatidylglycerols
INCHIKEY: QBXWEUHSBYVVIQ-XKMJRSRDNA-N
SMILES: CCCCCCCCCCCCC\C=C/CCC(=O)OCC(COP(O)(=O)OCC(O)CO)OC(=O)CC\C=C/C\C=C/C\C=C/C\C=C/C\C=C/CCC
RETENTIONTIME: 
CCS: -1
IONMODE: Negative
INSTRUMENTTYPE: LC-ESI-ITFT
INSTRUMENT: 
COLLISIONENERGY: 30
Comment: registered in MassBank
Num Peaks: 17
255.16	110
257.14999	103
279.5	69
281.17001	1000
282.06	69
283.34	83
301.13	531
302.98001	34
419.31	62
438.87	90
509.45999	97
512.81	97
529.13	76
704.96997	69
720.02002	117
732.15997	90
741.54999	55

NAME: Phosphatidylglyceride 18
PRECURSORMZ: 821.533809
PRECURSORTYPE: [M-H]-
FORMULA: C46H79O10P
Ontology: Phosphatidylglycerols
INCHIKEY: SDJOKCPHTLSGSK-RRIMUHHXNA-N
SMILES: CCCCCCCCCCCCC\C=C/CCC(=O)OCC(COP(O)(=O)OCC(O)CO)OC(=O)CC\C=C/C\C=C/C\C=C/C\C=C/C\C=C/CCCCC
RETENTIONTIME: 
CCS: -1
IONMODE: Negative
INSTRUMENTTYPE: LC-ESI-ITFT
INSTRUMENT: 
COLLISIONENERGY: 30
Comment: registered in MassBank
Num Peaks: 16
234.89999	30
280.20001	25
281.07999	660
281.85999	100
282.89001	120
285.07999	35
329.14001	1000
330.07001	40
464.03	50
465.26999	85
509.20001	60
648.33002	35
738.98999	45
760.12	95
760.91998	90
762.23999	135

NAME: Phosphatidylglyceride 18
PRECURSORMZ: 819.518159
PRECURSORTYPE: [M-H]-
FORMULA: C46H77O10P
Ontology: Phosphatidylglycerols
INCHIKEY: VGGGUMPTGJTNFQ-QRPORDCINA-N
SMILES: CCCCCCCCCCCCC\C=C/CCC(=O)OCC(COP(O)(=O)OCC(O)CO)OC(=O)CC\C=C/C\C=C/C\C=C/C\C=C/C\C=C/C\C=C/CC
RETENTIONTIME: 
CCS: -1
IONMODE: Negative
INSTRUMENTTYPE: LC-ESI-ITFT
INSTRUMENT: 
COLLISIONENERGY: 30
Comment: registered in MassBank
Num Peaks: 20
281.19	1000
282.20001	55
283.26999	139
284.04001	10
305.01999	45
317.41	13
326.5	16
327.23001	278
328.09	97
417.97	50
460.39001	55
463.14001	31
509	84
510.20999	50
538.03003	10
555.26001	13
731.45001	18
755.40002	13
770.27002	29
784.5	16

NAME: Phosphatidylglyceride 18
PRECURSORMZ: 769.502509
PRECURSORTYPE: [M-H]-
FORMULA: C42H75O10P
Ontology: Phosphatidylglycerols
INCHIKEY: WZACVMOHPZANSW-WRGXGLASNA-N
SMILES: CCCCCCCCCC\C=C/C\C=C/CCC(=O)OCC(COP(O)(=O)OCC(O)CO)OC(=O)CC\C=C/C\C=C/CCCCCCCCCC
RETENTIONTIME: 
CCS: -1
IONMODE: Negative
INSTRUMENTTYPE: LC-ESI-ITFT
INSTRUMENT: 
COLLISIONENERGY: 30
Comment: registered in MassBank
Num Peaks: 10
279.06	1000
280.16	166
283.41	28
489.20999	44
507.20001	44
536.63	20
684.22998	20
688.48999	12
710.09003	40
733.75	28

NAME: Phosphatidylglyceride 18
PRECURSORMZ: 793.502509
PRECURSORTYPE: [M-H]-
FORMULA: C44H75O10P
Ontology: Phosphatidylglycerols
INCHIKEY: YOXNNFKWZGKUBQ-IPVVXUKZNA-N
SMILES: CCCCCCCCCC\C=C/C\C=C/CCC(=O)OCC(COP(O)(=O)OCC(O)CO)OC(=O)CC\C=C/C\C=C/C\C=C/C\C=C/CCCCCC
RETENTIONTIME: 
CCS: -1
IONMODE: Negative
INSTRUMENTTYPE: LC-ESI-ITFT
INSTRUMENT: 
COLLISIONENERGY: 30
Comment: registered in MassBank
Num Peaks: 12
258.97	55
279.07001	776
285.20999	34
303.14999	1000
304	418
439.09	51
464.17001	59
531.13	110
695.66998	34
703.29999	72
711.20001	34
718.95001	38

NAME: Phosphatidylglyceride 18
PRECURSORMZ: 817.502509
PRECURSORTYPE: [M-H]-
FORMULA: C46H75O10P
Ontology: Phosphatidylglycerols
INCHIKEY: QVDNNCVPBKNHNS-XPMHQQHXNA-N
SMILES: CCCCCCCCCC\C=C/C\C=C/CCC(=O)OCC(COP(O)(=O)OCC(O)CO)OC(=O)CC\C=C/C\C=C/C\C=C/C\C=C/C\C=C/C\C=C/CC
RETENTIONTIME: 
CCS: -1
IONMODE: Negative
INSTRUMENTTYPE: LC-ESI-ITFT
INSTRUMENT: 
COLLISIONENERGY: 30
Comment: registered in MassBank
Num Peaks: 18
257.92999	24
279.06	1000
280.16	48
283.09	475
284.32999	22
300.72	10
303.82001	15
305.42999	34
327.10999	288
327.79001	22
507.07001	75
536.92999	12
554.98999	17
644.19	31
729.23999	19
743.16998	19
760.09003	53
785.48999	61

NAME: Phosphatidylglyceride 20
PRECURSORMZ: 843.518159
PRECURSORTYPE: [M-H]-
FORMULA: C48H77O10P
Ontology: Phosphatidylglycerols
INCHIKEY: QVNMBAKBHHJIRP-GKYWKYGONA-N
SMILES: CCCCCCCCC\C=C/C\C=C/C\C=C/CCC(=O)OCC(COP(O)(=O)OCC(O)CO)OC(=O)CC\C=C/C\C=C/C\C=C/C\C=C/C\C=C/C\C=C/CC
RETENTIONTIME: 
CCS: -1
IONMODE: Negative
INSTRUMENTTYPE: LC-ESI-ITFT
INSTRUMENT: 
COLLISIONENERGY: 30
Comment: registered in MassBank
Num Peaks: 11
283.23001	126
301.17001	78
305.09	1000
306.39999	104
327.23001	346
328.04001	121
513.08002	22
536.98999	52
556.57001	52
560	22
732.95001	121

NAME: Phosphatidylglyceride 20
PRECURSORMZ: 841.502509
PRECURSORTYPE: [M-H]-
FORMULA: C48H75O10P
Ontology: Phosphatidylglycerols
INCHIKEY: WAHLPBOVXFIGAP-YARNEYDXNA-N
SMILES: CCCCCC\C=C/C\C=C/C\C=C/C\C=C/CCC(=O)OCC(COP(O)(=O)OCC(O)CO)OC(=O)CC\C=C/C\C=C/C\C=C/C\C=C/C\C=C/C\C=C/CC
RETENTIONTIME: 
CCS: -1
IONMODE: Negative
INSTRUMENTTYPE: LC-ESI-ITFT
INSTRUMENT: 
COLLISIONENERGY: 30
Comment: registered in MassBank
Num Peaks: 10
259.04001	43
283.17999	586
285.07001	99
303.17001	1000
304.34	179
327.16	753
329.29999	43
330.89001	80
530.78003	62
555.15002	62

NAME: Phosphatidylglyceride 22
PRECURSORMZ: 869.533809
PRECURSORTYPE: [M-H]-
FORMULA: C50H79O10P
Ontology: Phosphatidylglycerols
INCHIKEY: NKQMVGLKBUHTCY-JKIJTENUNA-N
SMILES: CCCCCCCC\C=C/C\C=C/C\C=C/C\C=C/CCC(=O)OC(COC(=O)CC\C=C/C\C=C/C\C=C/C\C=C/C\C=C/C\C=C/CC)COP(O)(=O)OCC(O)CO
RETENTIONTIME: 
CCS: -1
IONMODE: Negative
INSTRUMENTTYPE: LC-ESI-ITFT
INSTRUMENT: 
COLLISIONENERGY: 30
Comment: registered in MassBank
Num Peaks: 6
283.23999	111
327.16	457
331.10999	1000
758.48999	123
759.34003	74
781.21997	49

NAME: Phosphatidylglyceride 22
PRECURSORMZ: 867.518159
PRECURSORTYPE: [M-H]-
FORMULA: C50H77O10P
Ontology: Phosphatidylglycerols
INCHIKEY: XHLZURIDNJOINR-WBRRUXEENA-N
SMILES: CCCCC\C=C/C\C=C/C\C=C/C\C=C/C\C=C/CCC(=O)OC(COC(=O)CC\C=C/C\C=C/C\C=C/C\C=C/C\C=C/C\C=C/CC)COP(O)(=O)OCC(O)CO
RETENTIONTIME: 
CCS: 432.3055905
IONMODE: Negative
INSTRUMENTTYPE: LC-ESI-ITFT
INSTRUMENT: 
COLLISIONENERGY: 30
Comment: registered in MassBank
Num Peaks: 7
282.76001	133
285.07001	500
326.98999	344
329	1000
464.54001	56
540.09998	89
557.14001	89

NAME: Phosphatidylglyceride 22
PRECURSORMZ: 865.502509
PRECURSORTYPE: [M-H]-
FORMULA: C50H75O10P
Ontology: Phosphatidylglycerols
INCHIKEY: XACKZSRNTPEYBU-GZSOIYOPNA-N
SMILES: CC\C=C/C\C=C/C\C=C/C\C=C/C\C=C/C\C=C/CCC(=O)OCC(COP(O)(=O)OCC(O)CO)OC(=O)CC\C=C/C\C=C/C\C=C/C\C=C/C\C=C/C\C=C/CC
RETENTIONTIME: 
CCS: 424.3166899
IONMODE: Negative
INSTRUMENTTYPE: LC-ESI-ITFT
INSTRUMENT: 
COLLISIONENERGY: 30
Comment: registered in MassBank
Num Peaks: 11
283.23999	633
284.01001	68
327.17999	1000
328.04999	112
465.09	17
525.03003	11
536.89001	38
554.84998	78
556.10999	57
627.21002	23
815.66998	17

NAME: Phosphatidylinositol 16
PRECURSORMZ: 835.534203
PRECURSORTYPE: [M-H]-
FORMULA: C43H81O13P
Ontology: Phosphatidylinositols
INCHIKEY: IBBOEPTXNHPBRH-AFOMSZMQSA-N
SMILES: CCCCCCCCCCCCCCCC(=O)OCC(COP(O)(=O)O[C@H]1[C@H](O)[C@@H](O)[C@H](O)[C@@H](O)[C@H]1O)OC(=O)CC\C=C/CCCCCCCCCCCCC
RETENTIONTIME: 
CCS: -1
IONMODE: Negative
INSTRUMENTTYPE: LC-ESI-ITFT
INSTRUMENT: 
COLLISIONENERGY: 30
Comment: registered in MassBank
Num Peaks: 23
240.78	174
255.17999	434
256.19	62
281.19	258
282.17001	40
296.82999	148
391.01999	394
392.20999	165
417.06	104
418.23999	26
421.82999	22
437.35001	33
553.07001	1000
554.03003	167
571.19	293
572.01001	9
579	174
579.59998	31
580.22998	33
597.21997	33
745.14001	31
748.14001	192
749.46002	37

NAME: Phosphatidylinositol 16
PRECURSORMZ: 833.518553
PRECURSORTYPE: [M-H]-
FORMULA: C43H79O13P
Ontology: Phosphatidylinositols
INCHIKEY: UKUWCMCEVNAMQA-DNPFOPPISA-N
SMILES: CCCCCCCCCCCCCCCC(=O)OCC(COP(O)(=O)O[C@H]1[C@H](O)[C@@H](O)[C@H](O)[C@@H](O)[C@H]1O)OC(=O)CC\C=C/C\C=C/CCCCCCCCCC
RETENTIONTIME: 
CCS: -1
IONMODE: Negative
INSTRUMENTTYPE: LC-ESI-ITFT
INSTRUMENT: 
COLLISIONENERGY: 30
Comment: registered in MassBank
Num Peaks: 28
240.84	245
241.99001	11
255.2	433
256.20001	38
258.73999	26
279.16	329
280.14999	34
296.89999	164
297.88	8
314.92001	30
390.94	564
392.07001	83
409.17999	56
414.98001	97
417.84	14
436.45001	6
464.16	10
496.78	16
553.07001	1000
554.15002	167
571.09998	241
572.01001	44
577.12	137
578.21997	52
594.84003	16
596.13	14
735.63	8
746.09998	66

NAME: Phosphatidylinositol 16
PRECURSORMZ: 859.534203
PRECURSORTYPE: [M-H]-
FORMULA: C45H81O13P
Ontology: Phosphatidylinositols
INCHIKEY: TYVNWAWTRSCTFD-PSOMHJJNSA-N
SMILES: CCCCCCCCCCCCCCCC(=O)OCC(COP(O)(=O)O[C@H]1[C@H](O)[C@@H](O)[C@H](O)[C@@H](O)[C@H]1O)OC(=O)CC\C=C/C\C=C/C\C=C/CCCCCCCCC
RETENTIONTIME: 
CCS: -1
IONMODE: Negative
INSTRUMENTTYPE: LC-ESI-ITFT
INSTRUMENT: 
COLLISIONENERGY: 30
Comment: registered in MassBank
Num Peaks: 30
255.17999	320
256.04999	84
296.95001	245
297.92001	11
305.10999	252
306.17999	19
314.92001	26
347.16	15
391.01999	406
392.09	66
409.26001	19
440.95999	92
442.01999	19
461.01001	7
491.29001	14
553.07001	1000
554.16998	140
571.10999	160
572.13	70
577.03998	12
595.28003	17
603.10999	41
604.13	71
621.42999	50
622.08002	7
697.21002	21
755.40002	20
770.83002	11
772.23999	48
808.12	43

NAME: Phosphatidylinositol 16
PRECURSORMZ: 857.518553
PRECURSORTYPE: [M-H]-
FORMULA: C45H79O13P
Ontology: Phosphatidylinositols
INCHIKEY: QAOYQEIOBPZFPB-VHZSRAIHSA-N
SMILES: CCCCCCCCCCCCCCCC(=O)OCC(COP(O)(=O)O[C@H]1[C@H](O)[C@@H](O)[C@H](O)[C@@H](O)[C@H]1O)OC(=O)CC\C=C/C\C=C/C\C=C/C\C=C/CCCCCC
RETENTIONTIME: 
CCS: -1
IONMODE: Negative
INSTRUMENTTYPE: LC-ESI-ITFT
INSTRUMENT: 
COLLISIONENERGY: 30
Comment: registered in MassBank
Num Peaks: 26
240.95	52
241.8	9
255.05	384
256.14001	51
259.04999	30
260.01001	9
296.92001	171
298.07999	24
303.13	294
304.07999	31
314.94	33
390.94	605
392.07001	63
409.06	35
438.97	95
440.04999	22
553.03003	1000
553.98999	229
571.14001	249
572.09998	51
601.04999	192
602	48
619.03003	28
695.26001	9
767.33002	6
775.37	7

NAME: Phosphatidylinositol 16
PRECURSORMZ: 855.502903
PRECURSORTYPE: [M-H]-
FORMULA: C45H77O13P
Ontology: Phosphatidylinositols
INCHIKEY: CTYGZBOFLKSVSJ-AYZKUARYSA-N
SMILES: CCCCCCCCCCCCCCCC(=O)OCC(COP(O)(=O)O[C@H]1[C@H](O)[C@@H](O)[C@H](O)[C@@H](O)[C@H]1O)OC(=O)CC\C=C/C\C=C/C\C=C/C\C=C/C\C=C/CCC
RETENTIONTIME: 
CCS: -1
IONMODE: Negative
INSTRUMENTTYPE: LC-ESI-ITFT
INSTRUMENT: 
COLLISIONENERGY: 30
Comment: registered in MassBank
Num Peaks: 24
240.86	111
255.09	314
256.03	34
258.97	73
296.95001	88
301.41	54
302.32999	27
388.92999	46
391.13	743
392.12	69
420.37	50
436.69	130
438.09	15
553	1000
554.13	280
571.21997	379
572.21002	46
598.73999	38
618.06	15
709.62	46
768.21002	46
773.46997	27
798.12	42
826.12	19

NAME: Phosphatidylinositol 16
PRECURSORMZ: 881.518553
PRECURSORTYPE: [M-H]-
FORMULA: C47H79O13P
Ontology: Phosphatidylinositols
INCHIKEY: FPHAZHKZJQOPBU-BXVYXOBNSA-N
SMILES: CCCCCCCCCCCCCCCC(=O)OCC(COP(O)(=O)O[C@H]1[C@H](O)[C@@H](O)[C@H](O)[C@@H](O)[C@H]1O)OC(=O)CC\C=C/C\C=C/C\C=C/C\C=C/C\C=C/C\C=C/CC
RETENTIONTIME: 
CCS: -1
IONMODE: Negative
INSTRUMENTTYPE: LC-ESI-ITFT
INSTRUMENT: 
COLLISIONENERGY: 30
Comment: registered in MassBank
Num Peaks: 23
255.12	223
256.13	12
283.32999	41
296.88	122
316.01999	10
327.28	45
328.14001	8
391.01001	339
392.14999	44
409.35999	15
450.20999	16
462.92999	71
463.97	37
553.13	1000
554.12	50
570.94	289
572.10999	29
625.03003	154
626.03998	19
643.21997	33
793.82001	18
794.65997	14
845.12	10

NAME: Phosphatidylinositol 16
PRECURSORMZ: 831.502903
PRECURSORTYPE: [M-H]-
FORMULA: C43H77O13P
Ontology: Phosphatidylinositols
INCHIKEY: JHVZQBRAEVIBML-DVHZKANPSA-N
SMILES: CCCCCCCCCCC\C=C/CCC(=O)OCC(COP(O)(=O)O[C@H]1[C@H](O)[C@@H](O)[C@H](O)[C@@H](O)[C@H]1O)OC(=O)CC\C=C/C\C=C/CCCCCCCCCC
RETENTIONTIME: 
CCS: -1
IONMODE: Negative
INSTRUMENTTYPE: LC-ESI-ITFT
INSTRUMENT: 
COLLISIONENERGY: 30
Comment: registered in MassBank
Num Peaks: 23
240.97	315
253.27	288
279.06	1000
279.69	178
284.14999	178
297.07001	178
389.23999	685
414.84	164
477.16	123
506.09	123
550.90002	836
551.97998	370
569.21002	82
570.16998	315
577.90997	96
690.01001	247
743.14001	151
756.03003	96
757.21997	233
770.10999	164
771.32001	370
800.12	123
801.72998	110

NAME: Phosphatidylinositol 17
PRECURSORMZ: 871.534203
PRECURSORTYPE: [M-H]-
FORMULA: C46H81O13P
Ontology: Phosphatidylinositols
INCHIKEY: DFLHJZQZIPIWSG-VAUUZOHPSA-N
SMILES: CCCCCCCCCCCCCCCCC(=O)OCC(COP(O)(=O)O[C@H]1[C@H](O)[C@@H](O)[C@H](O)[C@@H](O)[C@H]1O)OC(=O)CC\C=C/C\C=C/C\C=C/C\C=C/CCCCCC
RETENTIONTIME: 
CCS: -1
IONMODE: Negative
INSTRUMENTTYPE: LC-ESI-ITFT
INSTRUMENT: 
COLLISIONENERGY: 30
Comment: registered in MassBank
Num Peaks: 24
259.07001	50
259.85999	20
269.10001	403
270.12	67
284.13	12
296.82001	236
303.10001	125
315.16	8
403.32999	32
405.03	514
406.01999	67
422.54999	20
439.12	46
456.87	20
567.03003	659
568.01001	87
585.15002	147
586.28998	54
601.12	196
602.02002	60
618.84003	14
666.62	10
709.20001	28
789.15997	1000

NAME: Phosphatidylinositol 18
PRECURSORMZ: 861.549853
PRECURSORTYPE: [M-H]-
FORMULA: C45H83O13P
Ontology: Phosphatidylinositols
INCHIKEY: DJIHJMQVAWUMQB-GRNFJTJUSA-N
SMILES: CCCCCCCCCCCCCCCCCC(=O)OCC(COP(O)(=O)O[C@H]1[C@H](O)[C@@H](O)[C@H](O)[C@@H](O)[C@H]1O)OC(=O)CC\C=C/C\C=C/CCCCCCCCCC
RETENTIONTIME: 
CCS: -1
IONMODE: Negative
INSTRUMENTTYPE: LC-ESI-ITFT
INSTRUMENT: 
COLLISIONENERGY: 30
Comment: registered in MassBank
Num Peaks: 28
240.97	11
241.91	8
258.95001	8
261.10999	5
279.22	221
280.17001	37
283.13	864
284.23001	123
296.84	155
297.70999	5
314.89001	13
415.16	114
416.29999	12
419.12	606
420.20001	95
437.20001	19
489.20999	8
577.08002	184
578.08002	41
581.09003	1000
582.07001	175
595.19	11
596.07001	9
599.20001	189
600.22998	69
698.58002	6
699.28998	14
722.28998	15

NAME: Phosphatidylinositol 18
PRECURSORMZ: 887.565503
PRECURSORTYPE: [M-H]-
FORMULA: C47H85O13P
Ontology: Phosphatidylinositols
INCHIKEY: IVPVQEZYLVFIGH-FLPISHNPSA-N
SMILES: CCCCCCCCCCCCCCCCCC(=O)OCC(COP(O)(=O)O[C@H]1[C@H](O)[C@@H](O)[C@H](O)[C@@H](O)[C@H]1O)OC(=O)CC\C=C/C\C=C/C\C=C/CCCCCCCCC
RETENTIONTIME: 
CCS: -1
IONMODE: Negative
INSTRUMENTTYPE: LC-ESI-ITFT
INSTRUMENT: 
COLLISIONENERGY: 30
Comment: registered in MassBank
Num Peaks: 21
261.19	9
283.13	618
284.26999	60
287.35001	8
296.89999	169
305.17001	300
306.23001	35
314.97	18
418.98999	677
420.04001	47
437.20999	43
440.98001	87
442	14
459.04999	9
581.01001	1000
582.20001	152
599.14001	229
600.17999	7
603.03003	244
603.95001	28
621.15002	30

NAME: Phosphatidylinositol 18
PRECURSORMZ: 885.549853
PRECURSORTYPE: [M-H]-
FORMULA: C47H83O13P
Ontology: Phosphatidylinositols
INCHIKEY: QTBZDDLLDFZGQX-KVUJAYRISA-N
SMILES: CCCCCCCCCCCCCCCCCC(=O)OCC(COP(O)(=O)O[C@H]1[C@H](O)[C@@H](O)[C@H](O)[C@@H](O)[C@H]1O)OC(=O)CC\C=C/C\C=C/C\C=C/C\C=C/CCCCCC
RETENTIONTIME: 
CCS: -1
IONMODE: Negative
INSTRUMENTTYPE: LC-ESI-ITFT
INSTRUMENT: 
COLLISIONENERGY: 30
Comment: registered in MassBank
Num Peaks: 20
259.22	14
283.09	765
284.20999	115
296.97	205
303.04001	283
304.04999	21
314.95001	47
419	750
420.10999	50
437.10999	37
438.91	84
439.91	33
581.09998	1000
582.20001	155
599.01001	305
600.14001	63
601.01001	247
602.16998	17
619.21002	32
723.16998	12

NAME: Phosphatidylinositol 18
PRECURSORMZ: 883.534203
PRECURSORTYPE: [M-H]-
FORMULA: C47H81O13P
Ontology: Phosphatidylinositols
INCHIKEY: CZXYESCYMAKGKD-BRWUPIELSA-N
SMILES: CCCCCCCCCCCCCCCCCC(=O)OCC(COP(O)(=O)O[C@H]1[C@H](O)[C@@H](O)[C@H](O)[C@@H](O)[C@H]1O)OC(=O)CC\C=C/C\C=C/C\C=C/C\C=C/C\C=C/CCC
RETENTIONTIME: 
CCS: -1
IONMODE: Negative
INSTRUMENTTYPE: LC-ESI-ITFT
INSTRUMENT: 
COLLISIONENERGY: 30
Comment: registered in MassBank
Num Peaks: 22
256.69	24
257.29999	32
258.10001	11
283.13	746
284.31	67
296.85999	135
297.98999	50
301.28	147
301.92001	50
419.10999	602
420.14001	88
437.13	32
489.13	9
578.90997	36
581.08002	1000
582.12	268
598.95001	265
600	97
721.23999	45
777.04999	17
793.5	18
795.97998	11

NAME: Phosphatidylinositol 18
PRECURSORMZ: 913.581153
PRECURSORTYPE: [M-H]-
FORMULA: C49H87O13P
Ontology: Phosphatidylinositols
INCHIKEY: LBMMQTGWTSTFIZ-WJEBLFDXSA-N
SMILES: CCCCCCCCCCCCCCCCCC(=O)OCC(COP(O)(=O)O[C@H]1[C@H](O)[C@@H](O)[C@H](O)[C@@H](O)[C@H]1O)OC(=O)CC\C=C/C\C=C/C\C=C/C\C=C/CCCCCCCC
RETENTIONTIME: 
CCS: -1
IONMODE: Negative
INSTRUMENTTYPE: LC-ESI-ITFT
INSTRUMENT: 
COLLISIONENERGY: 30
Comment: registered in MassBank
Num Peaks: 21
258.76999	25
283.10001	421
284.12	65
297.01999	63
329.95001	23
330.98999	105
331.64999	15
332.42999	48
419.06	566
420.01001	20
438.04999	25
467.09	103
542.04999	33
581.10999	1000
582.02002	38
599.12	183
599.96002	20
629.15002	148
630.22998	43
648.06	13
825.03998	48

NAME: Phosphatidylinositol 18
PRECURSORMZ: 911.565503
PRECURSORTYPE: [M-H]-
FORMULA: C49H85O13P
Ontology: Phosphatidylinositols
INCHIKEY: MQRZIONTIPBTLX-SGZUTDQTSA-N
SMILES: CCCCCCCCCCCCCCCCCC(=O)OCC(COP(O)(=O)O[C@H]1[C@H](O)[C@@H](O)[C@H](O)[C@@H](O)[C@H]1O)OC(=O)CC\C=C/C\C=C/C\C=C/C\C=C/C\C=C/CCCCC
RETENTIONTIME: 
CCS: 411.4828447
IONMODE: Negative
INSTRUMENTTYPE: LC-ESI-ITFT
INSTRUMENT: 
COLLISIONENERGY: 30
Comment: registered in MassBank
Num Peaks: 19
259.06	13
283.22	585
284.26001	26
296.87	110
315.10001	29
329.16	105
330.47	26
419.04999	625
464.81	70
466.23999	40
581.09003	1000
582	59
599.27002	143
600.21997	7
607.40997	26
627.15997	233
628.21997	15
645.09003	28
748.88	33

NAME: Phosphatidylinositol 18
PRECURSORMZ: 909.549853
PRECURSORTYPE: [M-H]-
FORMULA: C49H83O13P
Ontology: Phosphatidylinositols
INCHIKEY: DJVOKHFQPGWUPK-CONVNOKZSA-N
SMILES: CCCCCCCCCCCCCCCCCC(=O)OCC(COP(O)(=O)O[C@H]1[C@H](O)[C@@H](O)[C@H](O)[C@@H](O)[C@H]1O)OC(=O)CC\C=C/C\C=C/C\C=C/C\C=C/C\C=C/C\C=C/CC
RETENTIONTIME: 
CCS: 418.8282198
IONMODE: Negative
INSTRUMENTTYPE: LC-ESI-ITFT
INSTRUMENT: 
COLLISIONENERGY: 30
Comment: registered in MassBank
Num Peaks: 17
283.03	679
284.17001	47
296.98999	96
297.94	7
314.87	10
327.12	92
328.12	18
419	644
420.19	54
462.85999	68
493.12	7
581.09998	1000
582.10999	113
599.08002	229
600.15002	44
625.04999	136
747.13	23

NAME: Phosphatidylinositol 18
PRECURSORMZ: 859.534203
PRECURSORTYPE: [M-H]-
FORMULA: C45H81O13P
Ontology: Phosphatidylinositols
INCHIKEY: YWXCZYNZOLHDAW-RFSLHEDBSA-N
SMILES: CCCCCCCCCCCCC\C=C/CCC(=O)OCC(COP(O)(=O)O[C@H]1[C@H](O)[C@@H](O)[C@H](O)[C@@H](O)[C@H]1O)OC(=O)CC\C=C/C\C=C/CCCCCCCCCC
RETENTIONTIME: 
CCS: -1
IONMODE: Negative
INSTRUMENTTYPE: LC-ESI-ITFT
INSTRUMENT: 
COLLISIONENERGY: 30
Comment: registered in MassBank
Num Peaks: 37
240.86	61
255.11	9
255.95	6
259.03	28
279.09	235
281.06	961
282.19	206
296.97	200
297.85001	9
304.26999	24
315	30
327.25	5
391.01001	12
392.07999	12
393.10001	7
415.04999	83
417.01001	749
418.04999	90
434.98999	22
481.23999	5
553.15997	12
553.91998	9
554.98999	27
577.10999	197
578.37	168
579.13	1000
580.03003	230
595.14001	56
597.20001	225
598.16998	45
696.27002	6
749.23999	6
767.12	7
783.59003	22
785.01001	8
838.96997	6
849.83002	15

NAME: Phosphatidylinositol 18
PRECURSORMZ: 885.549853
PRECURSORTYPE: [M-H]-
FORMULA: C47H83O13P
Ontology: Phosphatidylinositols
INCHIKEY: LNVVBCYFPFTKCW-YKZCNZEKSA-N
SMILES: CCCCCCCCCCCCC\C=C/CCC(=O)OCC(COP(O)(=O)O[C@H]1[C@H](O)[C@@H](O)[C@H](O)[C@@H](O)[C@H]1O)OC(=O)CC\C=C/C\C=C/C\C=C/CCCCCCCCC
RETENTIONTIME: 
CCS: -1
IONMODE: Negative
INSTRUMENTTYPE: LC-ESI-ITFT
INSTRUMENT: 
COLLISIONENERGY: 30
Comment: registered in MassBank
Num Peaks: 18
279.19	24
281.01001	774
281.98999	81
296.94	161
303.23999	28
305.14001	222
306.26001	137
315.14999	24
417.17001	815
418.10001	109
440.89999	302
579.09003	1000
580.28003	65
597.38	165
603.25	113
604.28998	125
723.04999	20
727.10999	48

NAME: Phosphatidylinositol 18
PRECURSORMZ: 883.534203
PRECURSORTYPE: [M-H]-
FORMULA: C47H81O13P
Ontology: Phosphatidylinositols
INCHIKEY: PKDRPGXTELXGGN-RXMKVQODSA-N
SMILES: CCCCCCCCCCCCC\C=C/CCC(=O)OCC(COP(O)(=O)O[C@H]1[C@H](O)[C@@H](O)[C@H](O)[C@@H](O)[C@H]1O)OC(=O)CC\C=C/C\C=C/C\C=C/C\C=C/CCCCCC
RETENTIONTIME: 
CCS: -1
IONMODE: Negative
INSTRUMENTTYPE: LC-ESI-ITFT
INSTRUMENT: 
COLLISIONENERGY: 30
Comment: registered in MassBank
Num Peaks: 23
259.10001	28
281.06	640
282.10999	34
296.94	162
297.95999	7
303.10001	192
304.09	25
314.84	50
417.06	590
418.14999	54
435.09	18
439.01999	86
457.10001	5
523.34998	7
579.02002	1000
580.21997	86
597.07001	235
598.09998	12
601.02002	218
601.92999	8
619.22998	18
721.15002	10
722.37	7

NAME: Phosphatidylinositol 18
PRECURSORMZ: 907.534203
PRECURSORTYPE: [M-H]-
FORMULA: C49H81O13P
Ontology: Phosphatidylinositols
INCHIKEY: HJWMMUBGTHVMFN-VPCUEIIDSA-N
SMILES: CCCCCCCCCCCCC\C=C/CCC(=O)OCC(COP(O)(=O)O[C@H]1[C@H](O)[C@@H](O)[C@H](O)[C@@H](O)[C@H]1O)OC(=O)CC\C=C/C\C=C/C\C=C/C\C=C/C\C=C/C\C=C/CC
RETENTIONTIME: 
CCS: -1
IONMODE: Negative
INSTRUMENTTYPE: LC-ESI-ITFT
INSTRUMENT: 
COLLISIONENERGY: 30
Comment: registered in MassBank
Num Peaks: 24
258.89001	88
281.22	708
282.29001	88
284.12	66
297	62
314.92001	40
327.07999	146
417.04999	442
418.07001	217
435.22	40
462.89999	146
491.04999	71
491.91	35
509.31	58
579.02002	1000
580.14001	252
597.07001	80
625.16998	407
626.28003	80
786.04999	40
795.42999	31
819.22998	84
820.09998	717
890.84003	71

NAME: Phosphatidylinositol 19
PRECURSORMZ: 899.565503
PRECURSORTYPE: [M-H]-
FORMULA: C48H85O13P
Ontology: Phosphatidylinositols
INCHIKEY: GQWBKIUFQRXJRP-ZKYHKDPYSA-N
SMILES: CCCCCCCCCCCCCCCCCCC(=O)OCC(COP(O)(=O)O[C@H]1[C@H](O)[C@@H](O)[C@H](O)[C@@H](O)[C@H]1O)OC(=O)CC\C=C/C\C=C/C\C=C/C\C=C/CCCCCC
RETENTIONTIME: 
CCS: -1
IONMODE: Negative
INSTRUMENTTYPE: LC-ESI-ITFT
INSTRUMENT: 
COLLISIONENERGY: 30
Comment: registered in MassBank
Num Peaks: 16
259.10001	16
297.10999	1000
298.16	105
303.07999	113
312.01001	12
433.06	426
434.20001	109
439.12	62
595.04999	759
596.21002	272
600.98999	140
613.27002	216
614.06	43
619.19	12
620.16998	31
817.28998	70

NAME: Phosphatidylinositol 20
PRECURSORMZ: 913.581153
PRECURSORTYPE: [M-H]-
FORMULA: C49H87O13P
Ontology: Phosphatidylinositols
INCHIKEY: NBBYCIYUCRZFFV-LLKVLBNOSA-N
SMILES: CCCCCCCCCCCCCCCCCCCC(=O)OCC(COP(O)(=O)O[C@H]1[C@H](O)[C@@H](O)[C@H](O)[C@@H](O)[C@H]1O)OC(=O)CC\C=C/C\C=C/C\C=C/C\C=C/CCCCCC
RETENTIONTIME: 
CCS: -1
IONMODE: Negative
INSTRUMENTTYPE: LC-ESI-ITFT
INSTRUMENT: 
COLLISIONENERGY: 30
Comment: registered in MassBank
Num Peaks: 24
259.20001	26
296.98001	174
302.94	134
304.12	20
311.17999	584
312.17999	113
314.87	20
438.98001	114
439.97	43
447.04999	599
448.03	132
465.35001	26
466.29001	53
517.25	6
601.16998	125
602.45001	6
609.09998	1000
610.14001	214
619.17999	16
627.19	175
627.91998	39
628.54999	9
819.38	21
832.03003	103

NAME: Phosphatidylinositol alkyl 16
PRECURSORMZ: 865.523638
PRECURSORTYPE: [M-H]-
FORMULA: C47H79O12P
Ontology: 1-alkyl,2-acylglycerophosphoinositols
INCHIKEY: HJZVPFAZKUHWMN-ZRQCKBQHSA-N
SMILES: CCCCCCCCCCC\C=C/CCCOCC(COP(O)(=O)O[C@H]1[C@H](O)[C@@H](O)[C@H](O)[C@@H](O)[C@H]1O)OC(=O)CC\C=C/C\C=C/C\C=C/C\C=C/C\C=C/C\C=C/CC
RETENTIONTIME: 
CCS: -1
IONMODE: Negative
INSTRUMENTTYPE: LC-ESI-ITFT
INSTRUMENT: 
COLLISIONENERGY: 30
Comment: registered in MassBank
Num Peaks: 11
283.23999	633
284.01001	68
327.17999	1000
328.04999	112
465.09	17
525.03003	11
536.89001	38
554.84998	78
556.10999	57
627.21002	23
815.66998	17

NAME: Phosphatidylinositol lyso 16
PRECURSORMZ: 571.288887
PRECURSORTYPE: [M-H]-
FORMULA: C25H49O12P
Ontology: 2-acyl-sn-glycerol-3-phosphoinositols
INCHIKEY: NUDRHGDMWNFXMD-PYXWJOJKSA-N
SMILES: CCCCCCCCCCCCCCCC(=O)OC(CO)COP(O)(=O)O[C@H]1[C@H](O)[C@@H](O)[C@H](O)[C@@H](O)[C@H]1O
RETENTIONTIME: 
CCS: -1
IONMODE: Negative
INSTRUMENTTYPE: LC-ESI-ITFT
INSTRUMENT: 
COLLISIONENERGY: 30
Comment: registered in MassBank
Num Peaks: 18
223	41
240.86	349
255.10001	1000
256.09	189
268.82001	41
304.54001	89
315.04001	882
345.85999	47
391.07001	373
409.20001	47
414.54999	59
426.92999	142
429.14001	154
473.79001	83
488.67001	172
510.5	213
513.21997	47
528.20001	83

NAME: Phosphatidylinositol lyso 18
PRECURSORMZ: 599.320187
PRECURSORTYPE: [M-H]-
FORMULA: C27H53O12P
Ontology: 2-acyl-sn-glycerol-3-phosphoinositols
INCHIKEY: AGVRWBBFKKEVAX-WAPMBQLLSA-N
SMILES: CCCCCCCCCCCCCCCCCC(=O)OC(CO)COP(O)(=O)O[C@H]1[C@H](O)[C@@H](O)[C@H](O)[C@@H](O)[C@H]1O
RETENTIONTIME: 
CCS: 275.2004289
IONMODE: Negative
INSTRUMENTTYPE: LC-ESI-ITFT
INSTRUMENT: 
COLLISIONENERGY: 30
Comment: registered in MassBank
Num Peaks: 18
222.95	39
240.82001	445
283.12	1000
284.10999	136
314.92001	455
315.95001	22
332.94	17
408.72	10
411.45999	5
418.94	543
420.04001	52
422.82001	7
437.23999	10
438.23999	10
467.23001	17
539.59998	7
556.78998	9
571.65002	5

NAME: Phosphatidylinositol lyso 18
PRECURSORMZ: 597.304537
PRECURSORTYPE: [M-H]-
FORMULA: C27H51O12P
Ontology: 2-acyl-sn-glycerol-3-phosphoinositols
INCHIKEY: OVHGUPNHWUHPOM-DBFVMBBUSA-N
SMILES: CCCCCCCCCCCCC\C=C/CCC(=O)OC(CO)COP(O)(=O)O[C@H]1[C@H](O)[C@@H](O)[C@H](O)[C@@H](O)[C@H]1O
RETENTIONTIME: 
CCS: -1
IONMODE: Negative
INSTRUMENTTYPE: LC-ESI-ITFT
INSTRUMENT: 
COLLISIONENERGY: 30
Comment: registered in MassBank
Num Peaks: 15
240.75	734
281.16	1000
282.29999	215
289.78	127
315.09	152
391.32001	139
417.04999	684
455.10001	165
505.38	127
514.46002	127
523.19	114
554.41998	190
565.17999	76
569.72998	127
598.91998	89

NAME: Phosphatidylserine 16
PRECURSORMZ: 782.497758
PRECURSORTYPE: [M-H]-
FORMULA: C42H74NO10P
Ontology: Phosphatidylserines
INCHIKEY: SPHVTAIQBHDJQC-WRDNLCFKNA-N
SMILES: CCCCCCCCCCCCCCCC(=O)OCC(COP(O)(=O)OCC(N)C(O)=O)OC(=O)CC\C=C/C\C=C/C\C=C/C\C=C/CCCCCC
RETENTIONTIME: 
CCS: -1
IONMODE: Negative
INSTRUMENTTYPE: LC-ESI-ITFT
INSTRUMENT: 
COLLISIONENERGY: 30
Comment: registered in MassBank
Num Peaks: 17
255.07001	43
279.82999	6
281.14999	266
282.07001	47
302.91	17
321.14001	1000
322.07999	172
390.94	56
410.04001	6
419.16	6
460.35001	6
477.95999	86
478.88	8
695.14001	367
696.23999	123
749.59998	9
761.90002	6

NAME: Phosphatidylserine 16
PRECURSORMZ: 806.497758
PRECURSORTYPE: [M-H]-
FORMULA: C44H74NO10P
Ontology: Phosphatidylserines
INCHIKEY: PWBBJQOVCTWPIM-LGFBOSHVNA-N
SMILES: CCCCCCCCCCCCCCCC(=O)OCC(COP(O)(=O)OCC(N)C(O)=O)OC(=O)CC\C=C/C\C=C/C\C=C/C\C=C/C\C=C/C\C=C/CC
RETENTIONTIME: 
CCS: 392.052821
IONMODE: Negative
INSTRUMENTTYPE: LC-ESI-ITFT
INSTRUMENT: 
COLLISIONENERGY: 30
Comment: registered in MassBank
Num Peaks: 15
255.06	51
256.17999	26
327.07001	7
390.94	187
391.88	35
409.13	43
410.39999	8
463	55
464.16	7
481.17001	7
495.62	6
719.06	1000
720.20001	355
737.63	6
743	6

NAME: Phosphatidylserine 17
PRECURSORMZ: 796.513408
PRECURSORTYPE: [M-H]-
FORMULA: C43H76NO10P
Ontology: Phosphatidylserines
INCHIKEY: BPPNSMDUPJTVAF-VTJLAKARNA-N
SMILES: CCCCCCCCCCCCCCCCC(=O)OCC(COP(O)(=O)OCC(N)C(O)=O)OC(=O)CC\C=C/C\C=C/C\C=C/C\C=C/CCCCCC
RETENTIONTIME: 
CCS: -1
IONMODE: Negative
INSTRUMENTTYPE: LC-ESI-ITFT
INSTRUMENT: 
COLLISIONENERGY: 30
Comment: registered in MassBank
Num Peaks: 16
258.95001	25
269.26999	114
279.14999	352
280.07999	60
281.20999	19
283.03	270
303.23001	365
390.92001	25
405.35001	41
423	54
438.97	48
452.03	29
492.98001	143
510.10001	67
518.31	57
709.12	1000

NAME: Phosphatidylserine 18
PRECURSORMZ: 788.544708
PRECURSORTYPE: [M-H]-
FORMULA: C42H80NO10P
Ontology: Phosphatidylserines
INCHIKEY: GPSKZJNTROFFOC-HYOGKJQXNA-N
SMILES: CCCCCCCCCCCCCCCCCC(=O)OCC(COP(O)(=O)OCC(N)C(O)=O)OC(=O)CC\C=C/CCCCCCCCCCCCC
RETENTIONTIME: 
CCS: -1
IONMODE: Negative
INSTRUMENTTYPE: LC-ESI-ITFT
INSTRUMENT: 
COLLISIONENERGY: 30
Comment: registered in MassBank
Num Peaks: 12
281.26999	10
283.29999	10
413.64001	8
417.03	13
419.22	79
437.09	32
452.10999	15
680.76001	21
701.09998	1000
702.06	309
702.67999	18
706.72998	13

NAME: Phosphatidylserine 18
PRECURSORMZ: 786.529058
PRECURSORTYPE: [M-H]-
FORMULA: C42H78NO10P
Ontology: Phosphatidylserines
INCHIKEY: VMDCGUSYZOIAGZ-JSCMVKKRNA-N
SMILES: CCCCCCCCCCCCCCCCCC(=O)OCC(COP(O)(=O)OCC(N)C(O)=O)OC(=O)CC\C=C/C\C=C/CCCCCCCCCC
RETENTIONTIME: 
CCS: -1
IONMODE: Negative
INSTRUMENTTYPE: LC-ESI-ITFT
INSTRUMENT: 
COLLISIONENERGY: 30
Comment: registered in MassBank
Num Peaks: 17
279.41	9
283.60999	15
285.07001	17
298.25	20
320.84	76
322.19	104
323.29999	17
415.06	73
416.25	9
418.95999	75
420.23001	46
437.22	21
481.39999	24
699.17999	1000
700.06	489
700.76001	12
755.12	12

NAME: Phosphatidylserine 18
PRECURSORMZ: 812.544708
PRECURSORTYPE: [M-H]-
FORMULA: C44H80NO10P
Ontology: Phosphatidylserines
INCHIKEY: JRRYKGRILWVSHS-JCXYTCFZNA-N
SMILES: CCCCCCCCCCCCCCCCCC(=O)OCC(COP(O)(=O)OCC(N)C(O)=O)OC(=O)CC\C=C/C\C=C/C\C=C/CCCCCCCCC
RETENTIONTIME: 
CCS: -1
IONMODE: Negative
INSTRUMENTTYPE: LC-ESI-ITFT
INSTRUMENT: 
COLLISIONENERGY: 30
Comment: registered in MassBank
Num Peaks: 22
233.06	12
283.16	262
283.97	6
322	11
327.97	13
349.10001	1000
350.25	160
418.84	48
419.95999	25
437.23999	7
439.98999	12
480.07999	104
480.98001	24
701.23999	13
724.12	91
725.14001	377
726.03998	147
730.37	6
752.38	25
780.10999	18
792.15002	8
797.48999	12

NAME: Phosphatidylserine 18
PRECURSORMZ: 810.529058
PRECURSORTYPE: [M-H]-
FORMULA: C44H78NO10P
Ontology: Phosphatidylserines
INCHIKEY: AENVCOSUVDLDFA-NQWSYULSNA-N
SMILES: CCCCCCCCCCCCCCCCCC(=O)OCC(COP(O)(=O)OCC(N)C(O)=O)OC(=O)CC\C=C/C\C=C/C\C=C/C\C=C/CCCCCC
RETENTIONTIME: 
CCS: -1
IONMODE: Negative
INSTRUMENTTYPE: LC-ESI-ITFT
INSTRUMENT: 
COLLISIONENERGY: 30
Comment: registered in MassBank
Num Peaks: 10
283.07999	62
284.12	20
303.10001	16
419.12	201
420.20001	26
437.04001	37
438.81	35
439.88	6
723.09003	1000
724.07001	246

NAME: Phosphatidylserine 18
PRECURSORMZ: 808.513408
PRECURSORTYPE: [M-H]-
FORMULA: C44H76NO10P
Ontology: Phosphatidylserines
INCHIKEY: OYCMFOXJRHYXHL-HDSNJYMDNA-N
SMILES: CCCCCCCCCCCCCCCCCC(=O)OCC(COP(O)(=O)OCC(N)C(O)=O)OC(=O)CC\C=C/C\C=C/C\C=C/C\C=C/C\C=C/CCC
RETENTIONTIME: 
CCS: -1
IONMODE: Negative
INSTRUMENTTYPE: LC-ESI-ITFT
INSTRUMENT: 
COLLISIONENERGY: 30
Comment: registered in MassBank
Num Peaks: 18
257.67001	24
283.07999	90
284.29999	13
301.12	10
304.98001	24
313.03	7
327.91	9
391.12	31
418.10001	14
419.06	126
437.09	54
438.38	27
439.20999	7
451.34	8
465.01001	7
721.08002	1000
722.27002	139
724.83002	20

NAME: Phosphatidylserine 18
PRECURSORMZ: 834.529058
PRECURSORTYPE: [M-H]-
FORMULA: C46H78NO10P
Ontology: Phosphatidylserines
INCHIKEY: LYYHRRPTEXPVOR-HSBBONCLNA-N
SMILES: CCCCCCCCCCCCCCCCCC(=O)OCC(COP(O)(=O)OCC(N)C(O)=O)OC(=O)CC\C=C/C\C=C/C\C=C/C\C=C/C\C=C/C\C=C/CC
RETENTIONTIME: 
CCS: 404.9164861
IONMODE: Negative
INSTRUMENTTYPE: LC-ESI-ITFT
INSTRUMENT: 
COLLISIONENERGY: 30
Comment: registered in MassBank
Num Peaks: 7
283.12	47
327.06	10
419.16	130
437.14999	24
463.01001	42
747.08002	1000
748.15002	41

NAME: Phosphatidylserine 19
PRECURSORMZ: 848.544708
PRECURSORTYPE: [M-H]-
FORMULA: C47H80NO10P
Ontology: Phosphatidylserines
INCHIKEY: KQUCBTRVYDUHMT-MXQGKLILNA-N
SMILES: CCCCCCCCCCCCCCCCCCC(=O)OCC(COP(O)(=O)OCC(N)C(O)=O)OC(=O)CC\C=C/C\C=C/C\C=C/C\C=C/C\C=C/C\C=C/CC
RETENTIONTIME: 
CCS: -1
IONMODE: Negative
INSTRUMENTTYPE: LC-ESI-ITFT
INSTRUMENT: 
COLLISIONENERGY: 30
Comment: registered in MassBank
Num Peaks: 4
303.20999	7
761.27002	17
766.12	1000
774.10999	9

NAME: Phosphatidylserine 22
PRECURSORMZ: 878.497758
PRECURSORTYPE: [M-H]-
FORMULA: C50H74NO10P
Ontology: Phosphatidylserines
INCHIKEY: RJCZACBLQGCNCW-GZSOIYOPNA-N
SMILES: CC\C=C/C\C=C/C\C=C/C\C=C/C\C=C/C\C=C/CCC(=O)OCC(COP(O)(=O)OCC(N)C(O)=O)OC(=O)CC\C=C/C\C=C/C\C=C/C\C=C/C\C=C/C\C=C/CC
RETENTIONTIME: 
CCS: 379.0794439
IONMODE: Negative
INSTRUMENTTYPE: LC-ESI-ITFT
INSTRUMENT: 
COLLISIONENERGY: 30
Comment: registered in MassBank
Num Peaks: 6
327.04001	38
462.89001	204
481.01001	8
791.01001	1000
791.87	17
792.53003	17

NAME: Sphingomyelin d18
PRECURSORMZ: 735.602163
PRECURSORTYPE: [M+CH3COO]-
FORMULA: C39H81N2O6P
Ontology: Phosphosphingolipids
INCHIKEY: QHZIGNLCLJPLCU-AMAPPZPBSA-N
SMILES: CCCCCCCCCCCCCCC[C@H](O)[C@@H](COP([O-])(=O)OCC[N+](C)(C)C)N=C(O)CCCCCCCCCCCCCCC
RETENTIONTIME: 
CCS: -1
IONMODE: Negative
INSTRUMENTTYPE: LC-ESI-ITFT
INSTRUMENT: 
COLLISIONENERGY: 30
Comment: registered in MassBank
Num Peaks: 15
255.03	7
257.23001	32
283.17001	192
301.17001	150
326.94	10
329.22	9
449.20001	19
462.20999	16
478.39001	17
479.51999	27
480.35001	43
500.03	7
689.40002	1000
704.19	9
730.88	19

NAME: Sphingomyelin d18
PRECURSORMZ: 763.633463
PRECURSORTYPE: [M+CH3COO]-
FORMULA: C41H85N2O6P
Ontology: Phosphosphingolipids
INCHIKEY: JCELSEVNSMXGKA-PVXQIPPMSA-N
SMILES: CCCCCCCCCCCCCCCCCC(O)=N[C@H](COP([O-])(=O)OCC[N+](C)(C)C)[C@@H](O)CCCCCCCCCCCCCCC
RETENTIONTIME: 
CCS: -1
IONMODE: Negative
INSTRUMENTTYPE: LC-ESI-ITFT
INSTRUMENT: 
COLLISIONENERGY: 30
Comment: registered in MassBank
Num Peaks: 11
283.45999	13
285.01999	22
301.39001	13
442.76001	31
480	16
504.48999	16
627.40002	16
717.28003	1000
718.09003	9
730.71997	43
748.15997	36

NAME: Sphingomyelin d18
PRECURSORMZ: 791.664763
PRECURSORTYPE: [M+CH3COO]-
FORMULA: C43H89N2O6P
Ontology: Phosphosphingolipids
INCHIKEY: UGRZESKDAPEULH-HLFYWILQSA-N
SMILES: CCCCCCCCCCCCCCCCCCCC(O)=N[C@H](COP([O-])(=O)OCC[N+](C)(C)C)[C@@H](O)CCCCCCCCCCCCCCC
RETENTIONTIME: 
CCS: -1
IONMODE: Negative
INSTRUMENTTYPE: LC-ESI-ITFT
INSTRUMENT: 
COLLISIONENERGY: 30
Comment: registered in MassBank
Num Peaks: 4
737.58002	41
738.41998	31
745.32001	1000
759.71002	25

NAME: Sphingomyelin d18
PRECURSORMZ: 819.696063
PRECURSORTYPE: [M+CH3COO]-
FORMULA: C45H93N2O6P
Ontology: Phosphosphingolipids
INCHIKEY: FONAXCRWZQFJHY-GWRSVMHXSA-N
SMILES: CCCCCCCCCCCCCCCCCCCCCC(O)=N[C@H](COP([O-])(=O)OCC[N+](C)(C)C)[C@@H](O)CCCCCCCCCCCCCCC
RETENTIONTIME: 
CCS: -1
IONMODE: Negative
INSTRUMENTTYPE: LC-ESI-ITFT
INSTRUMENT: 
COLLISIONENERGY: 30
Comment: registered in MassBank
Num Peaks: 14
301.10001	31
475.17999	13
499.04001	9
513.89001	14
633.44	8
667.13	23
761.06	8
765.31	18
765.94	14
772.78998	89
773.5	1000
782.71002	11
787.78998	18
797.46002	14

NAME: Sphingomyelin d18
PRECURSORMZ: 833.711714
PRECURSORTYPE: [M+CH3COO]-
FORMULA: C46H95N2O6P
Ontology: Phosphosphingolipids
INCHIKEY: CRPAVAKPGRALOU-UVTBUIGASA-N
SMILES: CCCCCCCCCCCCCCCCCCCCCCC(O)=N[C@H](COP([O-])(=O)OCC[N+](C)(C)C)[C@@H](O)CCCCCCCCCCCCCCC
RETENTIONTIME: 
CCS: -1
IONMODE: Negative
INSTRUMENTTYPE: LC-ESI-ITFT
INSTRUMENT: 
COLLISIONENERGY: 30
Comment: registered in MassBank
Num Peaks: 8
525.58002	10
581.13	22
596.27002	14
705.65002	20
775	22
787.41998	1000
800.90002	30
801.66998	22

NAME: Sphingomyelin d18
PRECURSORMZ: 845.711714
PRECURSORTYPE: [M+CH3COO]-
FORMULA: C47H95N2O6P
Ontology: Phosphosphingolipids
INCHIKEY: UFBQIFQQHQOQTC-AKCDXHNVSA-N
SMILES: CCCCCCCCCCCCCCCCCCC\C=C/CCC(O)=N[C@H](COP([O-])(=O)OCC[N+](C)(C)C)[C@@H](O)CCCCCCCCCCCCCCC
RETENTIONTIME: 
CCS: -1
IONMODE: Negative
INSTRUMENTTYPE: LC-ESI-ITFT
INSTRUMENT: 
COLLISIONENERGY: 30
Comment: registered in MassBank
Num Peaks: 4
723.37	87
782.92999	300
799.40997	1000
814.28003	33

NAME: Sphingomyelin d18
PRECURSORMZ: 733.586513
PRECURSORTYPE: [M+CH3COO]-
FORMULA: C39H79N2O6P
Ontology: Phosphosphingolipids
INCHIKEY: RWKUXQNLWDTSLO-KHDLYOHESA-N
SMILES: CCCCCCCCCCCCCCCC(O)=N[C@H](COP([O-])(=O)OCC[N+](C)(C)C)[C@@H](O)\C=C\CCCCCCCCCCCCC
RETENTIONTIME: 
CCS: -1
IONMODE: Negative
INSTRUMENTTYPE: LC-ESI-ITFT
INSTRUMENT: 
COLLISIONENERGY: 30
Comment: registered in MassBank
Num Peaks: 3
327.06	7
687.34998	1000
702.09003	5

NAME: Sphingomyelin d18
PRECURSORMZ: 747.602163
PRECURSORTYPE: [M+CH3COO]-
FORMULA: C40H81N2O6P
Ontology: Phosphosphingolipids
INCHIKEY: YMQZQHIESOAPQH-QSTWNKESSA-N
SMILES: CCCCCCCCCCCCCCCCC(O)=N[C@H](COP([O-])(=O)OCC[N+](C)(C)C)[C@@H](O)\C=C\CCCCCCCCCCCCC
RETENTIONTIME: 
CCS: -1
IONMODE: Negative
INSTRUMENTTYPE: LC-ESI-ITFT
INSTRUMENT: 
COLLISIONENERGY: 30
Comment: registered in MassBank
Num Peaks: 7
302.23999	37
329.06	61
330.12	26
630.71997	31
701.21002	1000
702.14001	26
743.14001	20

NAME: Sphingomyelin d18
PRECURSORMZ: 761.617813
PRECURSORTYPE: [M+CH3COO]-
FORMULA: C41H83N2O6P
Ontology: Phosphosphingolipids
INCHIKEY: LKQLRGMMMAHREN-GDBDMVKWSA-N
SMILES: CCCCCCCCCCCCCCCCCC(O)=N[C@H](COP([O-])(=O)OCC[N+](C)(C)C)[C@@H](O)\C=C\CCCCCCCCCCCCC
RETENTIONTIME: 
CCS: -1
IONMODE: Negative
INSTRUMENTTYPE: LC-ESI-ITFT
INSTRUMENT: 
COLLISIONENERGY: 30
Comment: registered in MassBank
Num Peaks: 4
283.20001	18
327.23001	11
715.29999	1000
730.35999	6

NAME: Sphingomyelin d18
PRECURSORMZ: 775.633463
PRECURSORTYPE: [M+CH3COO]-
FORMULA: C42H85N2O6P
Ontology: Phosphosphingolipids
INCHIKEY: HAFQHLHNPJDAGB-NHBQNDNNSA-N
SMILES: CCCCCCCCCCCCCCCCCCC(O)=N[C@H](COP([O-])(=O)OCC[N+](C)(C)C)[C@@H](O)\C=C\CCCCCCCCCCCCC
RETENTIONTIME: 
CCS: -1
IONMODE: Negative
INSTRUMENTTYPE: LC-ESI-ITFT
INSTRUMENT: 
COLLISIONENERGY: 30
Comment: registered in MassBank
Num Peaks: 8
381.84	10
446.54999	51
448.48001	12
522.35999	25
566.06	25
717.22998	14
721.34998	12
729.34998	1000

NAME: Sphingomyelin d18
PRECURSORMZ: 789.649113
PRECURSORTYPE: [M+CH3COO]-
FORMULA: C43H87N2O6P
Ontology: Phosphosphingolipids
INCHIKEY: AADLTHQNYQJHQV-XACAWUTQSA-N
SMILES: CCCCCCCCCCCCCCCCCCCC(O)=N[C@H](COP([O-])(=O)OCC[N+](C)(C)C)[C@@H](O)\C=C\CCCCCCCCCCCCC
RETENTIONTIME: 
CCS: -1
IONMODE: Negative
INSTRUMENTTYPE: LC-ESI-ITFT
INSTRUMENT: 
COLLISIONENERGY: 30
Comment: registered in MassBank
Num Peaks: 2
743.28998	1000
758.31	5

NAME: Sphingomyelin d18
PRECURSORMZ: 803.664763
PRECURSORTYPE: [M+CH3COO]-
FORMULA: C44H89N2O6P
Ontology: Phosphosphingolipids
INCHIKEY: YXSZOBWVQJIWNE-LUJNSPTCSA-N
SMILES: CCCCCCCCCCCCCCCCCCCCC(O)=N[C@H](COP([O-])(=O)OCC[N+](C)(C)C)[C@@H](O)\C=C\CCCCCCCCCCCCC
RETENTIONTIME: 
CCS: -1
IONMODE: Negative
INSTRUMENTTYPE: LC-ESI-ITFT
INSTRUMENT: 
COLLISIONENERGY: 30
Comment: registered in MassBank
Num Peaks: 6
749.01001	7
757.33002	1000
758.20001	6
771.96997	9
772.77002	7
773.63	9

NAME: Sphingomyelin d18
PRECURSORMZ: 817.680413
PRECURSORTYPE: [M+CH3COO]-
FORMULA: C45H91N2O6P
Ontology: Phosphosphingolipids
INCHIKEY: FJJANLYCZUNFSE-QVMKKYBKSA-N
SMILES: CCCCCCCCCCCCCCCCCCCCCC(O)=N[C@H](COP([O-])(=O)OCC[N+](C)(C)C)[C@@H](O)\C=C\CCCCCCCCCCCCC
RETENTIONTIME: 
CCS: -1
IONMODE: Negative
INSTRUMENTTYPE: LC-ESI-ITFT
INSTRUMENT: 
COLLISIONENERGY: 30
Comment: registered in MassBank
Num Peaks: 1
771.33002	1000

NAME: Sphingomyelin d18
PRECURSORMZ: 815.664763
PRECURSORTYPE: [M+CH3COO]-
FORMULA: C45H89N2O6P
Ontology: Phosphosphingolipids
INCHIKEY: OLJJWQULRPCSST-QMQRQSDPSA-N
SMILES: CCCCCCCCCCCCCCCCC\C=C/CCC(O)=N[C@H](COP([O-])(=O)OCC[N+](C)(C)C)[C@@H](O)\C=C\CCCCCCCCCCCCC
RETENTIONTIME: 
CCS: -1
IONMODE: Negative
INSTRUMENTTYPE: LC-ESI-ITFT
INSTRUMENT: 
COLLISIONENERGY: 30
Comment: registered in MassBank
Num Peaks: 2
769.40997	1000
784.84003	14

NAME: Sphingomyelin d18
PRECURSORMZ: 831.696063
PRECURSORTYPE: [M+CH3COO]-
FORMULA: C46H93N2O6P
Ontology: Phosphosphingolipids
INCHIKEY: SXZWBNWTCVLZJN-ZIHSGIAZSA-N
SMILES: CCCCCCCCCCCCCCCCCCCCCCC(O)=N[C@H](COP([O-])(=O)OCC[N+](C)(C)C)[C@@H](O)\C=C\CCCCCCCCCCCCC
RETENTIONTIME: 
CCS: -1
IONMODE: Negative
INSTRUMENTTYPE: LC-ESI-ITFT
INSTRUMENT: 
COLLISIONENERGY: 30
Comment: registered in MassBank
Num Peaks: 2
785.34998	1000
800.39001	6

NAME: Sphingomyelin d18
PRECURSORMZ: 829.680413
PRECURSORTYPE: [M+CH3COO]-
FORMULA: C46H91N2O6P
Ontology: Phosphosphingolipids
INCHIKEY: DAOFAZSSTHCXTO-LTEWMCMPSA-N
SMILES: CCCCCCCCCCCCCCCCCC\C=C/CCC(O)=N[C@H](COP([O-])(=O)OCC[N+](C)(C)C)[C@@H](O)\C=C\CCCCCCCCCCCCC
RETENTIONTIME: 
CCS: -1
IONMODE: Negative
INSTRUMENTTYPE: LC-ESI-ITFT
INSTRUMENT: 
COLLISIONENERGY: 30
Comment: registered in MassBank
Num Peaks: 9
278.26999	6
420.07001	15
431.41	13
449.89001	5
546.46997	7
547.67999	11
771.35999	32
783.31	1000
798.45001	19

NAME: Sphingomyelin d18
PRECURSORMZ: 845.711714
PRECURSORTYPE: [M+CH3COO]-
FORMULA: C47H95N2O6P
Ontology: Phosphosphingolipids
INCHIKEY: QEDPUVGSSDPBMD-ZDGDQSOJSA-N
SMILES: CCCCCCCCCCCCCCCCCCCCCCCC(O)=N[C@H](COP([O-])(=O)OCC[N+](C)(C)C)[C@@H](O)\C=C\CCCCCCCCCCCCC
RETENTIONTIME: 
CCS: -1
IONMODE: Negative
INSTRUMENTTYPE: LC-ESI-ITFT
INSTRUMENT: 
COLLISIONENERGY: 30
Comment: registered in MassBank
Num Peaks: 2
799.37	1000
814.33002	11

NAME: Sphingomyelin d18
PRECURSORMZ: 843.696063
PRECURSORTYPE: [M+CH3COO]-
FORMULA: C47H93N2O6P
Ontology: Phosphosphingolipids
INCHIKEY: RKEMFFRZTRUUOF-UQSBNWTPSA-N
SMILES: CCCCCCCCCCCCCCCCCCC\C=C/CCC(O)=N[C@H](COP([O-])(=O)OCC[N+](C)(C)C)[C@@H](O)\C=C\CCCCCCCCCCCCC
RETENTIONTIME: 
CCS: -1
IONMODE: Negative
INSTRUMENTTYPE: LC-ESI-ITFT
INSTRUMENT: 
COLLISIONENERGY: 30
Comment: registered in MassBank
Num Peaks: 2
797.41998	1000
812.34003	6

NAME: Sphingomyelin d18
PRECURSORMZ: 731.570863
PRECURSORTYPE: [M+CH3COO]-
FORMULA: C39H77N2O6P
Ontology: Phosphosphingolipids
INCHIKEY: RYPRHPLEPBYJJE-SFDSNHFWSA-N
SMILES: CCCCCCCCCCCCCCCC(O)=N[C@H](COP([O-])(=O)OCC[N+](C)(C)C)[C@@H](O)\C=C\CC\C=C\CCCCCCCCC
RETENTIONTIME: 
CCS: -1
IONMODE: Negative
INSTRUMENTTYPE: LC-ESI-ITFT
INSTRUMENT: 
COLLISIONENERGY: 30
Comment: registered in MassBank
Num Peaks: 9
252.95	48
283.34	23
327.14999	35
432.32999	6
450.04001	32
499.07001	8
505.88	23
685.32001	1000
698.45001	11

NAME: Sphingomyelin d18
PRECURSORMZ: 815.664763
PRECURSORTYPE: [M+CH3COO]-
FORMULA: C45H89N2O6P
Ontology: Phosphosphingolipids
INCHIKEY: UCLWWTCDZKLHGY-HHQXBTLRSA-N
SMILES: CCCCCCCCCCCCCCCCCCCCCC(O)=N[C@H](COP([O-])(=O)OCC[N+](C)(C)C)[C@@H](O)\C=C\CC\C=C\CCCCCCCCC
RETENTIONTIME: 
CCS: -1
IONMODE: Negative
INSTRUMENTTYPE: LC-ESI-ITFT
INSTRUMENT: 
COLLISIONENERGY: 30
Comment: registered in MassBank
Num Peaks: 4
769.34003	1000
770.02002	5
784.02002	14
799.33002	5

NAME: Sphingomyelin d18
PRECURSORMZ: 829.680413
PRECURSORTYPE: [M+CH3COO]-
FORMULA: C46H91N2O6P
Ontology: Phosphosphingolipids
INCHIKEY: PENYJGUXTJATDH-FKOSZORSSA-N
SMILES: CCCCCCCCCCCCCCCCCCCCCCC(O)=N[C@H](COP([O-])(=O)OCC[N+](C)(C)C)[C@@H](O)\C=C\CC\C=C\CCCCCCCCC
RETENTIONTIME: 
CCS: -1
IONMODE: Negative
INSTRUMENTTYPE: LC-ESI-ITFT
INSTRUMENT: 
COLLISIONENERGY: 30
Comment: registered in MassBank
Num Peaks: 21
279.95999	10
282.87	33
284.37	18
324.13	48
327.14001	41
419.20001	41
480.03	26
546.22998	51
548.35999	87
592.35999	8
596.23999	43
652.23999	18
737.37	36
770.34003	61
772.25	43
775.46002	92
783.38	1000
793.76001	66
797.60999	51
813.5	87
840.09998	41

NAME: Phosphatidylcholine 12
PRECURSORMZ: 1386.018048
PRECURSORTYPE: [M+CH3COO]-
FORMULA: C72H144N2O16P2
Ontology: Phosphatidylcholines
INCHIKEY: BAKNWIAUPJAUFZ-UHFFFAOYNA-N
SMILES: CCCCCCCCCCCCCCCC(=O)OC(COC(=O)CCCCCCCCCCC)COP([O-])(=O)OCC[N+](C)(C)C.CCCCCCCCCCCCCC(=O)OCC(COP([O-])(=O)OCC[N+](C)(C)C)OC(=O)CCCCCCCCCCCCC
RETENTIONTIME: 
CCS: -1
IONMODE: Negative
INSTRUMENTTYPE: LC-ESI-ITFT
INSTRUMENT: 
COLLISIONENERGY: 30
Comment: registered in MassBank
Num Peaks: 13
231.39	36
253.05	562
286.10001	124
303.07999	467
304.19	213
327.01001	36
432.06	83
498.92001	130
499.78	30
661.40997	36
662.28003	1000
677.07001	95
692.78003	89

NAME: Phosphatidylcholine 14
PRECURSORMZ: 736.549793
PRECURSORTYPE: [M+CH3COO]-
FORMULA: C38H76NO8P
Ontology: Phosphatidylcholines
INCHIKEY: RFVFQQWKPSOBED-UHFFFAOYNA-N
SMILES: CCCCCCCCCCCCCCCC(=O)OC(COC(=O)CCCCCCCCCCCCC)COP([O-])(=O)OCC[N+](C)(C)C
RETENTIONTIME: 
CCS: -1
IONMODE: Negative
INSTRUMENTTYPE: LC-ESI-ITFT
INSTRUMENT: 
COLLISIONENERGY: 30
Comment: registered in MassBank
Num Peaks: 31
231.02	6
255.14	409
256.17999	46
257.23001	6
258.92001	18
281.16	180
282.10001	29
283.29999	19
285.06	108
286.39001	12
303.03	306
303.98999	36
305.04001	9
326.92001	10
327.56	6
329.10001	817
330.09	98
434.26999	8
436.17999	68
437.25	5
452.13	159
453.14001	18
455.13	7
460.41	6
478.10001	112
479.23999	14
507.89001	10
525.96997	16
670.83002	6
689.60999	97
690.21997	1000

NAME: Phosphatidylcholine 14
PRECURSORMZ: 784.549793
PRECURSORTYPE: [M+CH3COO]-
FORMULA: C42H76NO8P
Ontology: Phosphatidylcholines
INCHIKEY: LTAXKUDPWVWJJR-VONYRGFMNA-N
SMILES: CCCCCCCCCCCCCC(=O)OCC(COP([O-])(=O)OCC[N+](C)(C)C)OC(=O)CC\C=C/C\C=C/C\C=C/C\C=C/CCCCCC
RETENTIONTIME: 
CCS: -1
IONMODE: Negative
INSTRUMENTTYPE: LC-ESI-ITFT
INSTRUMENT: 
COLLISIONENERGY: 30
Comment: registered in MassBank
Num Peaks: 10
328.20999	39
509.26001	20
520.46997	9
599.78003	19
725.21997	26
728.14001	11
730.96997	13
732.22998	9
738.15997	1000
739.31	30

NAME: Phosphatidylcholine 14
PRECURSORMZ: 820.643694
PRECURSORTYPE: [M+CH3COO]-
FORMULA: C44H88NO8P
Ontology: Phosphatidylcholines
INCHIKEY: KNQNJCODLDRFSM-UHFFFAOYNA-N
SMILES: CCCCCCCCCCCCCCCCCCCCCC(=O)OC(COC(=O)CCCCCCCCCCCCC)COP([O-])(=O)OCC[N+](C)(C)C
RETENTIONTIME: 
CCS: -1
IONMODE: Negative
INSTRUMENTTYPE: LC-ESI-ITFT
INSTRUMENT: 
COLLISIONENERGY: 30
Comment: registered in MassBank
Num Peaks: 8
632.40002	40
650.52002	6
771.39001	31
772.34003	17
774.21997	242
788.84998	8
812.21997	1000
813.59003	12

NAME: Phosphatidylcholine 15
PRECURSORMZ: 798.565443
PRECURSORTYPE: [M+CH3COO]-
FORMULA: C43H78NO8P
Ontology: Phosphatidylcholines
INCHIKEY: CLOJCJSOXWBGTM-BSBLZQCJNA-N
SMILES: CCCCCCCCCCCCCCC(=O)OCC(COP([O-])(=O)OCC[N+](C)(C)C)OC(=O)CC\C=C/C\C=C/C\C=C/C\C=C/CCCCCC
RETENTIONTIME: 
CCS: -1
IONMODE: Negative
INSTRUMENTTYPE: LC-ESI-ITFT
INSTRUMENT: 
COLLISIONENERGY: 30
Comment: registered in MassBank
Num Peaks: 10
562.52002	30
649.72998	17
725.23999	15
744.02002	43
752.09003	1000
753.27002	32
762.71002	39
766.32001	35
768.08002	41
774.32001	13

NAME: Phosphatidylcholine 16
PRECURSORMZ: 750.565443
PRECURSORTYPE: [M+CH3COO]-
FORMULA: C39H78NO8P
Ontology: Phosphatidylcholines
INCHIKEY: NPGWXTIWUUFYAB-UHFFFAOYNA-N
SMILES: CCCCCCCCCCCCCCCC(=O)OCC(COP([O-])(=O)OCC[N+](C)(C)C)OC(=O)CCCCCCCCCCCCCC
RETENTIONTIME: 
CCS: -1
IONMODE: Negative
INSTRUMENTTYPE: LC-ESI-ITFT
INSTRUMENT: 
COLLISIONENERGY: 30
Comment: registered in MassBank
Num Peaks: 4
330.09	10
465.45999	7
704.15002	1000
704.78998	5

NAME: Phosphatidylcholine 16
PRECURSORMZ: 764.581093
PRECURSORTYPE: [M+CH3COO]-
FORMULA: C40H80NO8P
Ontology: Phosphatidylcholines
INCHIKEY: KILNVBDSWZSGLL-UHFFFAOYNA-N
SMILES: CCCCCCCCCCCCCCCC(=O)OCC(COP([O-])(=O)OCC[N+](C)(C)C)OC(=O)CCCCCCCCCCCCCCC
RETENTIONTIME: 
CCS: -1
IONMODE: Negative
INSTRUMENTTYPE: LC-ESI-ITFT
INSTRUMENT: 
COLLISIONENERGY: 30
Comment: registered in MassBank
Num Peaks: 3
255.09	7
718.15997	1000
733.08002	6

NAME: Phosphatidylcholine 16
PRECURSORMZ: 792.612393
PRECURSORTYPE: [M+CH3COO]-
FORMULA: C42H84NO8P
Ontology: Phosphatidylcholines
INCHIKEY: PZNPLUBHRSSFHT-UHFFFAOYNA-N
SMILES: CCCCCCCCCCCCCCCCCC(=O)OC(COC(=O)CCCCCCCCCCCCCCC)COP([O-])(=O)OCC[N+](C)(C)C
RETENTIONTIME: 
CCS: -1
IONMODE: Negative
INSTRUMENTTYPE: LC-ESI-ITFT
INSTRUMENT: 
COLLISIONENERGY: 30
Comment: registered in MassBank
Num Peaks: 1
746.15002	1000

NAME: Phosphatidylcholine 16
PRECURSORMZ: 790.596743
PRECURSORTYPE: [M+CH3COO]-
FORMULA: C42H82NO8P
Ontology: Phosphatidylcholines
INCHIKEY: QPHGOXQEXDWRIB-YCNYHXFENA-N
SMILES: CCCCCCCCCCCCCCCC(=O)OCC(COP([O-])(=O)OCC[N+](C)(C)C)OC(=O)CC\C=C/CCCCCCCCCCCCC
RETENTIONTIME: 
CCS: -1
IONMODE: Negative
INSTRUMENTTYPE: LC-ESI-ITFT
INSTRUMENT: 
COLLISIONENERGY: 30
Comment: registered in MassBank
Num Peaks: 2
744.14001	1000
759.10999	6

NAME: Phosphatidylcholine 16
PRECURSORMZ: 788.581093
PRECURSORTYPE: [M+CH3COO]-
FORMULA: C42H80NO8P
Ontology: Phosphatidylcholines
INCHIKEY: PWJTWIQVMHNOLN-WGPKDLKGNA-N
SMILES: CCCCCCCCCCCCCCCC(=O)OCC(COP([O-])(=O)OCC[N+](C)(C)C)OC(=O)CC\C=C/C\C=C/CCCCCCCCCC
RETENTIONTIME: 
CCS: -1
IONMODE: Negative
INSTRUMENTTYPE: LC-ESI-ITFT
INSTRUMENT: 
COLLISIONENERGY: 30
Comment: registered in MassBank
Num Peaks: 2
279.28	5
742.09003	1000

NAME: Phosphatidylcholine 16
PRECURSORMZ: 786.565443
PRECURSORTYPE: [M+CH3COO]-
FORMULA: C42H78NO8P
Ontology: Phosphatidylcholines
INCHIKEY: LTFQLMSVQQIRBG-YOKRUPNWNA-N
SMILES: CCCCCCCCCCCCCCCC(=O)OCC(COP([O-])(=O)OCC[N+](C)(C)C)OC(=O)CC\C=C/C\C=C/C\C=C/CCCCCCC
RETENTIONTIME: 
CCS: -1
IONMODE: Negative
INSTRUMENTTYPE: LC-ESI-ITFT
INSTRUMENT: 
COLLISIONENERGY: 30
Comment: registered in MassBank
Num Peaks: 9
356.10999	41
628.60999	29
643.32001	19
669.33002	17
727.40002	12
732.25	22
740.17999	1000
740.92999	48
763.95001	53

NAME: Phosphatidylcholine 16
PRECURSORMZ: 814.596743
PRECURSORTYPE: [M+CH3COO]-
FORMULA: C44H82NO8P
Ontology: Phosphatidylcholines
INCHIKEY: XWDUIGPTBYOBBP-BQYMPCJENA-N
SMILES: CCCCCCCCCCCCCCCC(=O)OCC(COP([O-])(=O)OCC[N+](C)(C)C)OC(=O)CC\C=C/C\C=C/C\C=C/CCCCCCCCC
RETENTIONTIME: 
CCS: -1
IONMODE: Negative
INSTRUMENTTYPE: LC-ESI-ITFT
INSTRUMENT: 
COLLISIONENERGY: 30
Comment: registered in MassBank
Num Peaks: 2
768.12	1000
783.06	6

NAME: Phosphatidylcholine 16
PRECURSORMZ: 812.581093
PRECURSORTYPE: [M+CH3COO]-
FORMULA: C44H80NO8P
Ontology: Phosphatidylcholines
INCHIKEY: YRCYEVIWNSLKRF-RZUUUYDYNA-N
SMILES: CCCCCCCCCCCCCCCC(=O)OCC(COP([O-])(=O)OCC[N+](C)(C)C)OC(=O)CC\C=C/C\C=C/C\C=C/C\C=C/CCCCCC
RETENTIONTIME: 
CCS: -1
IONMODE: Negative
INSTRUMENTTYPE: LC-ESI-ITFT
INSTRUMENT: 
COLLISIONENERGY: 30
Comment: registered in MassBank
Num Peaks: 2
303.03	7
766.08002	1000

NAME: Phosphatidylcholine 16
PRECURSORMZ: 810.565443
PRECURSORTYPE: [M+CH3COO]-
FORMULA: C44H78NO8P
Ontology: Phosphatidylcholines
INCHIKEY: RKFHFBWDNSYADY-SNIIIARXNA-N
SMILES: CCCCCCCCCCCCCCCC(=O)OCC(COP([O-])(=O)OCC[N+](C)(C)C)OC(=O)CC\C=C/C\C=C/C\C=C/C\C=C/C\C=C/CCC
RETENTIONTIME: 
CCS: -1
IONMODE: Negative
INSTRUMENTTYPE: LC-ESI-ITFT
INSTRUMENT: 
COLLISIONENERGY: 30
Comment: registered in MassBank
Num Peaks: 20
249.07001	9
250.13	27
283.09	553
284.07999	28
287.04001	26
300.98001	6
327.04001	1000
328.07999	72
331.16	739
332.17999	81
355	11
467.17999	10
506.23999	15
510.19	35
523.90002	68
528.02002	694
529.15997	69
764.13	400
764.78998	6
781.06	8

NAME: Phosphatidylcholine 16
PRECURSORMZ: 840.612393
PRECURSORTYPE: [M+CH3COO]-
FORMULA: C46H84NO8P
Ontology: Phosphatidylcholines
INCHIKEY: WYNABTBZGUFBIR-NRVNBKNNNA-N
SMILES: CCCCCCCCCCCCCCCC(=O)OCC(COP([O-])(=O)OCC[N+](C)(C)C)OC(=O)CC\C=C/C\C=C/C\C=C/C\C=C/CCCCCCCC
RETENTIONTIME: 
CCS: -1
IONMODE: Negative
INSTRUMENTTYPE: LC-ESI-ITFT
INSTRUMENT: 
COLLISIONENERGY: 30
Comment: registered in MassBank
Num Peaks: 7
328.64999	36
330.98999	56
544.32001	14
764.70001	39
794.17999	1000
808.75	97
810.15002	72

NAME: Phosphatidylcholine 16
PRECURSORMZ: 838.596743
PRECURSORTYPE: [M+CH3COO]-
FORMULA: C46H82NO8P
Ontology: Phosphatidylcholines
INCHIKEY: MWXAIAMSOXOQJK-TZCDOOIHNA-N
SMILES: CCCCCCCCCCCCCCCC(=O)OCC(COP([O-])(=O)OCC[N+](C)(C)C)OC(=O)CC\C=C/C\C=C/C\C=C/C\C=C/C\C=C/CCCCC
RETENTIONTIME: 
CCS: -1
IONMODE: Negative
INSTRUMENTTYPE: LC-ESI-ITFT
INSTRUMENT: 
COLLISIONENERGY: 30
Comment: registered in MassBank
Num Peaks: 4
566	32
765.08002	23
778.97998	47
792.09998	1000

NAME: Phosphatidylcholine 16
PRECURSORMZ: 836.581093
PRECURSORTYPE: [M+CH3COO]-
FORMULA: C46H80NO8P
Ontology: Phosphatidylcholines
INCHIKEY: IESVDEZGAHUQJU-SYGPSSPWNA-N
SMILES: CCCCCCCCCCCCCCCC(=O)OCC(COP([O-])(=O)OCC[N+](C)(C)C)OC(=O)CC\C=C/C\C=C/C\C=C/C\C=C/C\C=C/C\C=C/CC
RETENTIONTIME: 
CCS: -1
IONMODE: Negative
INSTRUMENTTYPE: LC-ESI-ITFT
INSTRUMENT: 
COLLISIONENERGY: 30
Comment: registered in MassBank
Num Peaks: 4
327.13	7
790.04999	1000
790.78003	6
805	6

NAME: Phosphatidylcholine 16
PRECURSORMZ: 788.581093
PRECURSORTYPE: [M+CH3COO]-
FORMULA: C42H80NO8P
Ontology: Phosphatidylcholines
INCHIKEY: QNRBHVUJSHOYGI-BRMDCIMDNA-N
SMILES: CCCCCCCCCCCCC\C=C/CCC(=O)OC(COC(=O)CC\C=C/CCCCCCCCCCC)COP([O-])(=O)OCC[N+](C)(C)C
RETENTIONTIME: 
CCS: -1
IONMODE: Negative
INSTRUMENTTYPE: LC-ESI-ITFT
INSTRUMENT: 
COLLISIONENERGY: 30
Comment: registered in MassBank
Num Peaks: 5
281.12	10
742.12	1000
757.06	7
766.12	509
767.22998	14

NAME: Phosphatidylcholine 16
PRECURSORMZ: 786.565443
PRECURSORTYPE: [M+CH3COO]-
FORMULA: C42H78NO8P
Ontology: Phosphatidylcholines
INCHIKEY: XSSJXFBQZLYYFK-TVGXXSNYNA-N
SMILES: CCCCCCCCCCC\C=C/CCC(=O)OCC(COP([O-])(=O)OCC[N+](C)(C)C)OC(=O)CC\C=C/C\C=C/CCCCCCCCCC
RETENTIONTIME: 
CCS: -1
IONMODE: Negative
INSTRUMENTTYPE: LC-ESI-ITFT
INSTRUMENT: 
COLLISIONENERGY: 30
Comment: registered in MassBank
Num Peaks: 19
282.95001	132
284.29999	44
305.10001	119
306.12	169
327.12	94
328.13	70
329.07999	68
415.16	9
425.64001	18
484.34	26
502.10999	64
503.12	15
524.21002	28
532.04999	11
540.40997	26
683.85999	24
723.15997	35
732.15997	29
740.07001	1000

NAME: Phosphatidylcholine 16
PRECURSORMZ: 810.565443
PRECURSORTYPE: [M+CH3COO]-
FORMULA: C44H78NO8P
Ontology: Phosphatidylcholines
INCHIKEY: QSBABJGBCMSZOL-RNVRRVRJNA-N
SMILES: CCCCCCCCCCC\C=C/CCC(=O)OCC(COP([O-])(=O)OCC[N+](C)(C)C)OC(=O)CC\C=C/C\C=C/C\C=C/C\C=C/CCCCCC
RETENTIONTIME: 
CCS: -1
IONMODE: Negative
INSTRUMENTTYPE: LC-ESI-ITFT
INSTRUMENT: 
COLLISIONENERGY: 30
Comment: registered in MassBank
Num Peaks: 5
478.53	30
551.91998	35
658.52002	58
764.09998	1000
806.27002	30

NAME: Phosphatidylcholine 16
PRECURSORMZ: 834.565443
PRECURSORTYPE: [M+CH3COO]-
FORMULA: C46H78NO8P
Ontology: Phosphatidylcholines
INCHIKEY: ALJYHFIRPGURAF-DACYDXBYNA-N
SMILES: CCCCCCCCCCC\C=C/CCC(=O)OCC(COP([O-])(=O)OCC[N+](C)(C)C)OC(=O)CC\C=C/C\C=C/C\C=C/C\C=C/C\C=C/C\C=C/CC
RETENTIONTIME: 
CCS: -1
IONMODE: Negative
INSTRUMENTTYPE: LC-ESI-ITFT
INSTRUMENT: 
COLLISIONENERGY: 30
Comment: registered in MassBank
Num Peaks: 6
487.22	16
508.42001	12
657.28998	35
779.90002	51
788.09003	1000
812.20001	14

NAME: Phosphatidylcholine 17
PRECURSORMZ: 802.596743
PRECURSORTYPE: [M+CH3COO]-
FORMULA: C43H82NO8P
Ontology: Phosphatidylcholines
INCHIKEY: OPXAZFYJOBVDTP-SZDCHMHBNA-N
SMILES: CCCCCCCCCCCCC\C=C/CCC(=O)OC(COC(=O)CC\C=C/CCCCCCCCCCCC)COP([O-])(=O)OCC[N+](C)(C)C
RETENTIONTIME: 
CCS: -1
IONMODE: Negative
INSTRUMENTTYPE: LC-ESI-ITFT
INSTRUMENT: 
COLLISIONENERGY: 30
Comment: registered in MassBank
Num Peaks: 8
303.14001	25
461.97	7
494.26001	7
748.15002	1000
749.08002	118
756.20001	94
766.54999	8
768.22998	8

NAME: Phosphatidylcholine 18
PRECURSORMZ: 818.628043
PRECURSORTYPE: [M+CH3COO]-
FORMULA: C44H86NO8P
Ontology: Phosphatidylcholines
INCHIKEY: OBRNLVIDOVBLPU-FPODKLOTNA-N
SMILES: CCCCCCCCCCCCCCCCCC(=O)OCC(COP([O-])(=O)OCC[N+](C)(C)C)OC(=O)CC\C=C/CCCCCCCCCCCCC
RETENTIONTIME: 
CCS: -1
IONMODE: Negative
INSTRUMENTTYPE: LC-ESI-ITFT
INSTRUMENT: 
COLLISIONENERGY: 30
Comment: registered in MassBank
Num Peaks: 2
281.03	8
772.19	1000

NAME: Phosphatidylcholine 18
PRECURSORMZ: 816.612393
PRECURSORTYPE: [M+CH3COO]-
FORMULA: C44H84NO8P
Ontology: Phosphatidylcholines
INCHIKEY: BHAATSGDDOXMJD-FOXSRGEXNA-N
SMILES: CCCCCCCCCCCCCCCCCC(=O)OCC(COP([O-])(=O)OCC[N+](C)(C)C)OC(=O)CC\C=C/C\C=C/CCCCCCCCCC
RETENTIONTIME: 
CCS: -1
IONMODE: Negative
INSTRUMENTTYPE: LC-ESI-ITFT
INSTRUMENT: 
COLLISIONENERGY: 30
Comment: registered in MassBank
Num Peaks: 3
279.14001	5
770.10999	1000
784.70001	6

NAME: Phosphatidylcholine 18
PRECURSORMZ: 848.674994
PRECURSORTYPE: [M+CH3COO]-
FORMULA: C46H92NO8P
Ontology: Phosphatidylcholines
INCHIKEY: ZNSGCWMTNLBFEQ-UHFFFAOYNA-N
SMILES: CCCCCCCCCCCCCCCCCCCC(=O)OC(COC(=O)CCCCCCCCCCCCCCCCC)COP([O-])(=O)OCC[N+](C)(C)C
RETENTIONTIME: 
CCS: -1
IONMODE: Negative
INSTRUMENTTYPE: LC-ESI-ITFT
INSTRUMENT: 
COLLISIONENERGY: 30
Comment: registered in MassBank
Num Peaks: 5
279.26999	36
311.39999	49
519.44	21
716.03998	21
802.34003	1000

NAME: Phosphatidylcholine 18
PRECURSORMZ: 844.643694
PRECURSORTYPE: [M+CH3COO]-
FORMULA: C46H88NO8P
Ontology: Phosphatidylcholines
INCHIKEY: QLAPQVPZKNRKSF-ZUOCNPMVNA-N
SMILES: CCCCCCCCCCCCCCCCCC(=O)OCC(COP([O-])(=O)OCC[N+](C)(C)C)OC(=O)CC\C=C/C\C=C/CCCCCCCCCCCC
RETENTIONTIME: 
CCS: -1
IONMODE: Negative
INSTRUMENTTYPE: LC-ESI-ITFT
INSTRUMENT: 
COLLISIONENERGY: 30
Comment: registered in MassBank
Num Peaks: 6
251.00999	30
295.35001	99
526	138
534.23999	34
781.73999	79
798.16998	1000

NAME: Phosphatidylcholine 18
PRECURSORMZ: 842.628043
PRECURSORTYPE: [M+CH3COO]-
FORMULA: C46H86NO8P
Ontology: Phosphatidylcholines
INCHIKEY: JKGNHUXTJMEAQU-YDXMYUDNNA-N
SMILES: CCCCCCCCCCCCCCCCCC(=O)OCC(COP([O-])(=O)OCC[N+](C)(C)C)OC(=O)CC\C=C/C\C=C/C\C=C/CCCCCCCCC
RETENTIONTIME: 
CCS: -1
IONMODE: Negative
INSTRUMENTTYPE: LC-ESI-ITFT
INSTRUMENT: 
COLLISIONENERGY: 30
Comment: registered in MassBank
Num Peaks: 5
281.09	19
403.14001	9
530.17999	15
796.13	1000
810.91998	30

NAME: Phosphatidylcholine 18
PRECURSORMZ: 840.612393
PRECURSORTYPE: [M+CH3COO]-
FORMULA: C46H84NO8P
Ontology: Phosphatidylcholines
INCHIKEY: FALSXTSFRXGEBP-KKHNUOCRNA-N
SMILES: CCCCCCCCCCCCCCCCCC(=O)OCC(COP([O-])(=O)OCC[N+](C)(C)C)OC(=O)CC\C=C/C\C=C/C\C=C/C\C=C/CCCCCC
RETENTIONTIME: 
CCS: -1
IONMODE: Negative
INSTRUMENTTYPE: LC-ESI-ITFT
INSTRUMENT: 
COLLISIONENERGY: 30
Comment: registered in MassBank
Num Peaks: 5
283.16	6
303.20001	15
794.07001	1000
794.76001	6
809.26001	10

NAME: Phosphatidylcholine 18
PRECURSORMZ: 868.643694
PRECURSORTYPE: [M+CH3COO]-
FORMULA: C48H88NO8P
Ontology: Phosphatidylcholines
INCHIKEY: FNYFFQAOWZRPMR-TZYRSRCUNA-N
SMILES: CCCCCCCCCCCCCCCCCC(=O)OCC(COP([O-])(=O)OCC[N+](C)(C)C)OC(=O)CC\C=C/C\C=C/C\C=C/C\C=C/CCCCCCCC
RETENTIONTIME: 
CCS: -1
IONMODE: Negative
INSTRUMENTTYPE: LC-ESI-ITFT
INSTRUMENT: 
COLLISIONENERGY: 30
Comment: registered in MassBank
Num Peaks: 14
309.45001	17
328.16	17
558.16998	10
559.42999	10
568.56	12
586.44	64
587.13	37
751.20001	74
761.83002	15
811.22998	88
812.02002	29
821.57001	120
822.31	1000
849.84003	20

NAME: Phosphatidylcholine 18
PRECURSORMZ: 864.612393
PRECURSORTYPE: [M+CH3COO]-
FORMULA: C48H84NO8P
Ontology: Phosphatidylcholines
INCHIKEY: FAUYAENFVCNTAL-UFTZFNJNNA-N
SMILES: CCCCCCCCCCCCCCCCCC(=O)OCC(COP([O-])(=O)OCC[N+](C)(C)C)OC(=O)CC\C=C/C\C=C/C\C=C/C\C=C/C\C=C/C\C=C/CC
RETENTIONTIME: 
CCS: -1
IONMODE: Negative
INSTRUMENTTYPE: LC-ESI-ITFT
INSTRUMENT: 
COLLISIONENERGY: 30
Comment: registered in MassBank
Num Peaks: 3
817.54999	131
818.16998	1000
833.29999	9

NAME: Phosphatidylcholine 18
PRECURSORMZ: 816.612393
PRECURSORTYPE: [M+CH3COO]-
FORMULA: C44H84NO8P
Ontology: Phosphatidylcholines
INCHIKEY: CTNCUXPCGXYRIB-UOALMSBLNA-N
SMILES: CCCCCCCCCCCCC\C=C/CCC(=O)OCC(COP([O-])(=O)OCC[N+](C)(C)C)OC(=O)CC\C=C/CCCCCCCCCCCCC
RETENTIONTIME: 
CCS: -1
IONMODE: Negative
INSTRUMENTTYPE: LC-ESI-ITFT
INSTRUMENT: 
COLLISIONENERGY: 30
Comment: registered in MassBank
Num Peaks: 3
281.26999	9
770.15997	1000
784.94	7

NAME: Phosphatidylcholine 18
PRECURSORMZ: 814.596743
PRECURSORTYPE: [M+CH3COO]-
FORMULA: C44H82NO8P
Ontology: Phosphatidylcholines
INCHIKEY: HZHAEVXGLQPJBM-KJZSVCAKNA-N
SMILES: CCCCCCCCCCCCC\C=C/CCC(=O)OCC(COP([O-])(=O)OCC[N+](C)(C)C)OC(=O)CC\C=C/C\C=C/CCCCCCCCCC
RETENTIONTIME: 
CCS: -1
IONMODE: Negative
INSTRUMENTTYPE: LC-ESI-ITFT
INSTRUMENT: 
COLLISIONENERGY: 30
Comment: registered in MassBank
Num Peaks: 2
768.10999	1000
792.13	12

NAME: Phosphatidylcholine 18
PRECURSORMZ: 838.596743
PRECURSORTYPE: [M+CH3COO]-
FORMULA: C46H82NO8P
Ontology: Phosphatidylcholines
INCHIKEY: HYDKDXOLAXLJKA-ICTLDNOWNA-N
SMILES: CCCCCCCCCCCCC\C=C/CCC(=O)OCC(COP([O-])(=O)OCC[N+](C)(C)C)OC(=O)CC\C=C/C\C=C/C\C=C/C\C=C/CCCCCC
RETENTIONTIME: 
CCS: -1
IONMODE: Negative
INSTRUMENTTYPE: LC-ESI-ITFT
INSTRUMENT: 
COLLISIONENERGY: 30
Comment: registered in MassBank
Num Peaks: 3
281.16	16
792.13	1000
807.09998	10

NAME: Phosphatidylcholine 18
PRECURSORMZ: 874.690644
PRECURSORTYPE: [M+CH3COO]-
FORMULA: C48H94NO8P
Ontology: Phosphatidylcholines
INCHIKEY: RNTSLIRAJXVPLB-ZSWXBHCYNA-N
SMILES: CCCCCCCCCCCCCCCCCCCCCC(=O)OC(COC(=O)CC\C=C/CCCCCCCCCCCCC)COP([O-])(=O)OCC[N+](C)(C)C
RETENTIONTIME: 
CCS: -1
IONMODE: Negative
INSTRUMENTTYPE: LC-ESI-ITFT
INSTRUMENT: 
COLLISIONENERGY: 30
Comment: registered in MassBank
Num Peaks: 6
391.20001	6
430.47	22
669.73999	7
828.16998	1000
841.98999	12
843.46997	8

NAME: Phosphatidylcholine 18
PRECURSORMZ: 862.596743
PRECURSORTYPE: [M+CH3COO]-
FORMULA: C48H82NO8P
Ontology: Phosphatidylcholines
INCHIKEY: SXQSZXLPXRGKHG-SUMKQPSKNA-N
SMILES: CCCCCCCCCCCCC\C=C/CCC(=O)OCC(COP([O-])(=O)OCC[N+](C)(C)C)OC(=O)CC\C=C/C\C=C/C\C=C/C\C=C/C\C=C/C\C=C/CC
RETENTIONTIME: 
CCS: -1
IONMODE: Negative
INSTRUMENTTYPE: LC-ESI-ITFT
INSTRUMENT: 
COLLISIONENERGY: 30
Comment: registered in MassBank
Num Peaks: 3
808.01001	11
816.09003	1000
816.77002	15

NAME: Phosphatidylcholine 18
PRECURSORMZ: 902.721944
PRECURSORTYPE: [M+CH3COO]-
FORMULA: C50H98NO8P
Ontology: Phosphatidylcholines
INCHIKEY: LGOGTXKSCSWTOW-WASYMBJWNA-N
SMILES: CCCCCCCCCCCCCCCCCCCCCCCC(=O)OC(COC(=O)CC\C=C/CCCCCCCCCCCCC)COP([O-])(=O)OCC[N+](C)(C)C
RETENTIONTIME: 
CCS: -1
IONMODE: Negative
INSTRUMENTTYPE: LC-ESI-ITFT
INSTRUMENT: 
COLLISIONENERGY: 30
Comment: registered in MassBank
Num Peaks: 4
592.39001	15
842.46997	15
848.15997	20
856.28998	1000

NAME: Phosphatidylcholine 18
PRECURSORMZ: 812.581093
PRECURSORTYPE: [M+CH3COO]-
FORMULA: C44H80NO8P
Ontology: Phosphatidylcholines
INCHIKEY: OLFQKGHJXVWQBX-CTKUXNRFNA-N
SMILES: CCCCCCCCCC\C=C/C\C=C/CCC(=O)OCC(COP([O-])(=O)OCC[N+](C)(C)C)OC(=O)CC\C=C/C\C=C/CCCCCCCCCC
RETENTIONTIME: 
CCS: -1
IONMODE: Negative
INSTRUMENTTYPE: LC-ESI-ITFT
INSTRUMENT: 
COLLISIONENERGY: 30
Comment: registered in MassBank
Num Peaks: 5
279.37	34
554.35999	14
654.60999	14
766.19	1000
789.98999	100

NAME: Phosphatidylcholine 20
PRECURSORMZ: 846.659344
PRECURSORTYPE: [M+CH3COO]-
FORMULA: C46H90NO8P
Ontology: Phosphatidylcholines
INCHIKEY: MIVBFINNAAGALQ-OAPYJULQNA-N
SMILES: CCCCCCCCCCCCCCCCCCCC(=O)OCC(COP([O-])(=O)OCC[N+](C)(C)C)OC(=O)CC\C=C/CCCCCCCCCCCCC
RETENTIONTIME: 
CCS: -1
IONMODE: Negative
INSTRUMENTTYPE: LC-ESI-ITFT
INSTRUMENT: 
COLLISIONENERGY: 30
Comment: registered in MassBank
Num Peaks: 5
535.66998	9
798.39001	17
800.28003	1000
815.15002	6
838.14001	46

NAME: Phosphatidylcholine 20
PRECURSORMZ: 890.628043
PRECURSORTYPE: [M+CH3COO]-
FORMULA: C50H86NO8P
Ontology: Phosphatidylcholines
INCHIKEY: NDXZRODTPALTBU-HCJNTHTKNA-N
SMILES: CCCCCCCCCCCCCCC\C=C/CCC(=O)OCC(COP([O-])(=O)OCC[N+](C)(C)C)OC(=O)CC\C=C/C\C=C/C\C=C/C\C=C/C\C=C/C\C=C/CC
RETENTIONTIME: 
CCS: -1
IONMODE: Negative
INSTRUMENTTYPE: LC-ESI-ITFT
INSTRUMENT: 
COLLISIONENERGY: 30
Comment: registered in MassBank
Num Peaks: 6
419.04001	84
754.21002	67
808.96002	34
833.34003	34
844.26001	1000
887.03998	29

NAME: Phosphatidylcholine 22
PRECURSORMZ: 896.674994
PRECURSORTYPE: [M+CH3COO]-
FORMULA: C50H92NO8P
Ontology: Phosphatidylcholines
INCHIKEY: MVKGIDJBIAVJJM-XNZXZZGANA-N
SMILES: CCCCCCCCCCCCCCCCCCCCCC(=O)OCC(COP([O-])(=O)OCC[N+](C)(C)C)OC(=O)CC\C=C/C\C=C/C\C=C/C\C=C/CCCCCC
RETENTIONTIME: 
CCS: -1
IONMODE: Negative
INSTRUMENTTYPE: LC-ESI-ITFT
INSTRUMENT: 
COLLISIONENERGY: 30
Comment: registered in MassBank
Num Peaks: 5
480.95001	565
835.73999	826
838.77002	217
850.03003	1000
863.42999	696

NAME: Phosphatidylcholine alkenyl 16
PRECURSORMZ: 748.586179
PRECURSORTYPE: [M+CH3COO]-
FORMULA: C40H80NO7P
Ontology: 1-(1Z-alkenyl),2-acyl-glycerophosphocholines
INCHIKEY: PEWXKAOBUSBJLD-LVYIWIAJNA-N
SMILES: CCCCCCCCCCCCCCCC(=O)OC(CO\C=C\CCCCCCCCCCCCCC)COP([O-])(=O)OCC[N+](C)(C)C
RETENTIONTIME: 
CCS: -1
IONMODE: Negative
INSTRUMENTTYPE: LC-ESI-ITFT
INSTRUMENT: 
COLLISIONENERGY: 30
Comment: registered in MassBank
Num Peaks: 25
228.96001	22
249.13	10
251.14	7
281.35999	17
283.12	522
284.17999	25
285	87
309.35001	8
327.04001	818
328.14001	144
329.07999	654
329.95001	62
330.67001	6
357.01001	6
403.12	9
405.07001	12
446.34	46
447.19	9
448.23001	146
464.20001	316
465.26999	51
466.17001	1000
467.25	142
513.38	6
702.25	877

NAME: Phosphatidylcholine alkenyl 16
PRECURSORMZ: 774.601829
PRECURSORTYPE: [M+CH3COO]-
FORMULA: C42H82NO7P
Ontology: 1-(1Z-alkenyl),2-acyl-glycerophosphocholines
INCHIKEY: BKVSUCOFPMXRFF-ZTIAWKCXNA-N
SMILES: CCCCCCCCCCCCCC\C=C\OCC(COP([O-])(=O)OCC[N+](C)(C)C)OC(=O)CC\C=C/CCCCCCCCCCCCC
RETENTIONTIME: 
CCS: -1
IONMODE: Negative
INSTRUMENTTYPE: LC-ESI-ITFT
INSTRUMENT: 
COLLISIONENERGY: 30
Comment: registered in MassBank
Num Peaks: 17
280.95001	24
283.06	6
303.03	20
309.20001	13
327.37	10
331.19	8
357.35001	7
473.03	8
517.38	8
714.28003	6
715.25	6
727.53998	85
728.15002	1000
742.14001	14
742.96002	6
758.64001	7
784.09003	8

NAME: Phosphatidylcholine alkenyl 16
PRECURSORMZ: 796.586179
PRECURSORTYPE: [M+CH3COO]-
FORMULA: C44H80NO7P
Ontology: 1-(1Z-alkenyl),2-acyl-glycerophosphocholines
INCHIKEY: WPFUZBNWEKXHJI-TUJGGYRWNA-N
SMILES: CCCCCCCCCCCCCC\C=C\OCC(COP([O-])(=O)OCC[N+](C)(C)C)OC(=O)CC\C=C/C\C=C/C\C=C/C\C=C/CCCCCC
RETENTIONTIME: 
CCS: -1
IONMODE: Negative
INSTRUMENTTYPE: LC-ESI-ITFT
INSTRUMENT: 
COLLISIONENERGY: 30
Comment: registered in MassBank
Num Peaks: 9
417.20001	6
420.10001	5
504.06	19
514.15997	18
750.15002	1000
751.26001	16
764.75	8
766.10999	9
767.56	6

NAME: Phosphatidylcholine alkenyl 18
PRECURSORMZ: 802.633129
PRECURSORTYPE: [M+CH3COO]-
FORMULA: C44H86NO7P
Ontology: 1-(1Z-alkenyl),2-acyl-glycerophosphocholines
INCHIKEY: NCPPDZAFHCBJRZ-JRNRGEASNA-N
SMILES: CCCCCCCCCCCCCCCC\C=C\OCC(COP([O-])(=O)OCC[N+](C)(C)C)OC(=O)CC\C=C/CCCCCCCCCCCCC
RETENTIONTIME: 
CCS: -1
IONMODE: Negative
INSTRUMENTTYPE: LC-ESI-ITFT
INSTRUMENT: 
COLLISIONENERGY: 30
Comment: registered in MassBank
Num Peaks: 5
711.03003	10
718.32001	27
756.19	1000
757.32001	27
770.62	8

NAME: Phosphatidylcholine alkenyl 18
PRECURSORMZ: 800.617479
PRECURSORTYPE: [M+CH3COO]-
FORMULA: C44H84NO7P
Ontology: 1-(1Z-alkenyl),2-acyl-glycerophosphocholines
INCHIKEY: AESCCJYARVQUNT-JFFREXDCNA-N
SMILES: CCCCCCCCCCCCC\C=C/CCC(=O)OC(CO\C=C\C\C=C/CCCCCCCCCCCCC)COP([O-])(=O)OCC[N+](C)(C)C
RETENTIONTIME: 
CCS: -1
IONMODE: Negative
INSTRUMENTTYPE: LC-ESI-ITFT
INSTRUMENT: 
COLLISIONENERGY: 30
Comment: registered in MassBank
Num Peaks: 9
331.20999	9
360.22	9
593.03003	19
715.31	117
743.98999	9
747.21997	33
754.20001	1000
755.46997	35
770.01001	12

NAME: Phosphatidylcholine alkyl 16
PRECURSORMZ: 750.601829
PRECURSORTYPE: [M+CH3COO]-
FORMULA: C40H82NO7P
Ontology: 1-alkyl,2-acylglycero-3-phosphocholines
INCHIKEY: WOTHHEHCEYHCFE-UHFFFAOYNA-N
SMILES: CCCCCCCCCCCCCCCCOCC(COP([O-])(=O)OCC[N+](C)(C)C)OC(=O)CCCCCCCCCCCCCCC
RETENTIONTIME: 
CCS: -1
IONMODE: Negative
INSTRUMENTTYPE: LC-ESI-ITFT
INSTRUMENT: 
COLLISIONENERGY: 30
Comment: registered in MassBank
Num Peaks: 15
255.05	6
286.22	10
329.17999	69
330.13	30
331.07999	24
333.14999	11
359.26001	77
360.25	6
436.13	18
446.51001	9
465.23999	18
466.17999	18
704.17999	1000
704.95001	8
718.97998	6

NAME: Phosphatidylcholine alkyl 16
PRECURSORMZ: 776.617479
PRECURSORTYPE: [M+CH3COO]-
FORMULA: C42H84NO7P
Ontology: 1-alkyl,2-acylglycero-3-phosphocholines
INCHIKEY: KFLBTRVMABAQOU-YCNYHXFENA-N
SMILES: CCCCCCCCCCCCCCCCOCC(COP([O-])(=O)OCC[N+](C)(C)C)OC(=O)CC\C=C/CCCCCCCCCCCCC
RETENTIONTIME: 
CCS: -1
IONMODE: Negative
INSTRUMENTTYPE: LC-ESI-ITFT
INSTRUMENT: 
COLLISIONENERGY: 30
Comment: registered in MassBank
Num Peaks: 1
730.21002	1000

NAME: Phosphatidylcholine alkyl 16
PRECURSORMZ: 804.648779
PRECURSORTYPE: [M+CH3COO]-
FORMULA: C44H88NO7P
Ontology: 1-alkyl,2-acylglycero-3-phosphocholines
INCHIKEY: ZWYHSOBLODWFSU-FPODKLOTNA-N
SMILES: CCCCCCCCCCCCCCCCOCC(COP([O-])(=O)OCC[N+](C)(C)C)OC(=O)CC\C=C/CCCCCCCCCCCCCCC
RETENTIONTIME: 
CCS: -1
IONMODE: Negative
INSTRUMENTTYPE: LC-ESI-ITFT
INSTRUMENT: 
COLLISIONENERGY: 30
Comment: registered in MassBank
Num Peaks: 5
255.88	8
325.10001	26
419.53	24
745.07001	27
758.15997	1000

NAME: Phosphatidylcholine alkyl 16
PRECURSORMZ: 798.601829
PRECURSORTYPE: [M+CH3COO]-
FORMULA: C44H82NO7P
Ontology: 1-alkyl,2-acylglycero-3-phosphocholines
INCHIKEY: MHOAZZSMGQCHNX-GJWWTBRZNA-N
SMILES: CCCCCCCCCCCCCCCCOCC(COP([O-])(=O)OCC[N+](C)(C)C)OC(=O)CC\C=C/C\C=C/C\C=C/C\C=C/CCCCCC
RETENTIONTIME: 
CCS: -1
IONMODE: Negative
INSTRUMENTTYPE: LC-ESI-ITFT
INSTRUMENT: 
COLLISIONENERGY: 30
Comment: registered in MassBank
Num Peaks: 10
418.16	13
707.53003	8
750.58002	6
752.09998	1000
753.23999	67
756.32001	6
762.82001	5
766.15997	15
767.37	17
808.09003	12

NAME: Phosphatidylcholine alkyl 16
PRECURSORMZ: 802.633129
PRECURSORTYPE: [M+CH3COO]-
FORMULA: C44H86NO7P
Ontology: 1-alkyl,2-acylglycero-3-phosphocholines
INCHIKEY: DFWVDDDXFIDKMC-UOALMSBLNA-N
SMILES: CCCCCCCCCCCCCCC\C=C/CCC(=O)OC(COCCC\C=C/CCCCCCCCCCC)COP([O-])(=O)OCC[N+](C)(C)C
RETENTIONTIME: 
CCS: -1
IONMODE: Negative
INSTRUMENTTYPE: LC-ESI-ITFT
INSTRUMENT: 
COLLISIONENERGY: 30
Comment: registered in MassBank
Num Peaks: 12
268.76999	10
309.29999	12
375.07001	16
464.13	18
743.90997	28
755.65002	106
756.32001	1000
757.25	45
771.09003	6
773.77002	6
794.22998	51
797.15002	7

NAME: Phosphatidylcholine alkyl 18
PRECURSORMZ: 778.633129
PRECURSORTYPE: [M+CH3COO]-
FORMULA: C42H86NO7P
Ontology: 1-alkyl,2-acylglycero-3-phosphocholines
INCHIKEY: GTFLTTXDLGEBAI-UHFFFAOYNA-N
SMILES: CCCCCCCCCCCCCCCCCCOCC(COP([O-])(=O)OCC[N+](C)(C)C)OC(=O)CCCCCCCCCCCCCCC
RETENTIONTIME: 
CCS: -1
IONMODE: Negative
INSTRUMENTTYPE: LC-ESI-ITFT
INSTRUMENT: 
COLLISIONENERGY: 30
Comment: registered in MassBank
Num Peaks: 12
255.03	8
315.07001	7
316.26999	7
359.17001	797
360.17999	168
403.42001	6
446.31	46
464.14999	153
465.29001	25
494.20001	5
718.42999	6
732.26001	1000

NAME: Phosphatidylcholine alkyl 18
PRECURSORMZ: 804.648779
PRECURSORTYPE: [M+CH3COO]-
FORMULA: C44H88NO7P
Ontology: 1-alkyl,2-acylglycero-3-phosphocholines
INCHIKEY: NQZXFMSISYRTSE-FPODKLOTNA-N
SMILES: CCCCCCCCCCCCCCCCCCOCC(COP([O-])(=O)OCC[N+](C)(C)C)OC(=O)CC\C=C/CCCCCCCCCCCCC
RETENTIONTIME: 
CCS: -1
IONMODE: Negative
INSTRUMENTTYPE: LC-ESI-ITFT
INSTRUMENT: 
COLLISIONENERGY: 30
Comment: registered in MassBank
Num Peaks: 13
418.51001	29
419.12	15
474.06	15
494.51999	19
687.09003	25
696.65002	15
745.14001	7
750.31	28
751.28998	19
758.34003	1000
772.47998	26
796.20001	9
797.23999	24

NAME: Phosphatidylcholine alkyl 18
PRECURSORMZ: 776.617479
PRECURSORTYPE: [M+CH3COO]-
FORMULA: C42H84NO7P
Ontology: 1-alkyl,2-acylglycero-3-phosphocholines
INCHIKEY: ITFYCOXGRQISEW-HYOGKJQXNA-N
SMILES: CCCCCCCCCCCCCCCC(=O)OC(COCCC\C=C/CCCCCCCCCCCCC)COP([O-])(=O)OCC[N+](C)(C)C
RETENTIONTIME: 
CCS: -1
IONMODE: Negative
INSTRUMENTTYPE: LC-ESI-ITFT
INSTRUMENT: 
COLLISIONENERGY: 30
Comment: registered in MassBank
Num Peaks: 3
255.10001	11
730.19	1000
744.90997	9

NAME: Phosphatidylcholine alkyl 18
PRECURSORMZ: 774.601829
PRECURSORTYPE: [M+CH3COO]-
FORMULA: C42H82NO7P
Ontology: 1-alkyl,2-acylglycero-3-phosphocholines
INCHIKEY: UWMIPWPMIBUVJV-JSCMVKKRNA-N
SMILES: CCCCCCCCCCCCCCCC(=O)OC(COCCC\C=C/C\C=C/CCCCCCCCCC)COP([O-])(=O)OCC[N+](C)(C)C
RETENTIONTIME: 
CCS: -1
IONMODE: Negative
INSTRUMENTTYPE: LC-ESI-ITFT
INSTRUMENT: 
COLLISIONENERGY: 30
Comment: registered in MassBank
Num Peaks: 9
279.03	78
443.39999	39
484.01999	127
502.07999	118
641.40002	108
720.97998	69
728.34998	1000
741.51001	49
742.27002	69

NAME: Phosphatidylcholine lyso 14
PRECURSORMZ: 498.320128
PRECURSORTYPE: [M+CH3COO]-
FORMULA: C22H46NO7P
Ontology: 2-acyl-sn-glycero-3-phosphocholines
INCHIKEY: IGZPHNNYPPAPLA-UHFFFAOYNA-N
SMILES: CCCCCCCCCCCCCC(=O)OC(CO)COP([O-])(=O)OCC[N+](C)(C)C
RETENTIONTIME: 
CCS: -1
IONMODE: Negative
INSTRUMENTTYPE: LC-ESI-ITFT
INSTRUMENT: 
COLLISIONENERGY: 30
Comment: registered in MassBank
Num Peaks: 11
283.25	13
284.16	17
285.04999	29
302.92999	9
327.20999	7
328.16	19
329.13	81
330.17001	17
452.04001	1000
467.34	7
468.60001	5

NAME: Phosphatidylcholine lyso 16
PRECURSORMZ: 526.351428
PRECURSORTYPE: [M+CH3COO]-
FORMULA: C24H50NO7P
Ontology: 2-acyl-sn-glycero-3-phosphocholines
INCHIKEY: NEGQHKSYEYVFTD-UHFFFAOYNA-N
SMILES: CCCCCCCCCCCCCCCC(=O)OC(CO)COP([O-])(=O)OCC[N+](C)(C)C
RETENTIONTIME: 
CCS: -1
IONMODE: Negative
INSTRUMENTTYPE: LC-ESI-ITFT
INSTRUMENT: 
COLLISIONENERGY: 30
Comment: registered in MassBank
Num Peaks: 2
480.04001	1000
495.04999	6

NAME: Phosphatidylcholine lyso 16
PRECURSORMZ: 524.335778
PRECURSORTYPE: [M+CH3COO]-
FORMULA: C24H48NO7P
Ontology: 2-acyl-sn-glycero-3-phosphocholines
INCHIKEY: GMEZONVWGDDWOJ-NXVVXOECNA-N
SMILES: CCCCCCCCCCC\C=C/CCC(=O)OC(CO)COP([O-])(=O)OCC[N+](C)(C)C
RETENTIONTIME: 
CCS: -1
IONMODE: Negative
INSTRUMENTTYPE: LC-ESI-ITFT
INSTRUMENT: 
COLLISIONENERGY: 30
Comment: registered in MassBank
Num Peaks: 13
194.85001	8
241.89	7
270.70999	12
312.89001	8
319.57999	7
350.03	15
449.95999	6
454.19	13
469.87	20
470.62	26
478.03	1000
478.67999	16
492.98001	7

NAME: Phosphatidylcholine lyso 17
PRECURSORMZ: 540.367078
PRECURSORTYPE: [M+CH3COO]-
FORMULA: C25H52NO7P
Ontology: 2-acyl-sn-glycero-3-phosphocholines
INCHIKEY: ODFZXVWAVNPFPM-UHFFFAOYNA-N
SMILES: CCCCCCCCCCCCCCCCC(=O)OC(CO)COP([O-])(=O)OCC[N+](C)(C)C
RETENTIONTIME: 
CCS: -1
IONMODE: Negative
INSTRUMENTTYPE: LC-ESI-ITFT
INSTRUMENT: 
COLLISIONENERGY: 30
Comment: registered in MassBank
Num Peaks: 12
237.87	22
270.97	7
292.88	17
426.41	12
468.10001	24
477.69	21
481.06	45
482.26999	10
485	24
486.60999	6
494.13	1000
509.26001	12

NAME: Phosphatidylcholine lyso 18
PRECURSORMZ: 554.382728
PRECURSORTYPE: [M+CH3COO]-
FORMULA: C26H54NO7P
Ontology: 2-acyl-sn-glycero-3-phosphocholines
INCHIKEY: IQGPMZRCLCCXAG-UHFFFAOYNA-N
SMILES: CCCCCCCCCCCCCCCCCC(=O)OC(CO)COP([O-])(=O)OCC[N+](C)(C)C
RETENTIONTIME: 
CCS: -1
IONMODE: Negative
INSTRUMENTTYPE: LC-ESI-ITFT
INSTRUMENT: 
COLLISIONENERGY: 30
Comment: registered in MassBank
Num Peaks: 2
508.06	1000
523.10999	5

NAME: Phosphatidylcholine lyso 18
PRECURSORMZ: 552.367078
PRECURSORTYPE: [M+CH3COO]-
FORMULA: C26H52NO7P
Ontology: 2-acyl-sn-glycero-3-phosphocholines
INCHIKEY: WZSWWJLIQCVBRG-ZCXUNETKNA-N
SMILES: CCCCCCCCCCCCC\C=C/CCC(=O)OC(CO)COP([O-])(=O)OCC[N+](C)(C)C
RETENTIONTIME: 
CCS: -1
IONMODE: Negative
INSTRUMENTTYPE: LC-ESI-ITFT
INSTRUMENT: 
COLLISIONENERGY: 30
Comment: registered in MassBank
Num Peaks: 2
506	1000
520.92999	6

NAME: Phosphatidylcholine lyso 18
PRECURSORMZ: 550.351428
PRECURSORTYPE: [M+CH3COO]-
FORMULA: C26H50NO7P
Ontology: 2-acyl-sn-glycero-3-phosphocholines
INCHIKEY: HQNGWMLDFPEZSR-NFYLBXPENA-N
SMILES: CCCCCCCCCC\C=C/C\C=C/CCC(=O)OC(CO)COP([O-])(=O)OCC[N+](C)(C)C
RETENTIONTIME: 
CCS: -1
IONMODE: Negative
INSTRUMENTTYPE: LC-ESI-ITFT
INSTRUMENT: 
COLLISIONENERGY: 30
Comment: registered in MassBank
Num Peaks: 10
201.19	30
281.25	25
402.57999	21
451.91	11
478.39001	21
496.57999	25
503.92001	1000
504.60001	21
528.17999	78
534.37	36

NAME: Phosphatidylcholine lyso 20
PRECURSORMZ: 582.414028
PRECURSORTYPE: [M+CH3COO]-
FORMULA: C28H58NO7P
Ontology: 2-acyl-sn-glycero-3-phosphocholines
INCHIKEY: WQBSSUPHAAAVSW-UHFFFAOYNA-N
SMILES: CCCCCCCCCCCCCCCCCCCC(=O)OC(CO)COP([O-])(=O)OCC[N+](C)(C)C
RETENTIONTIME: 
CCS: -1
IONMODE: Negative
INSTRUMENTTYPE: LC-ESI-ITFT
INSTRUMENT: 
COLLISIONENERGY: 30
Comment: registered in MassBank
Num Peaks: 5
288.85999	15
360.67999	18
460.73999	20
536.03003	1000
536.70001	33

NAME: Phosphatidylcholine lyso 20
PRECURSORMZ: 580.398378
PRECURSORTYPE: [M+CH3COO]-
FORMULA: C28H56NO7P
Ontology: 2-acyl-sn-glycero-3-phosphocholines
INCHIKEY: IDRKESNUEGURSD-VXPUYCOJNA-N
SMILES: CCCCCCCCCCCCCCC\C=C/CCC(=O)OC(CO)COP([O-])(=O)OCC[N+](C)(C)C
RETENTIONTIME: 
CCS: -1
IONMODE: Negative
INSTRUMENTTYPE: LC-ESI-ITFT
INSTRUMENT: 
COLLISIONENERGY: 30
Comment: registered in MassBank
Num Peaks: 13
255.14	51
269.44	5
386.51001	15
393.56	12
396.62	7
404.69	8
430.63	20
440	5
478.14999	8
480.5	23
501.12	6
510.76999	10
534.15002	1000

NAME: Phosphatidylcholine lyso 20
PRECURSORMZ: 574.351428
PRECURSORTYPE: [M+CH3COO]-
FORMULA: C28H50NO7P
Ontology: 2-acyl-sn-glycero-3-phosphocholines
INCHIKEY: XHKVQFBZSMLFNL-AILJCPQKNA-N
SMILES: CCCCCC\C=C/C\C=C/C\C=C/C\C=C/CCC(=O)OC(CO)COP([O-])(=O)OCC[N+](C)(C)C
RETENTIONTIME: 
CCS: -1
IONMODE: Negative
INSTRUMENTTYPE: LC-ESI-ITFT
INSTRUMENT: 
COLLISIONENERGY: 30
Comment: registered in MassBank
Num Peaks: 1
528.08002	1000

NAME: Phosphatidylcholine lyso 22
PRECURSORMZ: 598.351428
PRECURSORTYPE: [M+CH3COO]-
FORMULA: C30H50NO7P
Ontology: 2-acyl-sn-glycero-3-phosphocholines
INCHIKEY: FTLVGMFFHDRYDI-WSDBEMKQNA-N
SMILES: CC\C=C/C\C=C/C\C=C/C\C=C/C\C=C/C\C=C/CCC(=O)OC(CO)COP([O-])(=O)OCC[N+](C)(C)C
RETENTIONTIME: 
CCS: -1
IONMODE: Negative
INSTRUMENTTYPE: LC-ESI-ITFT
INSTRUMENT: 
COLLISIONENERGY: 30
Comment: registered in MassBank
Num Peaks: 3
342.73999	7
484.76999	13
551.96997	1000

NAME: Phosphatidylethanolamine 14
PRECURSORMZ: 734.476628
PRECURSORTYPE: [M-H]-
FORMULA: C41H70NO8P
Ontology: Phosphatidylethanolamines
INCHIKEY: XQLJDXRKMXWECX-PAHVTNPFNA-N
SMILES: CCCCCCCCCCCCCC(=O)OCC(COP(O)(=O)OCCN)OC(=O)CC\C=C/C\C=C/C\C=C/C\C=C/C\C=C/C\C=C/CC
RETENTIONTIME: 
CCS: 373.430702
IONMODE: Negative
INSTRUMENTTYPE: LC-ESI-ITFT
INSTRUMENT: 
COLLISIONENERGY: 30
Comment: registered in MassBank
Num Peaks: 6
227.25999	272
283.09	618
327.20999	1000
328.07999	287
424.01999	390
689.78003	206

NAME: Phosphatidylethanolamine 15
PRECURSORMZ: 748.492278
PRECURSORTYPE: [M-H]-
FORMULA: C42H72NO8P
Ontology: Phosphatidylethanolamines
INCHIKEY: WIJRNOBSWIZHST-JTURFRPLNA-N
SMILES: CCCCCCCCCCCCCCC(=O)OCC(COP(O)(=O)OCCN)OC(=O)CC\C=C/C\C=C/C\C=C/C\C=C/C\C=C/C\C=C/CC
RETENTIONTIME: 
CCS: 383.7427226
IONMODE: Negative
INSTRUMENTTYPE: LC-ESI-ITFT
INSTRUMENT: 
COLLISIONENERGY: 30
Comment: registered in MassBank
Num Peaks: 11
241.19	446
242.21001	193
283.23001	470
327.14999	1000
328.07999	108
437.70001	361
438.29999	145
666.21002	217
687.72998	145
703.78003	96
716.02002	145

NAME: Phosphatidylethanolamine 16
PRECURSORMZ: 690.507928
PRECURSORTYPE: [M-H]-
FORMULA: C37H74NO8P
Ontology: Phosphatidylethanolamines
INCHIKEY: SLKDGVPOSSLUAI-UHFFFAOYNA-N
SMILES: CCCCCCCCCCCCCCCC(=O)OCC(COP(O)(=O)OCCN)OC(=O)CCCCCCCCCCCCCCC
RETENTIONTIME: 
CCS: 351.7346598
IONMODE: Negative
INSTRUMENTTYPE: LC-ESI-ITFT
INSTRUMENT: 
COLLISIONENERGY: 30
Comment: registered in MassBank
Num Peaks: 5
255.13	1000
256.20999	112
433.97	12
452.16	113
453.42001	17

NAME: Phosphatidylethanolamine 16
PRECURSORMZ: 716.523578
PRECURSORTYPE: [M-H]-
FORMULA: C39H76NO8P
Ontology: Phosphatidylethanolamines
INCHIKEY: RECBGBLFDMTQRS-SGEDCAFJNA-N
SMILES: CCCCCCCCCCCCCCCC(=O)OCC(COP(O)(=O)OCCN)OC(=O)CC\C=C/CCCCCCCCCCCCC
RETENTIONTIME: 
CCS: -1
IONMODE: Negative
INSTRUMENTTYPE: LC-ESI-ITFT
INSTRUMENT: 
COLLISIONENERGY: 30
Comment: registered in MassBank
Num Peaks: 7
255.10001	398
281.09	1000
282.31	9
434.09	9
452.12	112
460.10999	15
478.10999	37

NAME: Phosphatidylethanolamine 16
PRECURSORMZ: 714.507928
PRECURSORTYPE: [M-H]-
FORMULA: C39H74NO8P
Ontology: Phosphatidylethanolamines
INCHIKEY: JXRDSKPCJNWQEG-BAOXYHDDNA-N
SMILES: CCCCCCCCCCCCCCCC(=O)OCC(COP(O)(=O)OCCN)OC(=O)CC\C=C/C\C=C/CCCCCCCCCC
RETENTIONTIME: 
CCS: -1
IONMODE: Negative
INSTRUMENTTYPE: LC-ESI-ITFT
INSTRUMENT: 
COLLISIONENERGY: 30
Comment: registered in MassBank
Num Peaks: 14
255.10001	350
256.04999	19
279.16	1000
280.23999	127
281.07001	28
299.57001	8
433.89999	9
451.57999	8
452.20001	193
453.07999	14
458.16	8
476.09	62
477.82001	9
625.14001	10

NAME: Phosphatidylethanolamine 16
PRECURSORMZ: 740.523578
PRECURSORTYPE: [M-H]-
FORMULA: C41H76NO8P
Ontology: Phosphatidylethanolamines
INCHIKEY: FOZMADPVSAYPHH-PNECARMWNA-N
SMILES: CCCCCCCCCCCCCCCC(=O)OCC(COP(O)(=O)OCCN)OC(=O)CC\C=C/C\C=C/C\C=C/CCCCCCCCC
RETENTIONTIME: 
CCS: -1
IONMODE: Negative
INSTRUMENTTYPE: LC-ESI-ITFT
INSTRUMENT: 
COLLISIONENERGY: 30
Comment: registered in MassBank
Num Peaks: 14
255.12	367
256.09	55
279.14001	27
281.17999	13
282.25	7
305.04999	1000
306.17999	137
392.59	7
434.03	34
452.17999	149
453.23001	30
473.04001	13
502.28	30
503.04999	10

NAME: Phosphatidylethanolamine 16
PRECURSORMZ: 738.507928
PRECURSORTYPE: [M-H]-
FORMULA: C41H74NO8P
Ontology: Phosphatidylethanolamines
INCHIKEY: ARFPLDYYIYCLNV-WRDNLCFKNA-N
SMILES: CCCCCCCCCCCCCCCC(=O)OCC(COP(O)(=O)OCCN)OC(=O)CC\C=C/C\C=C/C\C=C/C\C=C/CCCCCC
RETENTIONTIME: 
CCS: -1
IONMODE: Negative
INSTRUMENTTYPE: LC-ESI-ITFT
INSTRUMENT: 
COLLISIONENERGY: 30
Comment: registered in MassBank
Num Peaks: 11
255.09	313
256.14999	7
259.17001	84
303.01001	1000
304.03	43
433.72	8
434.35999	9
452.01999	182
453.07999	12
482.10999	6
499.98001	23

NAME: Phosphatidylethanolamine 16
PRECURSORMZ: 736.492278
PRECURSORTYPE: [M-H]-
FORMULA: C41H72NO8P
Ontology: Phosphatidylethanolamines
INCHIKEY: QLFZCNOCZYRVAU-JPOVHVJANA-N
SMILES: CCCCCCCCCCCCCCCC(=O)OCC(COP(O)(=O)OCCN)OC(=O)CC\C=C/C\C=C/C\C=C/C\C=C/C\C=C/CCC
RETENTIONTIME: 
CCS: -1
IONMODE: Negative
INSTRUMENTTYPE: LC-ESI-ITFT
INSTRUMENT: 
COLLISIONENERGY: 30
Comment: registered in MassBank
Num Peaks: 13
255.17	599
256.64999	112
257.35001	61
257.98001	31
301.12	1000
301.94	44
303.17999	14
408.82999	71
452.12	534
453.04999	17
498.32999	92
499.06	58
654.45001	129

NAME: Phosphatidylethanolamine 16
PRECURSORMZ: 766.539229
PRECURSORTYPE: [M-H]-
FORMULA: C43H78NO8P
Ontology: Phosphatidylethanolamines
INCHIKEY: WRJMLLZQXDAGES-ASOJYNRJNA-N
SMILES: CCCCCCCCCCCCCCCC(=O)OCC(COP(O)(=O)OCCN)OC(=O)CC\C=C/C\C=C/C\C=C/C\C=C/CCCCCCCC
RETENTIONTIME: 
CCS: -1
IONMODE: Negative
INSTRUMENTTYPE: LC-ESI-ITFT
INSTRUMENT: 
COLLISIONENERGY: 30
Comment: registered in MassBank
Num Peaks: 16
232.94	7
255.09	326
256.13	17
281.01999	8
287.22	37
288.14999	6
305.10999	27
331.10001	1000
332.16	112
434.19	12
452.10001	153
453.14999	21
478.04999	6
510.20001	5
528.03998	11
528.96002	8

NAME: Phosphatidylethanolamine 16
PRECURSORMZ: 764.523578
PRECURSORTYPE: [M-H]-
FORMULA: C43H76NO8P
Ontology: Phosphatidylethanolamines
INCHIKEY: VFGMWCSZLGEBAJ-XONGEEKRNA-N
SMILES: CCCCCCCCCCCCCCCC(=O)OCC(COP(O)(=O)OCCN)OC(=O)CC\C=C/C\C=C/C\C=C/C\C=C/C\C=C/CCCCC
RETENTIONTIME: 
CCS: 366.3430627
IONMODE: Negative
INSTRUMENTTYPE: LC-ESI-ITFT
INSTRUMENT: 
COLLISIONENERGY: 30
Comment: registered in MassBank
Num Peaks: 26
231.22	15
255.09	351
256.09	15
259.12	39
281.07999	128
282.23999	14
283.16	6
285.16	55
286.26999	19
293.29999	6
303.10999	276
304.14999	33
327.10999	9
329.03	1000
330.12	161
434.22	11
436.19	41
452.14001	146
453.10999	45
460.10001	6
478.10001	56
478.92001	7
507.97	6
525.84003	21
527.08002	5
690.21002	658

NAME: Phosphatidylethanolamine 16
PRECURSORMZ: 762.507928
PRECURSORTYPE: [M-H]-
FORMULA: C43H74NO8P
Ontology: Phosphatidylethanolamines
INCHIKEY: MPWUZHVZZKSTPV-LGFBOSHVNA-N
SMILES: CCCCCCCCCCCCCCCC(=O)OCC(COP(O)(=O)OCCN)OC(=O)CC\C=C/C\C=C/C\C=C/C\C=C/C\C=C/C\C=C/CC
RETENTIONTIME: 
CCS: 364.4650752
IONMODE: Negative
INSTRUMENTTYPE: LC-ESI-ITFT
INSTRUMENT: 
COLLISIONENERGY: 30
Comment: registered in MassBank
Num Peaks: 13
228.96001	32
249.03	11
255.16	660
256.12	29
283.12	495
284.14999	53
327.04001	1000
328.01001	69
434.20999	30
452.06	431
453.04001	28
505.95001	13
524.14001	24

NAME: Phosphatidylethanolamine 16
PRECURSORMZ: 714.507928
PRECURSORTYPE: [M-H]-
FORMULA: C39H74NO8P
Ontology: Phosphatidylethanolamines
INCHIKEY: HGDJXBPLHZFXGO-LBXGSASVNA-N
SMILES: CCCCCCCCCCCCC\C=C/CCC(=O)OC(COC(=O)CC\C=C/CCCCCCCCCCC)COP(O)(=O)OCCN
RETENTIONTIME: 
CCS: -1
IONMODE: Negative
INSTRUMENTTYPE: LC-ESI-ITFT
INSTRUMENT: 
COLLISIONENERGY: 30
Comment: registered in MassBank
Num Peaks: 14
253.13	697
254.09	10
272.57001	9
278.82999	9
281.13	1000
282.29999	67
431.64999	13
432.98999	26
450.07999	145
450.81	6
460.23999	21
478.10999	121
479.13	36
670.53003	8

NAME: Phosphatidylethanolamine 16
PRECURSORMZ: 736.492278
PRECURSORTYPE: [M-H]-
FORMULA: C41H72NO8P
Ontology: Phosphatidylethanolamines
INCHIKEY: TUAWQIYXFSBSNQ-RQDZWXAXNA-N
SMILES: CCCCCCCCCCC\C=C/CCC(=O)OCC(COP(O)(=O)OCCN)OC(=O)CC\C=C/C\C=C/C\C=C/C\C=C/CCCCCC
RETENTIONTIME: 
CCS: -1
IONMODE: Negative
INSTRUMENTTYPE: LC-ESI-ITFT
INSTRUMENT: 
COLLISIONENERGY: 30
Comment: registered in MassBank
Num Peaks: 18
253.05	230
254.24001	64
259.01999	171
260.39999	30
281.14001	60
285.22	21
295.20001	11
303.07001	1000
303.95999	183
432.70999	13
450.20999	83
450.92999	36
474.41	62
499.95001	13
502.79999	11
654.20001	15
672.90997	13
678.22998	26

NAME: Phosphatidylethanolamine 16
PRECURSORMZ: 760.492278
PRECURSORTYPE: [M-H]-
FORMULA: C43H72NO8P
Ontology: Phosphatidylethanolamines
INCHIKEY: ZJBSZOUPRJVSRB-SIEWZCRLNA-N
SMILES: CCCCCCCCCCC\C=C/CCC(=O)OCC(COP(O)(=O)OCCN)OC(=O)CC\C=C/C\C=C/C\C=C/C\C=C/C\C=C/C\C=C/CC
RETENTIONTIME: 
CCS: -1
IONMODE: Negative
INSTRUMENTTYPE: LC-ESI-ITFT
INSTRUMENT: 
COLLISIONENERGY: 30
Comment: registered in MassBank
Num Peaks: 13
228.98	286
253.10001	422
276.88	32
283.12	221
284.22	52
296.89001	188
303.32001	91
327.01001	1000
433.39999	58
449.85999	552
673.04999	52
686.32001	123
716.90002	71

NAME: Phosphatidylethanolamine 17
PRECURSORMZ: 730.539229
PRECURSORTYPE: [M-H]-
FORMULA: C40H78NO8P
Ontology: Phosphatidylethanolamines
INCHIKEY: OCGMRPHRWYLSEA-OHYPFYFLNA-N
SMILES: CCCCCCCCCCCCCCCCC(=O)OCC(COP(O)(=O)OCCN)OC(=O)CC\C=C/CCCCCCCCCCCCC
RETENTIONTIME: 
CCS: -1
IONMODE: Negative
INSTRUMENTTYPE: LC-ESI-ITFT
INSTRUMENT: 
COLLISIONENERGY: 30
Comment: registered in MassBank
Num Peaks: 19
255.09	25
255.91	12
269.09	302
270.10999	36
281.16	1000
282.13	444
283.16	41
284.29999	17
285.04001	11
448.07001	25
452.04001	10
464.22	35
465.89999	160
467.31	18
478.20999	15
492.98001	29
553.91998	14
713.39001	10
716.16998	11

NAME: Phosphatidylethanolamine 17
PRECURSORMZ: 752.523578
PRECURSORTYPE: [M-H]-
FORMULA: C42H76NO8P
Ontology: Phosphatidylethanolamines
INCHIKEY: LUNHOOJLWJQRDB-VTJLAKARNA-N
SMILES: CCCCCCCCCCCCCCCCC(=O)OCC(COP(O)(=O)OCCN)OC(=O)CC\C=C/C\C=C/C\C=C/C\C=C/CCCCCC
RETENTIONTIME: 
CCS: -1
IONMODE: Negative
INSTRUMENTTYPE: LC-ESI-ITFT
INSTRUMENT: 
COLLISIONENERGY: 30
Comment: registered in MassBank
Num Peaks: 20
233.2	10
259.12	172
260.04001	40
269.12	330
270.13	38
303.10999	1000
304.14001	181
305.14999	7
392.17001	5
402.85001	7
439.26999	13
447.70999	29
464.17999	63
465.29001	52
466.17999	246
467.13	54
499.98999	14
691.21997	10
694.40997	9
702.07001	25

NAME: Phosphatidylethanolamine 17
PRECURSORMZ: 776.523578
PRECURSORTYPE: [M-H]-
FORMULA: C44H76NO8P
Ontology: Phosphatidylethanolamines
INCHIKEY: WVGREBRFGJNLSB-KAFSZNKPNA-N
SMILES: CCCCCCCCCCCCCCCCC(=O)OCC(COP(O)(=O)OCCN)OC(=O)CC\C=C/C\C=C/C\C=C/C\C=C/C\C=C/C\C=C/CC
RETENTIONTIME: 
CCS: -1
IONMODE: Negative
INSTRUMENTTYPE: LC-ESI-ITFT
INSTRUMENT: 
COLLISIONENERGY: 30
Comment: registered in MassBank
Num Peaks: 33
228.99001	39
230.08	6
239.34	19
249.91	6
269.17001	449
270.25	68
283.09	537
284	164
284.76999	17
303.25	19
309.20999	6
327.10001	1000
328.10001	343
329.10001	50
330.01999	12
331.20999	45
332.23999	20
333.26001	5
400.10001	5
403.01999	13
404.38	27
446.82999	61
448.07001	40
460.22	37
464.19	222
465.25	296
466.07999	271
467.01999	50
499.60001	9
524.20001	6
693.31	10
701.38	8
716.26001	12

NAME: Phosphatidylethanolamine 17
PRECURSORMZ: 750.507928
PRECURSORTYPE: [M-H]-
FORMULA: C42H74NO8P
Ontology: Phosphatidylethanolamines
INCHIKEY: BTWJFQUCIMQURY-RQZMTRGUNA-N
SMILES: CCCCCCCCCCCC\C=C/CCC(=O)OCC(COP(O)(=O)OCCN)OC(=O)CC\C=C/C\C=C/C\C=C/C\C=C/CCCCCC
RETENTIONTIME: 
CCS: -1
IONMODE: Negative
INSTRUMENTTYPE: LC-ESI-ITFT
INSTRUMENT: 
COLLISIONENERGY: 30
Comment: registered in MassBank
Num Peaks: 12
259.20001	192
260.07999	83
267.17001	683
303.09	1000
438.14999	83
446.25	83
451.10999	92
464.01001	167
499.76001	108
690.71997	58
700.32001	50
732.29999	175

NAME: Phosphatidylethanolamine 18
PRECURSORMZ: 718.539229
PRECURSORTYPE: [M-H]-
FORMULA: C39H78NO8P
Ontology: Phosphatidylethanolamines
INCHIKEY: JRTZGTYHEHCHTM-UHFFFAOYNA-N
SMILES: CCCCCCCCCCCCCCCCCC(=O)OCC(COP(O)(=O)OCCN)OC(=O)CCCCCCCCCCCCCCC
RETENTIONTIME: 
CCS: 342.469734
IONMODE: Negative
INSTRUMENTTYPE: LC-ESI-ITFT
INSTRUMENT: 
COLLISIONENERGY: 30
Comment: registered in MassBank
Num Peaks: 9
255.08	1000
256.10001	83
283.14001	402
284.19	27
434.10001	11
452.04999	16
480.09	193
481.26001	11
635.77002	13

NAME: Phosphatidylethanolamine 18
PRECURSORMZ: 744.554879
PRECURSORTYPE: [M-H]-
FORMULA: C41H80NO8P
Ontology: Phosphatidylethanolamines
INCHIKEY: YNUVHPZRNQDFHS-HYOGKJQXNA-N
SMILES: CCCCCCCCCCCCCCCCCC(=O)OCC(COP(O)(=O)OCCN)OC(=O)CC\C=C/CCCCCCCCCCCCC
RETENTIONTIME: 
CCS: -1
IONMODE: Negative
INSTRUMENTTYPE: LC-ESI-ITFT
INSTRUMENT: 
COLLISIONENERGY: 30
Comment: registered in MassBank
Num Peaks: 9
281.06	1000
282.23999	50
283.09	360
284.16	17
460	6
462.16	10
478.14999	14
480.14999	137
481.22	7

NAME: Phosphatidylethanolamine 18
PRECURSORMZ: 742.539229
PRECURSORTYPE: [M-H]-
FORMULA: C41H78NO8P
Ontology: Phosphatidylethanolamines
INCHIKEY: CJVLBVKIFVTUPS-JSCMVKKRNA-N
SMILES: CCCCCCCCCCCCCCCCCC(=O)OCC(COP(O)(=O)OCCN)OC(=O)CC\C=C/C\C=C/CCCCCCCCCC
RETENTIONTIME: 
CCS: -1
IONMODE: Negative
INSTRUMENTTYPE: LC-ESI-ITFT
INSTRUMENT: 
COLLISIONENERGY: 30
Comment: registered in MassBank
Num Peaks: 12
260.85999	10
279.07001	1000
280	106
281.17999	9
283.13	355
284.22	37
307.01999	7
458.23999	6
476.10999	11
478	5
479.98999	116
481.07999	21

NAME: Phosphatidylethanolamine 18
PRECURSORMZ: 770.570529
PRECURSORTYPE: [M-H]-
FORMULA: C43H82NO8P
Ontology: Phosphatidylethanolamines
INCHIKEY: BDTZWAMVDWXHLM-QIPJBBGZNA-N
SMILES: CCCCCCCCCCCCCCCCCC(=O)OCC(COP(O)(=O)OCCN)OC(=O)CC\C=C/C\C=C/CCCCCCCCCCCC
RETENTIONTIME: 
CCS: -1
IONMODE: Negative
INSTRUMENTTYPE: LC-ESI-ITFT
INSTRUMENT: 
COLLISIONENERGY: 30
Comment: registered in MassBank
Num Peaks: 16
281.20001	15
283.03	278
284.19	57
289.17001	21
307.14001	1000
308.17001	105
309.20999	11
418.76999	15
461.91	5
480.09	92
481.23999	5
503.89001	14
504.51999	6
683.38	15
687.41998	10
771.02002	20

NAME: Phosphatidylethanolamine 18
PRECURSORMZ: 768.554879
PRECURSORTYPE: [M-H]-
FORMULA: C43H80NO8P
Ontology: Phosphatidylethanolamines
INCHIKEY: BDESLISUEJTDHD-JCXYTCFZNA-N
SMILES: CCCCCCCCCCCCCCCCCC(=O)OCC(COP(O)(=O)OCCN)OC(=O)CC\C=C/C\C=C/C\C=C/CCCCCCCCC
RETENTIONTIME: 
CCS: -1
IONMODE: Negative
INSTRUMENTTYPE: LC-ESI-ITFT
INSTRUMENT: 
COLLISIONENERGY: 30
Comment: registered in MassBank
Num Peaks: 10
283.13	381
284.16	65
303.29001	9
305.03	1000
306.06	128
462.26999	9
480.10999	152
481.26999	16
484.03	6
502.17001	14

NAME: Phosphatidylethanolamine 18
PRECURSORMZ: 766.539229
PRECURSORTYPE: [M-H]-
FORMULA: C43H78NO8P
Ontology: Phosphatidylethanolamines
INCHIKEY: VUDFSDNQOHMQTE-NQWSYULSNA-N
SMILES: CCCCCCCCCCCCCCCCCC(=O)OCC(COP(O)(=O)OCCN)OC(=O)CC\C=C/C\C=C/C\C=C/C\C=C/CCCCCC
RETENTIONTIME: 
CCS: -1
IONMODE: Negative
INSTRUMENTTYPE: LC-ESI-ITFT
INSTRUMENT: 
COLLISIONENERGY: 30
Comment: registered in MassBank
Num Peaks: 11
259.19	60
283.13	541
284.10999	35
303.09	1000
304.19	88
462	17
463.17001	7
480.10999	291
481.14001	33
499.98999	16
716.21997	25

NAME: Phosphatidylethanolamine 18
PRECURSORMZ: 800.617479
PRECURSORTYPE: [M-H]-
FORMULA: C45H88NO8P
Ontology: Phosphatidylethanolamines
INCHIKEY: HHIOTAKOFGPHDM-YJKCNMNRNA-N
SMILES: CCCCCCCCCCCCCCCCC\C=C/CCC(=O)OC(COC(=O)CCCCCCCCCCCCCCCCC)COP(O)(=O)OCCN
RETENTIONTIME: 
CCS: -1
IONMODE: Negative
INSTRUMENTTYPE: LC-ESI-ITFT
INSTRUMENT: 
COLLISIONENERGY: 30
Comment: registered in MassBank
Num Peaks: 23
283.14999	320
284.17001	52
295.35001	10
309.29001	68
310.06	17
311.26001	130
312.29999	19
337.09	1000
338.16	236
375.09	5
462.31	24
480.12	55
481.51999	9
506.42999	9
516.58002	6
520.02002	13
534.33002	25
638.20001	12
682.67999	23
712.91998	25
717.32001	52
719.28003	9
725.71997	11

NAME: Phosphatidylethanolamine 18
PRECURSORMZ: 796.586179
PRECURSORTYPE: [M-H]-
FORMULA: C45H84NO8P
Ontology: Phosphatidylethanolamines
INCHIKEY: SUKSMPBISVBNOS-SDJUKWJGNA-N
SMILES: CCCCCCCCCCCCCCCCCC(=O)OCC(COP(O)(=O)OCCN)OC(=O)CC\C=C/C\C=C/C\C=C/CCCCCCCCCCC
RETENTIONTIME: 
CCS: -1
IONMODE: Negative
INSTRUMENTTYPE: LC-ESI-ITFT
INSTRUMENT: 
COLLISIONENERGY: 30
Comment: registered in MassBank
Num Peaks: 17
283.07999	164
284.31	44
288.89001	20
333.16	1000
334.23999	150
336.89999	26
419.14001	27
462.09	14
480.10999	194
530.06	23
590.94	48
652.32001	29
695.92999	27
728.34003	23
732.02002	14
732.71002	32
746.59003	9

NAME: Phosphatidylethanolamine 18
PRECURSORMZ: 794.570529
PRECURSORTYPE: [M-H]-
FORMULA: C45H82NO8P
Ontology: Phosphatidylethanolamines
INCHIKEY: QDYAMUDPRJZWQB-BPSDUUPONA-N
SMILES: CCCCCCCCCCCCCCCCCC(=O)OCC(COP(O)(=O)OCCN)OC(=O)CC\C=C/C\C=C/C\C=C/C\C=C/CCCCCCCC
RETENTIONTIME: 
CCS: -1
IONMODE: Negative
INSTRUMENTTYPE: LC-ESI-ITFT
INSTRUMENT: 
COLLISIONENERGY: 30
Comment: registered in MassBank
Num Peaks: 10
283.16	453
284.22	37
287.14999	50
288.20001	7
331.13	1000
332.17999	143
480.07999	222
481.03	22
510.10001	13
527.98999	12

NAME: Phosphatidylethanolamine 18
PRECURSORMZ: 790.539229
PRECURSORTYPE: [M-H]-
FORMULA: C45H78NO8P
Ontology: Phosphatidylethanolamines
INCHIKEY: XYYHNDVKALDFHQ-HSBBONCLNA-N
SMILES: CCCCCCCCCCCCCCCCCC(=O)OCC(COP(O)(=O)OCCN)OC(=O)CC\C=C/C\C=C/C\C=C/C\C=C/C\C=C/C\C=C/CC
RETENTIONTIME: 
CCS: 396.325474
IONMODE: Negative
INSTRUMENTTYPE: LC-ESI-ITFT
INSTRUMENT: 
COLLISIONENERGY: 30
Comment: registered in MassBank
Num Peaks: 12
229.02	20
283.10999	1000
284.16	101
309.13	5
327.01001	651
328.10999	92
462.14999	22
480.14001	388
481.17001	41
506.23001	9
523.84998	14
524.94	7

NAME: Phosphatidylethanolamine 18
PRECURSORMZ: 742.539229
PRECURSORTYPE: [M-H]-
FORMULA: C41H78NO8P
Ontology: Phosphatidylethanolamines
INCHIKEY: BQGWAMJRMWMSMT-ZUELCTOONA-N
SMILES: CCCCCCCCCCCCC\C=C/CCC(=O)OCC(COP(O)(=O)OCCN)OC(=O)CC\C=C/CCCCCCCCCCCCC
RETENTIONTIME: 
CCS: -1
IONMODE: Negative
INSTRUMENTTYPE: LC-ESI-ITFT
INSTRUMENT: 
COLLISIONENERGY: 30
Comment: registered in MassBank
Num Peaks: 5
281.10999	1000
282.10999	53
460.03	14
478.03	108
479	6

NAME: Phosphatidylethanolamine 18
PRECURSORMZ: 740.523578
PRECURSORTYPE: [M-H]-
FORMULA: C41H76NO8P
Ontology: Phosphatidylethanolamines
INCHIKEY: SDQYMWWODQDLBO-XBCPOCNBNA-N
SMILES: CCCCCCCCCCCCC\C=C/CCC(=O)OCC(COP(O)(=O)OCCN)OC(=O)CC\C=C/C\C=C/CCCCCCCCCC
RETENTIONTIME: 
CCS: -1
IONMODE: Negative
INSTRUMENTTYPE: LC-ESI-ITFT
INSTRUMENT: 
COLLISIONENERGY: 30
Comment: registered in MassBank
Num Peaks: 21
255.11	38
256.12	32
259.06	9
260.07001	8
279.12	1000
280.26001	45
281.10999	843
282.06	17
303	82
304.06	98
305.03	15
452.14999	19
453.13	34
454.19	9
458.09	15
459.91	12
476.07001	106
477.97	152
687.71997	7
688.53998	7
690.15997	24

NAME: Phosphatidylethanolamine 18
PRECURSORMZ: 770.570529
PRECURSORTYPE: [M-H]-
FORMULA: C43H82NO8P
Ontology: Phosphatidylethanolamines
INCHIKEY: UVYKYAJJWJKGHK-SZDCHMHBNA-N
SMILES: CCCCCCCCCCCCCCC\C=C/CCC(=O)OC(COC(=O)CC\C=C/CCCCCCCCCCCCC)COP(O)(=O)OCCN
RETENTIONTIME: 
CCS: -1
IONMODE: Negative
INSTRUMENTTYPE: LC-ESI-ITFT
INSTRUMENT: 
COLLISIONENERGY: 30
Comment: registered in MassBank
Num Peaks: 14
281.12	411
282.17999	45
283.14001	8
284.17999	6
305.17001	19
306.19	18
307.22	9
309.10001	1000
310.13	95
459.87	12
478.17999	114
488.14001	11
505.98999	34
507.03	16

NAME: Phosphatidylethanolamine 18
PRECURSORMZ: 764.523578
PRECURSORTYPE: [M-H]-
FORMULA: C43H76NO8P
Ontology: Phosphatidylethanolamines
INCHIKEY: QBVUKWXEFSHJOQ-MOYSMJPMNA-N
SMILES: CCCCCCCCCCCCC\C=C/CCC(=O)OCC(COP(O)(=O)OCCN)OC(=O)CC\C=C/C\C=C/C\C=C/C\C=C/CCCCCC
RETENTIONTIME: 
CCS: -1
IONMODE: Negative
INSTRUMENTTYPE: LC-ESI-ITFT
INSTRUMENT: 
COLLISIONENERGY: 30
Comment: registered in MassBank
Num Peaks: 10
259.14999	78
281.22	496
282.19	18
303.04001	1000
304.14001	75
460.10001	18
478.10999	256
479.12	11
481.91	8
500.14999	19

NAME: Phosphatidylethanolamine 18
PRECURSORMZ: 762.507928
PRECURSORTYPE: [M-H]-
FORMULA: C43H74NO8P
Ontology: Phosphatidylethanolamines
INCHIKEY: MQYQFMSHGWBKBV-XKMJRSRDNA-N
SMILES: CCCCCCCCCCCCC\C=C/CCC(=O)OCC(COP(O)(=O)OCCN)OC(=O)CC\C=C/C\C=C/C\C=C/C\C=C/C\C=C/CCC
RETENTIONTIME: 
CCS: -1
IONMODE: Negative
INSTRUMENTTYPE: LC-ESI-ITFT
INSTRUMENT: 
COLLISIONENERGY: 30
Comment: registered in MassBank
Num Peaks: 22
255.38	90
257.14001	161
258.16	116
279.09	302
281.07999	945
282.37	141
301.09	1000
302.32001	291
303.39999	156
304.26001	146
323.73001	45
330.39999	35
453.20001	45
460.04999	90
476.23001	206
478.12	980
479.25	206
497.89001	50
499.07001	70
526.39001	20
679.53998	35
688.17999	216

NAME: Phosphatidylethanolamine 18
PRECURSORMZ: 788.523578
PRECURSORTYPE: [M-H]-
FORMULA: C45H76NO8P
Ontology: Phosphatidylethanolamines
INCHIKEY: VPTWUJPVIKSANV-QRPORDCINA-N
SMILES: CCCCCCCCCCCCC\C=C/CCC(=O)OCC(COP(O)(=O)OCCN)OC(=O)CC\C=C/C\C=C/C\C=C/C\C=C/C\C=C/C\C=C/CC
RETENTIONTIME: 
CCS: -1
IONMODE: Negative
INSTRUMENTTYPE: LC-ESI-ITFT
INSTRUMENT: 
COLLISIONENERGY: 30
Comment: registered in MassBank
Num Peaks: 14
229.08	15
281.14999	872
282.23001	93
283.14999	473
284.14001	30
309.03	12
327.07001	1000
328.09	98
460.14999	38
478.06	463
479.09	52
506.09	12
524.03998	25
525.17999	12

NAME: Phosphatidylethanolamine 18
PRECURSORMZ: 738.507928
PRECURSORTYPE: [M-H]-
FORMULA: C41H74NO8P
Ontology: Phosphatidylethanolamines
INCHIKEY: WDBJINMJHHHMJV-WRGXGLASNA-N
SMILES: CCCCCCCCCC\C=C/C\C=C/CCC(=O)OCC(COP(O)(=O)OCCN)OC(=O)CC\C=C/C\C=C/CCCCCCCCCC
RETENTIONTIME: 
CCS: -1
IONMODE: Negative
INSTRUMENTTYPE: LC-ESI-ITFT
INSTRUMENT: 
COLLISIONENERGY: 30
Comment: registered in MassBank
Num Peaks: 11
253.39	50
279.17001	1000
280.28	19
303.20001	47
305.10001	56
454.51999	22
458	14
476.07999	119
501.72	25
694.46002	28
718.96997	25

NAME: Phosphatidylethanolamine 18
PRECURSORMZ: 762.507928
PRECURSORTYPE: [M-H]-
FORMULA: C43H74NO8P
Ontology: Phosphatidylethanolamines
INCHIKEY: VTQZPEHDNCIYJA-IPVVXUKZNA-N
SMILES: CCCCCCCCCC\C=C/C\C=C/CCC(=O)OCC(COP(O)(=O)OCCN)OC(=O)CC\C=C/C\C=C/C\C=C/C\C=C/CCCCCC
RETENTIONTIME: 
CCS: -1
IONMODE: Negative
INSTRUMENTTYPE: LC-ESI-ITFT
INSTRUMENT: 
COLLISIONENERGY: 30
Comment: registered in MassBank
Num Peaks: 18
259.22	108
279.20001	371
280.20001	97
284.31	46
303.01999	1000
304.23999	106
326.92999	20
450.82001	22
453.22	15
457.85001	22
476.07999	336
476.97	33
502.73999	13
588.54999	42
679.44	40
687.97998	44
701.40997	20
742.77002	18

NAME: Phosphatidylethanolamine 18
PRECURSORMZ: 786.507928
PRECURSORTYPE: [M-H]-
FORMULA: C45H74NO8P
Ontology: Phosphatidylethanolamines
INCHIKEY: UWCJYOTVTHYMRF-XPMHQQHXNA-N
SMILES: CCCCCCCCCC\C=C/C\C=C/CCC(=O)OCC(COP(O)(=O)OCCN)OC(=O)CC\C=C/C\C=C/C\C=C/C\C=C/C\C=C/C\C=C/CC
RETENTIONTIME: 
CCS: -1
IONMODE: Negative
INSTRUMENTTYPE: LC-ESI-ITFT
INSTRUMENT: 
COLLISIONENERGY: 30
Comment: registered in MassBank
Num Peaks: 20
239.24001	24
255.22	13
279.03	476
279.89001	55
282.98999	537
284.09	99
302.98001	419
303.60001	24
304.31	50
326.94	1000
328.10001	168
375.60001	13
476.23999	340
477.13	113
500.32999	84
506.07001	42
524.14001	81
704.51001	26
712.10999	16
767.72998	123

NAME: Phosphatidylethanolamine 19
PRECURSORMZ: 804.554879
PRECURSORTYPE: [M-H]-
FORMULA: C46H80NO8P
Ontology: Phosphatidylethanolamines
INCHIKEY: PITVJCPCBXGCHJ-MXQGKLILNA-N
SMILES: CCCCCCCCCCCCCCCCCCC(=O)OCC(COP(O)(=O)OCCN)OC(=O)CC\C=C/C\C=C/C\C=C/C\C=C/C\C=C/C\C=C/CC
RETENTIONTIME: 
CCS: -1
IONMODE: Negative
INSTRUMENTTYPE: LC-ESI-ITFT
INSTRUMENT: 
COLLISIONENERGY: 30
Comment: registered in MassBank
Num Peaks: 25
248.66	18
283.13	402
284.19	63
297.14001	1000
298.07001	159
303.20999	72
326.94	766
328.20001	81
445.82999	45
476.14001	69
488.20001	18
494.14001	691
504.03	18
657.47998	27
719.82001	18
722.06	15
722.77002	60
725.85999	12
728.15997	81
729.26001	417
730.09998	586
740.82001	24
745.09003	18
785.82001	18
798.65997	18

NAME: Phosphatidylethanolamine 19
PRECURSORMZ: 802.539229
PRECURSORTYPE: [M-H]-
FORMULA: C46H78NO8P
Ontology: Phosphatidylethanolamines
INCHIKEY: ALIRENPDFGUYQE-NSLGBSSLNA-N
SMILES: CCCCCCCCCCCCCC\C=C/CCC(=O)OCC(COP(O)(=O)OCCN)OC(=O)CC\C=C/C\C=C/C\C=C/C\C=C/C\C=C/C\C=C/CC
RETENTIONTIME: 
CCS: -1
IONMODE: Negative
INSTRUMENTTYPE: LC-ESI-ITFT
INSTRUMENT: 
COLLISIONENERGY: 30
Comment: registered in MassBank
Num Peaks: 24
281.07999	50
282.07999	12
283.07999	360
284.25	84
285.19	27
295.10001	736
296.20999	118
305.07999	9
309.20999	79
310.13	17
311.04001	39
327.04999	695
327.94	192
492.04999	543
492.89999	41
505.91	10
539.22998	29
714.20001	24
715.15002	33
727.10999	21
740.98999	12
742.07001	1000
743.01001	41
769.85999	14

NAME: Phosphatidylethanolamine 20
PRECURSORMZ: 812.523578
PRECURSORTYPE: [M-H]-
FORMULA: C47H76NO8P
Ontology: Phosphatidylethanolamines
INCHIKEY: LMXHYIDPXWFEQI-GKYWKYGONA-N
SMILES: CCCCCCCCC\C=C/C\C=C/C\C=C/CCC(=O)OCC(COP(O)(=O)OCCN)OC(=O)CC\C=C/C\C=C/C\C=C/C\C=C/C\C=C/C\C=C/CC
RETENTIONTIME: 
CCS: -1
IONMODE: Negative
INSTRUMENTTYPE: LC-ESI-ITFT
INSTRUMENT: 
COLLISIONENERGY: 30
Comment: registered in MassBank
Num Peaks: 14
283.25	509
283.98001	64
305.07999	427
306.09	29
327.13	1000
502	561
502.98999	111
635.46997	29
681.84003	53
724.17999	175
728.35999	193
729.64001	76
738.26001	111
752.84003	47

NAME: Phosphatidylethanolamine 20
PRECURSORMZ: 810.507928
PRECURSORTYPE: [M-H]-
FORMULA: C47H74NO8P
Ontology: Phosphatidylethanolamines
INCHIKEY: QYRBWBWQALDZGP-YARNEYDXNA-N
SMILES: CCCCCC\C=C/C\C=C/C\C=C/C\C=C/CCC(=O)OCC(COP(O)(=O)OCCN)OC(=O)CC\C=C/C\C=C/C\C=C/C\C=C/C\C=C/C\C=C/CC
RETENTIONTIME: 
CCS: -1
IONMODE: Negative
INSTRUMENTTYPE: LC-ESI-ITFT
INSTRUMENT: 
COLLISIONENERGY: 30
Comment: registered in MassBank
Num Peaks: 18
259.09	63
283.19	213
284.14999	43
303.01001	1000
304.20001	283
327.07001	652
328.12	125
482.94	28
500.10001	226
500.98001	65
506.35001	38
524.08002	293
525.06	85
723	35
724.03003	130
760.09003	125
791.69	25
793.56	20

NAME: Phosphatidylethanolamine 22
PRECURSORMZ: 800.617479
PRECURSORTYPE: [M-H]-
FORMULA: C45H88NO8P
Ontology: Phosphatidylethanolamines
INCHIKEY: FCSKFRCOAHKOKI-YJKCNMNRNA-N
SMILES: CCCCCCCCCCCCCCCCCCCCCC(=O)OCC(COP(O)(=O)OCCN)OC(=O)CC\C=C/CCCCCCCCCCCCC
RETENTIONTIME: 
CCS: -1
IONMODE: Negative
INSTRUMENTTYPE: LC-ESI-ITFT
INSTRUMENT: 
COLLISIONENERGY: 30
Comment: registered in MassBank
Num Peaks: 21
281.09	1000
282.23001	186
283.28	12
339.25	458
340.35001	56
405.17999	6
453.92001	8
459.95999	14
477.92999	10
479.17001	10
508.84	6
535.97998	152
537.21002	37
682.22998	17
693.83002	8
710.10999	19
710.97998	10
713.52002	20
714.62	5
718.26001	32
729.17999	18

NAME: Phosphatidylethanolamine 22
PRECURSORMZ: 814.539229
PRECURSORTYPE: [M-H]-
FORMULA: C47H78NO8P
Ontology: Phosphatidylethanolamines
INCHIKEY: UBLNXNRMLGUFLE-SENCJFLLNA-N
SMILES: CCCCCCCC\C=C/C\C=C/C\C=C/C\C=C/CCC(=O)OCC(COP(O)(=O)OCCN)OC(=O)CC\C=C/C\C=C/C\C=C/C\C=C/CCCCCC
RETENTIONTIME: 
CCS: -1
IONMODE: Negative
INSTRUMENTTYPE: LC-ESI-ITFT
INSTRUMENT: 
COLLISIONENERGY: 30
Comment: registered in MassBank
Num Peaks: 13
259.42999	51
303.04001	1000
303.98001	142
331.14999	416
332	156
481.87	23
500.20001	96
528.20001	360
529	96
731.98999	14
739.94	561
740.78998	51
747.03998	14

NAME: Phosphatidylethanolamine 22
PRECURSORMZ: 838.539229
PRECURSORTYPE: [M-H]-
FORMULA: C49H78NO8P
Ontology: Phosphatidylethanolamines
INCHIKEY: UFXLSRZZVFZURD-YECZQSHBNA-N
SMILES: CCCCCCCC\C=C/C\C=C/C\C=C/C\C=C/CCC(=O)OCC(COP(O)(=O)OCCN)OC(=O)CC\C=C/C\C=C/C\C=C/C\C=C/C\C=C/C\C=C/CC
RETENTIONTIME: 
CCS: -1
IONMODE: Negative
INSTRUMENTTYPE: LC-ESI-ITFT
INSTRUMENT: 
COLLISIONENERGY: 30
Comment: registered in MassBank
Num Peaks: 20
249.07001	9
250.13	27
283.09	553
284.07999	28
287.04001	26
300.98001	6
327.04001	1000
328.07999	72
331.16	739
332.17999	81
355	11
467.17999	10
506.23999	15
510.19	35
523.90002	68
528.02002	694
529.15997	69
764.13	400
764.78998	6
781.06	8

NAME: Phosphatidylethanolamine 22
PRECURSORMZ: 836.523578
PRECURSORTYPE: [M-H]-
FORMULA: C49H76NO8P
Ontology: Phosphatidylethanolamines
INCHIKEY: IWZCRDQSSLJDNV-CYFORYSFNA-N
SMILES: CCCCC\C=C/C\C=C/C\C=C/C\C=C/C\C=C/CCC(=O)OCC(COP(O)(=O)OCCN)OC(=O)CC\C=C/C\C=C/C\C=C/C\C=C/C\C=C/C\C=C/CC
RETENTIONTIME: 
CCS: 401.0170772
IONMODE: Negative
INSTRUMENTTYPE: LC-ESI-ITFT
INSTRUMENT: 
COLLISIONENERGY: 30
Comment: registered in MassBank
Num Peaks: 17
283.13	469
284	29
285.17001	97
312.22	24
327.12	647
328.16	111
329.13	1000
505.97	43
525.65002	198
526.28003	275
527.25	130
616.35999	48
731.73999	97
749.52002	72
762.03003	778
762.69	97
816.84003	29

NAME: Phosphatidylethanolamine 22
PRECURSORMZ: 834.507928
PRECURSORTYPE: [M-H]-
FORMULA: C49H74NO8P
Ontology: Phosphatidylethanolamines
INCHIKEY: RBDNSJMXMWTPCS-GZSOIYOPNA-N
SMILES: CC\C=C/C\C=C/C\C=C/C\C=C/C\C=C/C\C=C/CCC(=O)OCC(COP(O)(=O)OCCN)OC(=O)CC\C=C/C\C=C/C\C=C/C\C=C/C\C=C/C\C=C/CC
RETENTIONTIME: 
CCS: 426.1375328
IONMODE: Negative
INSTRUMENTTYPE: LC-ESI-ITFT
INSTRUMENT: 
COLLISIONENERGY: 30
Comment: registered in MassBank
Num Peaks: 14
283.07001	514
284.09	69
309.29001	7
327.04999	1000
328.01001	78
437.10001	7
506.28	58
524.06	333
524.97998	49
581.78998	11
629.59998	22
747.25	27
760.33002	202
784.10999	18

NAME: Phosphatidylethanolamine 22
PRECURSORMZ: 862.539229
PRECURSORTYPE: [M-H]-
FORMULA: C51H78NO8P
Ontology: Phosphatidylethanolamines
INCHIKEY: RYRYLVYZMTURGB-RIJNFFOPNA-N
SMILES: CCCC\C=C/C\C=C/C\C=C/C\C=C/C\C=C/C\C=C/CCC(=O)OC(COC(=O)CC\C=C/C\C=C/C\C=C/C\C=C/C\C=C/C\C=C/CC)COP(O)(=O)OCCN
RETENTIONTIME: 
CCS: -1
IONMODE: Negative
INSTRUMENTTYPE: LC-ESI-ITFT
INSTRUMENT: 
COLLISIONENERGY: 30
Comment: registered in MassBank
Num Peaks: 14
283.04001	356
284.29001	41
310.97	56
327.23999	1000
328.13	79
355.17001	258
356.28	75
505.89001	22
551.96002	404
553.38	26
656.46997	30
788.27002	109
804.26001	142
844.04999	56

NAME: Phosphatidylethanolamine 24
PRECURSORMZ: 866.570529
PRECURSORTYPE: [M-H]-
FORMULA: C51H82NO8P
Ontology: Phosphatidylethanolamines
INCHIKEY: OYZJPILFCCHSQR-UNVMLCDQNA-N
SMILES: CCCCCCCCCC\C=C/C\C=C/C\C=C/C\C=C/CCC(=O)OCC(COP(O)(=O)OCCN)OC(=O)CC\C=C/C\C=C/C\C=C/C\C=C/C\C=C/C\C=C/CC
RETENTIONTIME: 
CCS: -1
IONMODE: Negative
INSTRUMENTTYPE: LC-ESI-ITFT
INSTRUMENT: 
COLLISIONENERGY: 30
Comment: registered in MassBank
Num Peaks: 20
249.03	19
283.10999	386
303.60001	39
327.01001	880
341.01001	67
357.12	14
359.12	1000
359.92999	17
401.17999	19
523.76001	77
538.39001	34
544.06	39
556.14001	761
600.40002	24
708.08002	14
792.17999	453
806.48999	70
823.16998	14
832.21002	29
848.03998	67

NAME: Phosphatidylethanolamine alkenyl 16
PRECURSORMZ: 730.575614
PRECURSORTYPE: [M-H]-
FORMULA: C41H82NO7P
Ontology: 1-(1Z-alkenyl),2-acylglycerophosphoethanolamines
INCHIKEY: LGFRBARRRZCSBV-PKUSAGTQNA-N
SMILES: CCCCCCCCCCCCCCCCCCCC(=O)OC(CO\C=C\CCCCCCCCCCCCCC)COP(O)(=O)OCCN
RETENTIONTIME: 
CCS: 354.1982842
IONMODE: Negative
INSTRUMENTTYPE: LC-ESI-ITFT
INSTRUMENT: 
COLLISIONENERGY: 30
Comment: registered in MassBank
Num Peaks: 13
283.26999	29
294.20999	6
311.14999	1000
312.19	89
375.23001	9
418.06	18
419.10001	10
436.14001	177
437.32001	21
646.72998	7
648.63	8
656.40997	7
669.91998	5

NAME: Phosphatidylethanolamine alkenyl 16
PRECURSORMZ: 726.544314
PRECURSORTYPE: [M-H]-
FORMULA: C41H78NO7P
Ontology: 1-(1Z-alkenyl),2-acylglycerophosphoethanolamines
INCHIKEY: NDDBMPXGHSKRHS-CZAAGYDRNA-N
SMILES: CCCCCCCCCCCCCC\C=C\OCC(COP(O)(=O)OCCN)OC(=O)CC\C=C/C\C=C/CCCCCCCCCCCC
RETENTIONTIME: 
CCS: -1
IONMODE: Negative
INSTRUMENTTYPE: LC-ESI-ITFT
INSTRUMENT: 
COLLISIONENERGY: 30
Comment: registered in MassBank
Num Peaks: 12
255.19	21
281.14999	440
282.13	48
307.13	1000
308.14999	139
309.20001	6
418.17001	38
436.04001	118
437.09	32
444.39999	13
462.20999	71
463.13	27

NAME: Phosphatidylethanolamine alkenyl 16
PRECURSORMZ: 724.528664
PRECURSORTYPE: [M-H]-
FORMULA: C41H76NO7P
Ontology: 1-(1Z-alkenyl),2-acylglycerophosphoethanolamines
INCHIKEY: QUEBLWWLERMNAP-RYYWRRNANA-N
SMILES: CCCCCCCCCCCCCC\C=C\OCC(COP(O)(=O)OCCN)OC(=O)CC\C=C/C\C=C/C\C=C/CCCCCCCCC
RETENTIONTIME: 
CCS: -1
IONMODE: Negative
INSTRUMENTTYPE: LC-ESI-ITFT
INSTRUMENT: 
COLLISIONENERGY: 30
Comment: registered in MassBank
Num Peaks: 8
281.17001	8
287.07001	7
305.10999	1000
306.10001	113
418.22	49
419.20999	9
436.09	203
437.23001	16

NAME: Phosphatidylethanolamine alkenyl 16
PRECURSORMZ: 722.513014
PRECURSORTYPE: [M-H]-
FORMULA: C41H74NO7P
Ontology: 1-(1Z-alkenyl),2-acylglycerophosphoethanolamines
INCHIKEY: QDRJMAHGAQYRIN-PKKQLAOCNA-N
SMILES: CCCCCCCCCCCCCC\C=C\OCC(COP(O)(=O)OCCN)OC(=O)CC\C=C/C\C=C/C\C=C/C\C=C/CCCCCC
RETENTIONTIME: 
CCS: -1
IONMODE: Negative
INSTRUMENTTYPE: LC-ESI-ITFT
INSTRUMENT: 
COLLISIONENERGY: 30
Comment: registered in MassBank
Num Peaks: 6
259.16	82
303.03	1000
304.07001	26
418.14001	59
436.17999	393
437.22	9

NAME: Phosphatidylethanolamine alkenyl 16
PRECURSORMZ: 720.497364
PRECURSORTYPE: [M-H]-
FORMULA: C41H72NO7P
Ontology: 1-(1Z-alkenyl),2-acylglycerophosphoethanolamines
INCHIKEY: RPMVRPOBBVLOLS-HAQSCEBBNA-N
SMILES: CCCCCCCCCCCCCC\C=C\OCC(COP(O)(=O)OCCN)OC(=O)CC\C=C/C\C=C/C\C=C/C\C=C/C\C=C/CCC
RETENTIONTIME: 
CCS: -1
IONMODE: Negative
INSTRUMENTTYPE: LC-ESI-ITFT
INSTRUMENT: 
COLLISIONENERGY: 30
Comment: registered in MassBank
Num Peaks: 11
255.33	142
257.09	272
257.92001	42
301.09	1000
302.37	192
303.01999	13
391.07999	38
419.10001	25
436.26001	418
437.09	84
490.87	29

NAME: Phosphatidylethanolamine alkenyl 16
PRECURSORMZ: 750.544314
PRECURSORTYPE: [M-H]-
FORMULA: C43H78NO7P
Ontology: 1-(1Z-alkenyl),2-acylglycerophosphoethanolamines
INCHIKEY: RKVZUTPSIGLURV-BLAGHTKONA-N
SMILES: CCCCCCCCCCCCCC\C=C\OCC(COP(O)(=O)OCCN)OC(=O)CC\C=C/C\C=C/C\C=C/C\C=C/CCCCCCCC
RETENTIONTIME: 
CCS: -1
IONMODE: Negative
INSTRUMENTTYPE: LC-ESI-ITFT
INSTRUMENT: 
COLLISIONENERGY: 30
Comment: registered in MassBank
Num Peaks: 8
287.23999	46
305.14999	10
331.10999	1000
332.17999	65
418.10999	48
436.07001	291
437.23999	21
462.04001	6

NAME: Phosphatidylethanolamine alkenyl 16
PRECURSORMZ: 746.513014
PRECURSORTYPE: [M-H]-
FORMULA: C43H74NO7P
Ontology: 1-(1Z-alkenyl),2-acylglycerophosphoethanolamines
INCHIKEY: WVGALBKSWOUIEZ-ULUZTLKMNA-N
SMILES: CCCCCCCCCCCCCC\C=C\OCC(COP(O)(=O)OCCN)OC(=O)CC\C=C/C\C=C/C\C=C/C\C=C/C\C=C/C\C=C/CC
RETENTIONTIME: 
CCS: 377.0007354
IONMODE: Negative
INSTRUMENTTYPE: LC-ESI-ITFT
INSTRUMENT: 
COLLISIONENERGY: 30
Comment: registered in MassBank
Num Peaks: 17
229.03	13
248.95	6
255.10001	47
256.98001	7
281.17999	127
283.14001	554
284.16	44
327	1000
327.98001	56
375.01001	8
390.95001	16
418.20001	126
419.13	8
436.12	720
437.23999	24
465.09	7
483.12	20

NAME: Phosphatidylethanolamine alkenyl 16
PRECURSORMZ: 778.575614
PRECURSORTYPE: [M-H]-
FORMULA: C45H82NO7P
Ontology: 1-(1Z-alkenyl),2-acylglycerophosphoethanolamines
INCHIKEY: CXLQRZCNUQQELB-FGJYPOMBNA-N
SMILES: CCCCCCCCCCCCCC\C=C\OCC(COP(O)(=O)OCCN)OC(=O)CC\C=C/C\C=C/C\C=C/C\C=C/CCCCCCCCCC
RETENTIONTIME: 
CCS: -1
IONMODE: Negative
INSTRUMENTTYPE: LC-ESI-ITFT
INSTRUMENT: 
COLLISIONENERGY: 30
Comment: registered in MassBank
Num Peaks: 19
230.98	5
285.14001	19
286.17999	24
315.25	6
329.04999	159
330.14001	68
331.07001	9
359.09	1000
360.14999	192
418.32999	30
436.12	201
437.14001	15
447.20999	13
464.20999	19
465.22	32
466.19	84
703.59998	35
704.23999	144
719.01001	5

NAME: Phosphatidylethanolamine alkenyl 17
PRECURSORMZ: 736.528664
PRECURSORTYPE: [M-H]-
FORMULA: C42H76NO7P
Ontology: 1-(1Z-alkenyl),2-acylglycerophosphoethanolamines
INCHIKEY: QTIWXGKYYKPQFH-FKQGHMTJNA-N
SMILES: CCCCCCCCCCCCCCC\C=C\OCC(COP(O)(=O)OCCN)OC(=O)CC\C=C/C\C=C/C\C=C/C\C=C/CCCCCC
RETENTIONTIME: 
CCS: -1
IONMODE: Negative
INSTRUMENTTYPE: LC-ESI-ITFT
INSTRUMENT: 
COLLISIONENERGY: 30
Comment: registered in MassBank
Num Peaks: 9
259.17001	60
260.10001	13
303.06	1000
304.01999	108
419.19	6
432.48999	45
450.07999	352
451.17001	97
497.82999	11

NAME: Phosphatidylethanolamine alkenyl 17
PRECURSORMZ: 764.559964
PRECURSORTYPE: [M-H]-
FORMULA: C44H80NO7P
Ontology: 1-(1Z-alkenyl),2-acylglycerophosphoethanolamines
INCHIKEY: HYJDBLFZSYMOCC-ORTLTHOANA-N
SMILES: CCCCCCCCCCCCCCC\C=C\OCC(COP(O)(=O)OCCN)OC(=O)CC\C=C/C\C=C/C\C=C/C\C=C/CCCCCCCC
RETENTIONTIME: 
CCS: -1
IONMODE: Negative
INSTRUMENTTYPE: LC-ESI-ITFT
INSTRUMENT: 
COLLISIONENERGY: 30
Comment: registered in MassBank
Num Peaks: 14
287.22	37
313.34	20
331.04001	1000
332.17001	90
390.53	12
432.17999	52
433.20999	32
450.17001	226
451.10001	46
476.51999	5
497.72	16
558.46002	16
587.62	9
677.95001	8

NAME: Phosphatidylethanolamine alkenyl 18
PRECURSORMZ: 702.544314
PRECURSORTYPE: [M-H]-
FORMULA: C39H78NO7P
Ontology: 1-(1Z-alkenyl),2-acylglycerophosphoethanolamines
INCHIKEY: HEASGCOZOMIKFU-WUVHBKSUNA-N
SMILES: CCCCCCCCCCCCCCCC\C=C\OCC(COP(O)(=O)OCCN)OC(=O)CCCCCCCCCCCCCCC
RETENTIONTIME: 
CCS: 332.1010262
IONMODE: Negative
INSTRUMENTTYPE: LC-ESI-ITFT
INSTRUMENT: 
COLLISIONENERGY: 30
Comment: registered in MassBank
Num Peaks: 9
255.06	1000
256.04999	50
267.12	8
283.10999	6
402.84	6
446.13	76
446.98001	6
464.10999	184
465.16	12

NAME: Phosphatidylethanolamine alkenyl 18
PRECURSORMZ: 728.559964
PRECURSORTYPE: [M-H]-
FORMULA: C41H80NO7P
Ontology: 1-(1Z-alkenyl),2-acylglycerophosphoethanolamines
INCHIKEY: GJEZRMBBMQUCBS-NLBLVIAENA-N
SMILES: CCCCCCCCCCCCCCCC\C=C\OCC(COP(O)(=O)OCCN)OC(=O)CC\C=C/CCCCCCCCCCCCC
RETENTIONTIME: 
CCS: -1
IONMODE: Negative
INSTRUMENTTYPE: LC-ESI-ITFT
INSTRUMENT: 
COLLISIONENERGY: 30
Comment: registered in MassBank
Num Peaks: 5
281.06	1000
282.10999	53
446.23999	28
464.16	191
465.32999	14

NAME: Phosphatidylethanolamine alkenyl 18
PRECURSORMZ: 726.544314
PRECURSORTYPE: [M-H]-
FORMULA: C41H78NO7P
Ontology: 1-(1Z-alkenyl),2-acylglycerophosphoethanolamines
INCHIKEY: QBAQUPWJTLVJBD-CZAAGYDRNA-N
SMILES: CCCCCCCCCCCCCCCC\C=C\OCC(COP(O)(=O)OCCN)OC(=O)CC\C=C/C\C=C/CCCCCCCCCC
RETENTIONTIME: 
CCS: -1
IONMODE: Negative
INSTRUMENTTYPE: LC-ESI-ITFT
INSTRUMENT: 
COLLISIONENERGY: 30
Comment: registered in MassBank
Num Peaks: 13
279.07001	1000
280.16	83
281.20999	77
282.29001	6
307.20999	58
403.29999	5
418.23999	8
436.10999	9
446.28	35
447.38	5
462	10
464.25	157
465.22	21

NAME: Phosphatidylethanolamine alkenyl 18
PRECURSORMZ: 758.606914
PRECURSORTYPE: [M-H]-
FORMULA: C43H86NO7P
Ontology: 1-(1Z-alkenyl),2-acylglycerophosphoethanolamines
INCHIKEY: ALJUYAAJNSNTHU-OBEQGSJMNA-N
SMILES: CCCCCCCCCCCCCCCCCCCC(=O)OC(CO\C=C\CCCCCCCCCCCCCCCC)COP(O)(=O)OCCN
RETENTIONTIME: 
CCS: 366.5125179
IONMODE: Negative
INSTRUMENTTYPE: LC-ESI-ITFT
INSTRUMENT: 
COLLISIONENERGY: 30
Comment: registered in MassBank
Num Peaks: 12
267.20001	7
311.10001	1000
312.17001	153
339.14999	63
340.26999	28
403.14001	13
436.17999	9
446.28	39
464.14001	227
465.14001	26
701.17999	5
739.94	7

NAME: Phosphatidylethanolamine alkenyl 18
PRECURSORMZ: 754.575614
PRECURSORTYPE: [M-H]-
FORMULA: C43H82NO7P
Ontology: 1-(1Z-alkenyl),2-acylglycerophosphoethanolamines
INCHIKEY: PWKATOOFMDDUBO-SGMJUNKUNA-N
SMILES: CCCCCCCCCCCCCCCC\C=C\OCC(COP(O)(=O)OCCN)OC(=O)CC\C=C/C\C=C/CCCCCCCCCCCC
RETENTIONTIME: 
CCS: -1
IONMODE: Negative
INSTRUMENTTYPE: LC-ESI-ITFT
INSTRUMENT: 
COLLISIONENERGY: 30
Comment: registered in MassBank
Num Peaks: 9
307.10001	1000
308.13	118
309.16	24
335.23001	7
443.97	5
446.14001	34
464.10001	200
465.20999	29
672.41998	6

NAME: Phosphatidylethanolamine alkenyl 18
PRECURSORMZ: 752.559964
PRECURSORTYPE: [M-H]-
FORMULA: C43H80NO7P
Ontology: 1-(1Z-alkenyl),2-acylglycerophosphoethanolamines
INCHIKEY: IAZMKBZMIIUNID-DXSDZVOINA-N
SMILES: CCCCCCCCCCCCCCCC\C=C\OCC(COP(O)(=O)OCCN)OC(=O)CC\C=C/C\C=C/C\C=C/CCCCCCCCC
RETENTIONTIME: 
CCS: -1
IONMODE: Negative
INSTRUMENTTYPE: LC-ESI-ITFT
INSTRUMENT: 
COLLISIONENERGY: 30
Comment: registered in MassBank
Num Peaks: 8
286.95001	6
303.01001	6
305.12	1000
306.16	90
333.20999	5
446.35001	37
464.13	212
465.22	28

NAME: Phosphatidylethanolamine alkenyl 18
PRECURSORMZ: 750.544314
PRECURSORTYPE: [M-H]-
FORMULA: C43H78NO7P
Ontology: 1-(1Z-alkenyl),2-acylglycerophosphoethanolamines
INCHIKEY: RZZGAMUARHRLJN-ZOWVHDLQNA-N
SMILES: CCCCCCCCCCCCCCCC\C=C\OCC(COP(O)(=O)OCCN)OC(=O)CC\C=C/C\C=C/C\C=C/C\C=C/CCCCCC
RETENTIONTIME: 
CCS: -1
IONMODE: Negative
INSTRUMENTTYPE: LC-ESI-ITFT
INSTRUMENT: 
COLLISIONENERGY: 30
Comment: registered in MassBank
Num Peaks: 7
259.16	86
303.01001	1000
304.09	43
446.25	61
447.20999	7
464.17001	425
465.22	27

NAME: Phosphatidylethanolamine alkenyl 18
PRECURSORMZ: 748.528664
PRECURSORTYPE: [M-H]-
FORMULA: C43H76NO7P
Ontology: 1-(1Z-alkenyl),2-acylglycerophosphoethanolamines
INCHIKEY: UZKXXUJVNWVEAA-GWWWPDGYNA-N
SMILES: CCCCCCCCCCCCCCCC\C=C\OCC(COP(O)(=O)OCCN)OC(=O)CC\C=C/C\C=C/C\C=C/C\C=C/C\C=C/CCC
RETENTIONTIME: 
CCS: -1
IONMODE: Negative
INSTRUMENTTYPE: LC-ESI-ITFT
INSTRUMENT: 
COLLISIONENERGY: 30
Comment: registered in MassBank
Num Peaks: 15
256.98999	355
258.14001	49
285.39001	22
301.09	1000
302.13	156
302.82999	119
304.25	24
329.23999	122
419.92001	19
438	22
446.07001	44
462.38	15
464.22	917
465.25	144
727.27002	39

NAME: Phosphatidylethanolamine alkenyl 18
PRECURSORMZ: 784.622564
PRECURSORTYPE: [M-H]-
FORMULA: C45H88NO7P
Ontology: 1-(1Z-alkenyl),2-acylglycerophosphoethanolamines
INCHIKEY: MIKCEBQQTIVKSQ-LITAQCTLNA-N
SMILES: CCCCCCCCCCCCCCCCC\C=C/CCC(=O)OC(CO\C=C\CCCCCCCCCCCCCCCC)COP(O)(=O)OCCN
RETENTIONTIME: 
CCS: -1
IONMODE: Negative
INSTRUMENTTYPE: LC-ESI-ITFT
INSTRUMENT: 
COLLISIONENERGY: 30
Comment: registered in MassBank
Num Peaks: 13
255.07001	5
309.12	27
311.07999	55
312.12	13
337.19	1000
338.16	165
365.25	48
366.14001	7
436.31	6
446.16	26
464.17001	137
465.26001	21
490.20001	11

NAME: Phosphatidylethanolamine alkenyl 18
PRECURSORMZ: 780.591264
PRECURSORTYPE: [M-H]-
FORMULA: C45H84NO7P
Ontology: 1-(1Z-alkenyl),2-acylglycerophosphoethanolamines
INCHIKEY: VBVLUHGCJVMQFI-DTZLILKHNA-N
SMILES: CCCCCCCCCCCCCCCC\C=C\OCC(COP(O)(=O)OCCN)OC(=O)CC\C=C/C\C=C/C\C=C/CCCCCCCCCCC
RETENTIONTIME: 
CCS: -1
IONMODE: Negative
INSTRUMENTTYPE: LC-ESI-ITFT
INSTRUMENT: 
COLLISIONENERGY: 30
Comment: registered in MassBank
Num Peaks: 18
256.14001	10
267.01999	28
297.10001	7
305.10999	8
315.31	10
331.17999	11
333.25	1000
334.26001	134
404.28	10
445.98001	10
464.10999	151
465.19	49
492.5	5
555.33002	13
595.57001	13
615.62	5
720.63	10
754.77002	5

NAME: Phosphatidylethanolamine alkenyl 18
PRECURSORMZ: 778.575614
PRECURSORTYPE: [M-H]-
FORMULA: C45H82NO7P
Ontology: 1-(1Z-alkenyl),2-acylglycerophosphoethanolamines
INCHIKEY: GZMXKUALKXYCMM-XSEHFSNENA-N
SMILES: CCCCCCCCCCCCCCCC\C=C\OCC(COP(O)(=O)OCCN)OC(=O)CC\C=C/C\C=C/C\C=C/C\C=C/CCCCCCCC
RETENTIONTIME: 
CCS: -1
IONMODE: Negative
INSTRUMENTTYPE: LC-ESI-ITFT
INSTRUMENT: 
COLLISIONENERGY: 30
Comment: registered in MassBank
Num Peaks: 8
287.14999	50
331.13	1000
332.16	107
403.20999	6
446.14001	48
447.26001	7
464.14001	333
465.26999	32

NAME: Phosphatidylethanolamine alkenyl 18
PRECURSORMZ: 774.544314
PRECURSORTYPE: [M-H]-
FORMULA: C45H78NO7P
Ontology: 1-(1Z-alkenyl),2-acylglycerophosphoethanolamines
INCHIKEY: FIJFPUAJUDAZEY-NUANVQICNA-N
SMILES: CCCCCCCCCCCCCCCC\C=C\OCC(COP(O)(=O)OCCN)OC(=O)CC\C=C/C\C=C/C\C=C/C\C=C/C\C=C/C\C=C/CC
RETENTIONTIME: 
CCS: 346.2524854
IONMODE: Negative
INSTRUMENTTYPE: LC-ESI-ITFT
INSTRUMENT: 
COLLISIONENERGY: 30
Comment: registered in MassBank
Num Peaks: 13
229.2	24
249.10001	9
268.01999	5
283.12	471
284.14001	38
308.95001	20
327.04001	1000
328.09	87
403.16	13
446.17001	115
447.17999	15
464.14999	924
465.17001	113

NAME: Phosphatidylethanolamine alkenyl 18
PRECURSORMZ: 806.606914
PRECURSORTYPE: [M-H]-
FORMULA: C47H86NO7P
Ontology: 1-(1Z-alkenyl),2-acylglycerophosphoethanolamines
INCHIKEY: LAUMCRQBKCWQHU-NKPKNEKKNA-N
SMILES: CCCCCCCCCCCCCCCC\C=C\OCC(COP(O)(=O)OCCN)OC(=O)CC\C=C/C\C=C/C\C=C/C\C=C/CCCCCCCCCC
RETENTIONTIME: 
CCS: -1
IONMODE: Negative
INSTRUMENTTYPE: LC-ESI-ITFT
INSTRUMENT: 
COLLISIONENERGY: 30
Comment: registered in MassBank
Num Peaks: 10
287.26001	6
315.53	5
359.14001	1000
360.19	162
446.25	52
447.22	6
464.17001	179
465.26001	33
500.85999	5
732.28003	785

NAME: Phosphatidylethanolamine alkenyl 18
PRECURSORMZ: 804.591264
PRECURSORTYPE: [M-H]-
FORMULA: C47H84NO7P
Ontology: 1-(1Z-alkenyl),2-acylglycerophosphoethanolamines
INCHIKEY: OXSYLAKUJGJRGC-PBMCJBRHNA-N
SMILES: CCCCCCCCCCCCCCCC\C=C\OCC(COP(O)(=O)OCCN)OC(=O)CC\C=C/C\C=C/C\C=C/C\C=C/C\C=C/CCCCCCC
RETENTIONTIME: 
CCS: -1
IONMODE: Negative
INSTRUMENTTYPE: LC-ESI-ITFT
INSTRUMENT: 
COLLISIONENERGY: 30
Comment: registered in MassBank
Num Peaks: 26
267	8
283.17999	41
284.19	16
309.37	8
313.06	101
321.35999	10
327.09	54
328.23999	19
328.91	8
357.12	1000
358.17001	92
375.07001	12
403.26999	28
419.16	6
446.10999	28
447.12	6
464.19	322
465.20001	35
474.35999	15
476.20999	12
492.64999	34
493.45999	37
677.96002	14
723.01001	6
728.96997	6
744.59003	6

NAME: Phosphatidylethanolamine alkenyl 18
PRECURSORMZ: 802.575614
PRECURSORTYPE: [M-H]-
FORMULA: C47H82NO7P
Ontology: 1-(1Z-alkenyl),2-acylglycerophosphoethanolamines
INCHIKEY: JKMKRFYKYHILMM-ZUVFDMEGNA-N
SMILES: CCCCCCCCCCCCCCCC\C=C\OCC(COP(O)(=O)OCCN)OC(=O)CC\C=C/C\C=C/C\C=C/C\C=C/C\C=C/C\C=C/CCCC
RETENTIONTIME: 
CCS: -1
IONMODE: Negative
INSTRUMENTTYPE: LC-ESI-ITFT
INSTRUMENT: 
COLLISIONENERGY: 30
Comment: registered in MassBank
Num Peaks: 19
231.09	9
256.98999	26
277.19	10
308.81	9
311.17001	168
312.23001	47
355.10999	1000
356.14999	157
403.32001	20
446.23001	88
464.17001	522
465.12	106
525.70001	8
700.75	5
702.34998	7
714.25	7
726.26001	18
741.96002	68
784.21002	8

NAME: Phosphatidylethanolamine alkenyl 18
PRECURSORMZ: 726.544314
PRECURSORTYPE: [M-H]-
FORMULA: C41H78NO7P
Ontology: 1-(1Z-alkenyl),2-acylglycerophosphoethanolamines
INCHIKEY: IEKMVBFEEDNXGT-WECHNZQXNA-N
SMILES: CCCCCCCCCCCCC\C=C/CCC(=O)OC(CO\C=C\C\C=C/CCCCCCCCCCCCC)COP(O)(=O)OCCN
RETENTIONTIME: 
CCS: -1
IONMODE: Negative
INSTRUMENTTYPE: LC-ESI-ITFT
INSTRUMENT: 
COLLISIONENERGY: 30
Comment: registered in MassBank
Num Peaks: 6
281.10999	1000
282.06	37
401.26999	6
444.10001	39
462.14001	208
463.16	7

NAME: Phosphatidylethanolamine alkenyl 18
PRECURSORMZ: 754.575614
PRECURSORTYPE: [M-H]-
FORMULA: C43H82NO7P
Ontology: 1-(1Z-alkenyl),2-acylglycerophosphoethanolamines
INCHIKEY: REJQSLUNBGQJLW-KHJLVCBXNA-N
SMILES: CCCCCCCCCCCCCCC\C=C/CCC(=O)OC(CO\C=C\C\C=C/CCCCCCCCCCCCC)COP(O)(=O)OCCN
RETENTIONTIME: 
CCS: -1
IONMODE: Negative
INSTRUMENTTYPE: LC-ESI-ITFT
INSTRUMENT: 
COLLISIONENERGY: 30
Comment: registered in MassBank
Num Peaks: 7
281.14001	15
309.14001	1000
310.23999	64
401.14001	5
444.23999	41
462.10999	168
463.01999	14

NAME: Phosphatidylethanolamine alkenyl 18
PRECURSORMZ: 748.528664
PRECURSORTYPE: [M-H]-
FORMULA: C43H76NO7P
Ontology: 1-(1Z-alkenyl),2-acylglycerophosphoethanolamines
INCHIKEY: YJPYELPDWSEQHM-KTUZNUCGNA-N
SMILES: CCCCCCCCCCCCC\C=C/C\C=C\OCC(COP(O)(=O)OCCN)OC(=O)CC\C=C/C\C=C/C\C=C/C\C=C/CCCCCC
RETENTIONTIME: 
CCS: -1
IONMODE: Negative
INSTRUMENTTYPE: LC-ESI-ITFT
INSTRUMENT: 
COLLISIONENERGY: 30
Comment: registered in MassBank
Num Peaks: 9
259.07001	88
285.07999	7
300.92999	5
303.04001	1000
304.06	28
401.09	7
444.17001	62
462.07999	422
463.04001	14

NAME: Phosphatidylethanolamine alkenyl 18
PRECURSORMZ: 780.591264
PRECURSORTYPE: [M-H]-
FORMULA: C45H84NO7P
Ontology: 1-(1Z-alkenyl),2-acylglycerophosphoethanolamines
INCHIKEY: AINWEGSZBADWKE-CFOOOPRVNA-N
SMILES: CCCCCCCCCCCCCC\C=C/C\C=C/CCC(=O)OC(CO\C=C\C\C=C/CCCCCCCCCCCCC)COP(O)(=O)OCCN
RETENTIONTIME: 
CCS: -1
IONMODE: Negative
INSTRUMENTTYPE: LC-ESI-ITFT
INSTRUMENT: 
COLLISIONENERGY: 30
Comment: registered in MassBank
Num Peaks: 17
264.97	7
307.06	18
309.14999	47
310.17001	13
331.10001	23
332.14999	30
333.32001	19
335.10999	1000
336.17999	148
444.32999	25
445.51001	5
462.01999	113
463.14999	44
465.35001	11
466.20001	6
490.23001	6
618.17999	6

NAME: Phosphatidylethanolamine alkenyl 18
PRECURSORMZ: 776.559964
PRECURSORTYPE: [M-H]-
FORMULA: C45H80NO7P
Ontology: 1-(1Z-alkenyl),2-acylglycerophosphoethanolamines
INCHIKEY: LLGDMLIODPBDGJ-IVEVXDSTNA-N
SMILES: CCCCCCCCCCCCC\C=C/C\C=C\OCC(COP(O)(=O)OCCN)OC(=O)CC\C=C/C\C=C/C\C=C/C\C=C/CCCCCCCC
RETENTIONTIME: 
CCS: -1
IONMODE: Negative
INSTRUMENTTYPE: LC-ESI-ITFT
INSTRUMENT: 
COLLISIONENERGY: 30
Comment: registered in MassBank
Num Peaks: 9
233.14999	6
287.14999	44
288.31	5
331.17001	1000
332.17999	93
444.14001	42
445.23999	6
462.17001	271
463.25	27

NAME: Phosphatidylethanolamine alkenyl 18
PRECURSORMZ: 772.528664
PRECURSORTYPE: [M-H]-
FORMULA: C45H76NO7P
Ontology: 1-(1Z-alkenyl),2-acylglycerophosphoethanolamines
INCHIKEY: MEWSEYMCACAAEE-YLACOYRINA-N
SMILES: CCCCCCCCCCCCC\C=C/C\C=C\OCC(COP(O)(=O)OCCN)OC(=O)CC\C=C/C\C=C/C\C=C/C\C=C/C\C=C/C\C=C/CC
RETENTIONTIME: 
CCS: -1
IONMODE: Negative
INSTRUMENTTYPE: LC-ESI-ITFT
INSTRUMENT: 
COLLISIONENERGY: 30
Comment: registered in MassBank
Num Peaks: 16
228.98	18
249.22	6
265.39001	6
281.17999	38
283.04999	441
284.01999	34
327.07999	1000
328.07001	67
401.12	10
402.04001	8
444.22	140
445.41	6
462.12	875
463.16	114
491.04999	8
509.12	11

NAME: Phosphatidylethanolamine alkenyl 18
PRECURSORMZ: 804.591264
PRECURSORTYPE: [M-H]-
FORMULA: C47H84NO7P
Ontology: 1-(1Z-alkenyl),2-acylglycerophosphoethanolamines
INCHIKEY: CGXFPCHJSFOKMF-ITNHFFAINA-N
SMILES: CCCCCCCCCCCCC\C=C/C\C=C\OCC(COP(O)(=O)OCCN)OC(=O)CC\C=C/C\C=C/C\C=C/C\C=C/CCCCCCCCCC
RETENTIONTIME: 
CCS: -1
IONMODE: Negative
INSTRUMENTTYPE: LC-ESI-ITFT
INSTRUMENT: 
COLLISIONENERGY: 30
Comment: registered in MassBank
Num Peaks: 17
314.95999	11
341.17001	5
357.06	11
359.17001	1000
360.07999	158
361.06	5
401.28	11
407.76001	9
444.23001	20
445.20999	11
462.16	164
463.23999	11
680.75	10
729.76001	12
730.38	104
741.97998	8
805.10999	7

NAME: Phosphatidylethanolamine alkenyl 19
PRECURSORMZ: 764.559964
PRECURSORTYPE: [M-H]-
FORMULA: C44H80NO7P
Ontology: 1-(1Z-alkenyl),2-acylglycerophosphoethanolamines
INCHIKEY: OVZSKAHQJGVGGL-JYQPGMKLNA-N
SMILES: CCCCCCCCCCCCCCCCC\C=C\OCC(COP(O)(=O)OCCN)OC(=O)CC\C=C/C\C=C/C\C=C/C\C=C/CCCCCC
RETENTIONTIME: 
CCS: -1
IONMODE: Negative
INSTRUMENTTYPE: LC-ESI-ITFT
INSTRUMENT: 
COLLISIONENERGY: 30
Comment: registered in MassBank
Num Peaks: 9
259.04999	78
303.12	1000
304.14999	160
460.17999	52
478.31	433
479.26999	119
538.07001	34
577.25	34
680.32001	34

NAME: Phosphatidylethanolamine alkenyl 20
PRECURSORMZ: 802.575614
PRECURSORTYPE: [M-H]-
FORMULA: C47H82NO7P
Ontology: 1-(1Z-alkenyl),2-acylglycerophosphoethanolamines
INCHIKEY: GWWKPJFGKBNJDJ-DYEXTAMENA-N
SMILES: CCCCCCCCCCCCCCCCCC\C=C\OCC(COP(O)(=O)OCCN)OC(=O)CC\C=C/C\C=C/C\C=C/C\C=C/C\C=C/C\C=C/CC
RETENTIONTIME: 
CCS: -1
IONMODE: Negative
INSTRUMENTTYPE: LC-ESI-ITFT
INSTRUMENT: 
COLLISIONENERGY: 30
Comment: registered in MassBank
Num Peaks: 27
227.25999	43
230.11	10
231.2	8
281.64999	11
283.25	484
284.25	140
309.23999	29
327.01999	903
328.10999	79
474.32999	105
475.29001	27
492.13	1000
493.20001	290
517.21997	25
624.46002	13
702.14001	13
715.45001	21
718.35999	18
719.40997	15
720.51001	20
728	49
728.71002	32
729.54999	15
741.22998	31
763.65997	22
765.90002	18
783.54999	8

NAME: Phosphatidylethanolamine alkenyl 20
PRECURSORMZ: 800.559964
PRECURSORTYPE: [M-H]-
FORMULA: C47H80NO7P
Ontology: 1-(1Z-alkenyl),2-acylglycerophosphoethanolamines
INCHIKEY: GKRHXMAWUOFXDX-NRAOZCPZNA-N
SMILES: CCCCCCCCCCCCCCC\C=C/C\C=C\OCC(COP(O)(=O)OCCN)OC(=O)CC\C=C/C\C=C/C\C=C/C\C=C/C\C=C/C\C=C/CC
RETENTIONTIME: 
CCS: -1
IONMODE: Negative
INSTRUMENTTYPE: LC-ESI-ITFT
INSTRUMENT: 
COLLISIONENERGY: 30
Comment: registered in MassBank
Num Peaks: 27
255.03	23
256.19	38
281.07001	16
282.60999	111
283.23999	394
284.19	82
309.09	63
327.07999	1000
328.19	159
428.98999	14
430.78	18
472.16	39
490.17999	806
491.23999	122
509.39999	18
699.07001	47
712.95001	70
714.28003	45
716.14001	39
717.5	129
718.28003	143
736.66998	9
738.98999	9
742.15997	102
743.26001	32
784.21997	20
785.37	9

NAME: Phosphatidylethanolamine alkyl 16
PRECURSORMZ: 702.544314
PRECURSORTYPE: [M-H]-
FORMULA: C39H78NO7P
Ontology: 1-alkyl,2-acylglycerophosphoethanolamines
INCHIKEY: XDIGIEOFWXOONN-SGEDCAFJNA-N
SMILES: CCCCCCCCCCCCCCCCOCC(COP(O)(=O)OCCN)OC(=O)CC\C=C/CCCCCCCCCCCCC
RETENTIONTIME: 
CCS: -1
IONMODE: Negative
INSTRUMENTTYPE: LC-ESI-ITFT
INSTRUMENT: 
COLLISIONENERGY: 30
Comment: registered in MassBank
Num Peaks: 10
253.16	6
255.17999	16
281.07001	1000
282.09	149
283	7
284.37	8
419.25	6
420.28	32
438.16	230
439.20001	43

NAME: Phosphatidylethanolamine alkyl 16
PRECURSORMZ: 732.591264
PRECURSORTYPE: [M-H]-
FORMULA: C41H84NO7P
Ontology: 1-alkyl,2-acylglycerophosphoethanolamines
INCHIKEY: HPGJUDXZGAWGNA-UHFFFAOYNA-N
SMILES: CCCCCCCCCCCCCCCCCCCC(=O)OC(COCCCCCCCCCCCCCCCC)COP(O)(=O)OCCN
RETENTIONTIME: 
CCS: -1
IONMODE: Negative
INSTRUMENTTYPE: LC-ESI-ITFT
INSTRUMENT: 
COLLISIONENERGY: 30
Comment: registered in MassBank
Num Peaks: 19
255.16	133
256.32001	58
283.28	75
284.23999	42
311.16	1000
312.26001	137
366.72	15
420.12	44
421.12	29
438.23999	135
439.22	49
467.10001	51
494.16	122
495.23001	20
604.90997	20
650.38	71
672.66998	111
696.73999	33
731.48999	15

NAME: Phosphatidylethanolamine alkyl 16
PRECURSORMZ: 724.528664
PRECURSORTYPE: [M-H]-
FORMULA: C41H76NO7P
Ontology: 1-alkyl,2-acylglycerophosphoethanolamines
INCHIKEY: MAYZJBKZHVGHAB-HNBVIXCXNA-N
SMILES: CCCCCCCCCCCCCCCCOCC(COP(O)(=O)OCCN)OC(=O)CC\C=C/C\C=C/C\C=C/C\C=C/CCCCCC
RETENTIONTIME: 
CCS: -1
IONMODE: Negative
INSTRUMENTTYPE: LC-ESI-ITFT
INSTRUMENT: 
COLLISIONENERGY: 30
Comment: registered in MassBank
Num Peaks: 14
258.98999	43
260.23001	5
279.07999	65
279.84	16
281.34	28
303.03	1000
304.04999	120
377.20999	12
420.31	48
421.23001	12
438.16	504
439.22	19
462.12	31
723.92999	20

NAME: Phosphatidylethanolamine alkyl 16
PRECURSORMZ: 752.559964
PRECURSORTYPE: [M-H]-
FORMULA: C43H80NO7P
Ontology: 1-alkyl,2-acylglycerophosphoethanolamines
INCHIKEY: LGZPAQOAFXJDTR-CBQGOMEFNA-N
SMILES: CCCCCCCCCCCCCCCCOCC(COP(O)(=O)OCCN)OC(=O)CC\C=C/C\C=C/C\C=C/C\C=C/CCCCCCCC
RETENTIONTIME: 
CCS: -1
IONMODE: Negative
INSTRUMENTTYPE: LC-ESI-ITFT
INSTRUMENT: 
COLLISIONENERGY: 30
Comment: registered in MassBank
Num Peaks: 21
233.03	10
281.14999	64
281.94	8
287.23001	20
307.12	1000
308.14999	172
309.23999	66
331.07001	847
332.16	101
377.17999	9
420.20001	50
421.28	10
438.04001	251
439.01001	37
442.04999	5
444.17001	34
460.10999	10
462.14001	215
463.17001	25
488.17001	14
489.16	7

NAME: Phosphatidylethanolamine alkyl 16
PRECURSORMZ: 748.528664
PRECURSORTYPE: [M-H]-
FORMULA: C43H76NO7P
Ontology: 1-alkyl,2-acylglycerophosphoethanolamines
INCHIKEY: JJMPYAHUHHQAJB-YKPVOZFUNA-N
SMILES: CCCCCCCCCCCCCCCCOCC(COP(O)(=O)OCCN)OC(=O)CC\C=C/C\C=C/C\C=C/C\C=C/C\C=C/C\C=C/CC
RETENTIONTIME: 
CCS: -1
IONMODE: Negative
INSTRUMENTTYPE: LC-ESI-ITFT
INSTRUMENT: 
COLLISIONENERGY: 30
Comment: registered in MassBank
Num Peaks: 25
229.13	35
249.22	5
259.14001	84
283.10999	571
284.07999	86
285.72	6
301.20001	12
303.07999	529
304.04999	68
327.09	967
328.19	98
329.16	8
331.17001	8
377.04999	22
378.22	6
420.26999	116
421.37	8
436.20001	5
438.12	1000
439.20999	132
444.14999	18
444.88	5
462.19	265
463.38	47
688.66998	9

NAME: Phosphatidylethanolamine alkyl 18
PRECURSORMZ: 704.559964
PRECURSORTYPE: [M-H]-
FORMULA: C39H80NO7P
Ontology: 1-alkyl,2-acylglycerophosphoethanolamines
INCHIKEY: FENSRZKRANTRCP-UHFFFAOYNA-N
SMILES: CCCCCCCCCCCCCCCCCCOCC(COP(O)(=O)OCCN)OC(=O)CCCCCCCCCCCCCCC
RETENTIONTIME: 
CCS: -1
IONMODE: Negative
INSTRUMENTTYPE: LC-ESI-ITFT
INSTRUMENT: 
COLLISIONENERGY: 30
Comment: registered in MassBank
Num Peaks: 12
255.08	1000
256.01999	94
283.14999	58
311.19	8
417.26001	8
436.31	20
438.04999	8
448.19	52
466.20999	222
467.20001	59
644.07001	11
668.40997	13

NAME: Phosphatidylethanolamine alkyl 18
PRECURSORMZ: 730.575614
PRECURSORTYPE: [M-H]-
FORMULA: C41H82NO7P
Ontology: 1-alkyl,2-acylglycerophosphoethanolamines
INCHIKEY: LULOMARGYGRZLR-HYOGKJQXNA-N
SMILES: CCCCCCCCCCCCCCCCCCOCC(COP(O)(=O)OCCN)OC(=O)CC\C=C/CCCCCCCCCCCCC
RETENTIONTIME: 
CCS: -1
IONMODE: Negative
INSTRUMENTTYPE: LC-ESI-ITFT
INSTRUMENT: 
COLLISIONENERGY: 30
Comment: registered in MassBank
Num Peaks: 7
281.10001	1000
282.14001	136
309.04001	7
405.13	11
448.14999	51
466.17999	284
467.17001	51

NAME: Phosphatidylethanolamine alkyl 18
PRECURSORMZ: 760.622564
PRECURSORTYPE: [M-H]-
FORMULA: C43H88NO7P
Ontology: 1-alkyl,2-acylglycerophosphoethanolamines
INCHIKEY: CBAHOKDELPGZAO-UHFFFAOYNA-N
SMILES: CCCCCCCCCCCCCCCCCCCC(=O)OC(COCCCCCCCCCCCCCCCCCC)COP(O)(=O)OCCN
RETENTIONTIME: 
CCS: -1
IONMODE: Negative
INSTRUMENTTYPE: LC-ESI-ITFT
INSTRUMENT: 
COLLISIONENERGY: 30
Comment: registered in MassBank
Num Peaks: 12
311.20999	1000
312.28	221
339.14999	441
372.56	11
438.51999	51
448.13	26
466.23999	268
467.35001	22
673.78998	18
700.46997	132
724.41998	33
740.34003	11

NAME: Phosphatidylethanolamine alkyl 18
PRECURSORMZ: 758.606914
PRECURSORTYPE: [M-H]-
FORMULA: C43H86NO7P
Ontology: 1-alkyl,2-acylglycerophosphoethanolamines
INCHIKEY: WLQZPEPFGFEUCQ-GCUVURNUNA-N
SMILES: CCCCCCCCCCCCCCCCCCOCC(COP(O)(=O)OCCN)OC(=O)CC\C=C/CCCCCCCCCCCCCCC
RETENTIONTIME: 
CCS: -1
IONMODE: Negative
INSTRUMENTTYPE: LC-ESI-ITFT
INSTRUMENT: 
COLLISIONENERGY: 30
Comment: registered in MassBank
Num Peaks: 17
281.16	64
282.07999	51
283.03	9
309.16	1000
310.10001	152
311.17001	136
312.13	17
337.07999	43
338.14001	14
446.37	8
447.35999	8
448.20999	21
449.09	9
464.10999	26
466.09	194
467.23999	24
493.10001	15

NAME: Phosphatidylethanolamine alkyl 18
PRECURSORMZ: 752.559964
PRECURSORTYPE: [M-H]-
FORMULA: C43H80NO7P
Ontology: 1-alkyl,2-acylglycerophosphoethanolamines
INCHIKEY: DTYWTGFWGGLGBS-NZPWPDRSNA-N
SMILES: CCCCCCCCCCCCCCCCCCOCC(COP(O)(=O)OCCN)OC(=O)CC\C=C/C\C=C/C\C=C/C\C=C/CCCCCC
RETENTIONTIME: 
CCS: -1
IONMODE: Negative
INSTRUMENTTYPE: LC-ESI-ITFT
INSTRUMENT: 
COLLISIONENERGY: 30
Comment: registered in MassBank
Num Peaks: 21
259.19	93
260.35999	10
285.14999	6
289.64999	10
303.06	1000
304.14001	176
304.87	12
307.09	31
333.17001	522
334.25	100
418.44	14
419.35001	5
421.29001	5
436.14999	169
437.23999	32
448.25	60
464.41	10
465.10001	5
466.17999	592
467.13	93
692.04999	8

NAME: Phosphatidylethanolamine alkyl 18
PRECURSORMZ: 780.591264
PRECURSORTYPE: [M-H]-
FORMULA: C45H84NO7P
Ontology: 1-alkyl,2-acylglycerophosphoethanolamines
INCHIKEY: ZGPUIIVBMRUOLZ-CXMGKGRNNA-N
SMILES: CCCCCCCCCCCCCCCCCCOCC(COP(O)(=O)OCCN)OC(=O)CC\C=C/C\C=C/C\C=C/C\C=C/CCCCCCCC
RETENTIONTIME: 
CCS: -1
IONMODE: Negative
INSTRUMENTTYPE: LC-ESI-ITFT
INSTRUMENT: 
COLLISIONENERGY: 30
Comment: registered in MassBank
Num Peaks: 14
233.14	11
287.13	64
331.09	1000
332.16	160
335.06	7
336.19	7
361.26999	7
405.17001	6
448.10999	52
449.38	12
466.13	397
467.16	52
718.92999	10
780.69	6

NAME: Phosphatidylethanolamine alkyl 18
PRECURSORMZ: 776.559964
PRECURSORTYPE: [M-H]-
FORMULA: C45H80NO7P
Ontology: 1-alkyl,2-acylglycerophosphoethanolamines
INCHIKEY: CFLIAMAPAOTPGM-NPBPTTFKNA-N
SMILES: CCCCCCCCCCCCCCCCCCOCC(COP(O)(=O)OCCN)OC(=O)CC\C=C/C\C=C/C\C=C/C\C=C/C\C=C/C\C=C/CC
RETENTIONTIME: 
CCS: -1
IONMODE: Negative
INSTRUMENTTYPE: LC-ESI-ITFT
INSTRUMENT: 
COLLISIONENERGY: 30
Comment: registered in MassBank
Num Peaks: 25
228.96001	22
249.13	10
251.14	7
281.35999	17
283.12	522
284.17999	25
285	87
309.35001	8
327.04001	818
328.14001	144
329.07999	654
329.95001	62
330.67001	6
357.01001	6
403.12	9
405.07001	12
446.34	46
447.19	9
448.23001	146
464.20001	316
465.26999	51
466.17001	1000
467.25	142
513.38	6
702.25	877

NAME: Phosphatidylethanolamine alkyl 18
PRECURSORMZ: 756.591264
PRECURSORTYPE: [M-H]-
FORMULA: C43H84NO7P
Ontology: 1-alkyl,2-acylglycerophosphoethanolamines
INCHIKEY: MECYDABSYWGKLH-SZDCHMHBNA-N
SMILES: CCCCCCCCCCCCCCC\C=C/CCC(=O)OC(COCCC\C=C/CCCCCCCCCCCCC)COP(O)(=O)OCCN
RETENTIONTIME: 
CCS: -1
IONMODE: Negative
INSTRUMENTTYPE: LC-ESI-ITFT
INSTRUMENT: 
COLLISIONENERGY: 30
Comment: registered in MassBank
Num Peaks: 8
309.07999	1000
310.22	172
311.13	19
446.28	28
447.26001	13
464.09	258
465.09	40
674.13	5

NAME: Phosphatidylethanolamine alkyl 18
PRECURSORMZ: 784.622564
PRECURSORTYPE: [M-H]-
FORMULA: C45H88NO7P
Ontology: 1-alkyl,2-acylglycerophosphoethanolamines
INCHIKEY: QJORDLMKMATKBL-WANSBIPINA-N
SMILES: CCCCCCCCCCCCCCCCC\C=C/CCC(=O)OC(COCCC\C=C/CCCCCCCCCCCCC)COP(O)(=O)OCCN
RETENTIONTIME: 
CCS: -1
IONMODE: Negative
INSTRUMENTTYPE: LC-ESI-ITFT
INSTRUMENT: 
COLLISIONENERGY: 30
Comment: registered in MassBank
Num Peaks: 24
280.95999	9
309.12	83
310.14001	32
335.29001	33
337.10999	1000
338.12	181
339.23999	51
340.13	49
363.29999	24
397.45001	6
445.88	13
461.60001	6
462.47	11
463.12	14
464.17001	145
464.94	28
465.57999	10
492.17999	18
620.28998	59
621.21997	241
622.37	22
702.12	6
726.5	6
764.81	6

NAME: Phosphatidylethanolamine lyso 16
PRECURSORMZ: 452.278263
PRECURSORTYPE: [M-H]-
FORMULA: C21H44NO7P
Ontology: 2-acyl-sn-glycero-3-phosphoethanolamines
INCHIKEY: CKPBBEOJHAPPBT-UHFFFAOYNA-N
SMILES: CCCCCCCCCCCCCCCC(=O)OC(CO)COP(O)(=O)OCCN
RETENTIONTIME: 
CCS: 251.8398466
IONMODE: Negative
INSTRUMENTTYPE: LC-ESI-ITFT
INSTRUMENT: 
COLLISIONENERGY: 30
Comment: registered in MassBank
Num Peaks: 3
195.92	23
213.92	17
255.08	1000

NAME: Phosphatidylethanolamine lyso 18
PRECURSORMZ: 480.309563
PRECURSORTYPE: [M-H]-
FORMULA: C23H48NO7P
Ontology: 2-acyl-sn-glycero-3-phosphoethanolamines
INCHIKEY: KIHAGWUUUHJRMS-UHFFFAOYNA-N
SMILES: CCCCCCCCCCCCCCCCCC(=O)OC(CO)COP(O)(=O)OCCN
RETENTIONTIME: 
CCS: 264.1964953
IONMODE: Negative
INSTRUMENTTYPE: LC-ESI-ITFT
INSTRUMENT: 
COLLISIONENERGY: 30
Comment: registered in MassBank
Num Peaks: 4
195.89	11
213.82001	11
283.13	1000
284.19	27

NAME: Phosphatidylethanolamine lyso 18
PRECURSORMZ: 478.293913
PRECURSORTYPE: [M-H]-
FORMULA: C23H46NO7P
Ontology: 2-acyl-sn-glycero-3-phosphoethanolamines
INCHIKEY: FEVAUEZKXSRQPS-PFONDFGANA-N
SMILES: CCCCCCCCCCCCC\C=C/CCC(=O)OC(CO)COP(O)(=O)OCCN
RETENTIONTIME: 
CCS: -1
IONMODE: Negative
INSTRUMENTTYPE: LC-ESI-ITFT
INSTRUMENT: 
COLLISIONENERGY: 30
Comment: registered in MassBank
Num Peaks: 3
213.99001	14
281.01999	1000
302.98999	27

NAME: Phosphatidylethanolamine lyso 20
PRECURSORMZ: 506.325213
PRECURSORTYPE: [M-H]-
FORMULA: C25H50NO7P
Ontology: 2-acyl-sn-glycero-3-phosphoethanolamines
INCHIKEY: URXPORXPKXWHEF-MSUUIHNZNA-N
SMILES: CCCCCCCCCCCCCCC\C=C/CCC(=O)OC(CO)COP(O)(=O)OCCN
RETENTIONTIME: 
CCS: -1
IONMODE: Negative
INSTRUMENTTYPE: LC-ESI-ITFT
INSTRUMENT: 
COLLISIONENERGY: 30
Comment: registered in MassBank
Num Peaks: 6
214.13	10
309.12	1000
310.28	46
337.85999	17
371	14
391.89999	10

NAME: Phosphatidylethanolamine lyso 20
PRECURSORMZ: 500.278263
PRECURSORTYPE: [M-H]-
FORMULA: C25H44NO7P
Ontology: 2-acyl-sn-glycero-3-phosphoethanolamines
INCHIKEY: SOFGMCJQWLTKCE-ZKWNWVNENA-N
SMILES: CCCCCC\C=C/C\C=C/C\C=C/C\C=C/CCC(=O)OC(CO)COP(O)(=O)OCCN
RETENTIONTIME: 
CCS: -1
IONMODE: Negative
INSTRUMENTTYPE: LC-ESI-ITFT
INSTRUMENT: 
COLLISIONENERGY: 30
Comment: registered in MassBank
Num Peaks: 7
195.92	5
205.13	10
213.85001	23
259.17999	57
303.03	1000
304.17999	16
359	6

NAME: Phosphatidylethanolamine lyso 22
PRECURSORMZ: 528.309563
PRECURSORTYPE: [M-H]-
FORMULA: C27H48NO7P
Ontology: 2-acyl-sn-glycero-3-phosphoethanolamines
INCHIKEY: FGMFOVUNMMIBGB-SNPVRQPZNA-N
SMILES: CCCCCCCC\C=C/C\C=C/C\C=C/C\C=C/CCC(=O)OC(CO)COP(O)(=O)OCCN
RETENTIONTIME: 
CCS: -1
IONMODE: Negative
INSTRUMENTTYPE: LC-ESI-ITFT
INSTRUMENT: 
COLLISIONENERGY: 30
Comment: registered in MassBank
Num Peaks: 10
213.91	33
287.04999	17
303.42001	6
305.01999	16
331.09	1000
332.26001	152
332.95999	8
347.17001	7
387.20999	13
446.95999	8

NAME: Phosphatidylethanolamine lyso 22
PRECURSORMZ: 524.278263
PRECURSORTYPE: [M-H]-
FORMULA: C27H44NO7P
Ontology: 2-acyl-sn-glycero-3-phosphoethanolamines
INCHIKEY: TWBVHOYVCUOMJY-KUBAVDMBNA-N
SMILES: CC\C=C/C\C=C/C\C=C/C\C=C/C\C=C/C\C=C/CCC(=O)OC(CO)COP(O)(=O)OCCN
RETENTIONTIME: 
CCS: 293.7164849
IONMODE: Negative
INSTRUMENTTYPE: LC-ESI-ITFT
INSTRUMENT: 
COLLISIONENERGY: 30
Comment: registered in MassBank
Num Peaks: 9
190.97	26
195.99001	6
213.92999	44
229.09	41
248.92999	10
283.09	537
284.26001	7
327.04001	1000
328.10999	14

NAME: Phosphatidylethanolamine lyso alkenyl 16
PRECURSORMZ: 436.283348
PRECURSORTYPE: [M-H]-
FORMULA: C21H44NO6P
Ontology: Glycerophosphoethanolamines
INCHIKEY: LULXDGNUFGVYDS-BMRADRMJNA-N
SMILES: CCCCCCCCCCCCCC\C=C\OC(CO)COP(O)(=O)OCCN
RETENTIONTIME: 
CCS: -1
IONMODE: Negative
INSTRUMENTTYPE: LC-ESI-ITFT
INSTRUMENT: 
COLLISIONENERGY: 30
Comment: registered in MassBank
Num Peaks: 13
139.87	59
152.69	9
166.10001	5
195.92999	1000
206.89999	22
236.99001	14
239.12	175
372.57999	6
375.07001	573
376.16	60
392.97	28
393.94	11
421.25	10

NAME: Phosphatidylethanolamine lyso alkenyl 18
PRECURSORMZ: 464.314648
PRECURSORTYPE: [M-H]-
FORMULA: C23H48NO6P
Ontology: Glycerophosphoethanolamines
INCHIKEY: RGAPGIRIYHJSJY-HTXNQAPBNA-N
SMILES: CCCCCCCCCCCCCCCC\C=C\OC(CO)COP(O)(=O)OCCN
RETENTIONTIME: 
CCS: -1
IONMODE: Negative
INSTRUMENTTYPE: LC-ESI-ITFT
INSTRUMENT: 
COLLISIONENERGY: 30
Comment: registered in MassBank
Num Peaks: 16
139.87	64
152.92	28
195.96001	1000
196.96001	67
206.89999	6
267.20999	342
268.26999	15
346.22	6
377.12	11
381.73001	8
390.39999	15
403.04999	657
404.17001	130
420.98999	5
422.34	16
444.48001	17

NAME: Phosphatidylethanolamine lyso alkenyl 18
PRECURSORMZ: 462.298998
PRECURSORTYPE: [M-H]-
FORMULA: C23H46NO6P
Ontology: Glycerophosphoethanolamines
INCHIKEY: KBMHJSYYECHZKI-QOLMDKRLNA-N
SMILES: CCCCCCCCCCCCC\C=C/C\C=C\OC(CO)COP(O)(=O)OCCN
RETENTIONTIME: 
CCS: -1
IONMODE: Negative
INSTRUMENTTYPE: LC-ESI-ITFT
INSTRUMENT: 
COLLISIONENERGY: 30
Comment: registered in MassBank
Num Peaks: 10
139.75	72
152.98	6
195.85001	1000
196.95	24
265.17999	149
266.20999	5
401.12	695
402.19	86
419.04001	21
420.23999	5

NAME: Phosphatidylglyceride 16
PRECURSORMZ: 769.502509
PRECURSORTYPE: [M-H]-
FORMULA: C42H75O10P
Ontology: Phosphatidylglycerols
INCHIKEY: UAEIOGMLUFANFU-WRDNLCFKNA-N
SMILES: CCCCCCCCCCCCCCCC(=O)OCC(COP(O)(=O)OCC(O)CO)OC(=O)CC\C=C/C\C=C/C\C=C/C\C=C/CCCCCC
RETENTIONTIME: 
CCS: -1
IONMODE: Negative
INSTRUMENTTYPE: LC-ESI-ITFT
INSTRUMENT: 
COLLISIONENERGY: 30
Comment: registered in MassBank
Num Peaks: 22
226.78	28
255.14	335
256.16	57
258.95999	24
279.14999	14
283.14999	33
303.09	1000
304.13	238
305.32001	10
308.81	20
327.28	12
391.14999	96
439.17999	30
460.31	53
465.23001	130
465.97	49
483.28	122
484.26999	41
532.02002	18
589.96997	14
630.71997	26
687.65002	57

NAME: Phosphatidylglyceride 18
PRECURSORMZ: 797.533809
PRECURSORTYPE: [M-H]-
FORMULA: C44H79O10P
Ontology: Phosphatidylglycerols
INCHIKEY: ZLCQYNUSDYQZNJ-NQWSYULSNA-N
SMILES: CCCCCCCCCCCCCCCCCC(=O)OCC(COP(O)(=O)OCC(O)CO)OC(=O)CC\C=C/C\C=C/C\C=C/C\C=C/CCCCCC
RETENTIONTIME: 
CCS: -1
IONMODE: Negative
INSTRUMENTTYPE: LC-ESI-ITFT
INSTRUMENT: 
COLLISIONENERGY: 30
Comment: registered in MassBank
Num Peaks: 22
247.10001	15
256.17999	13
259.19	108
283.14999	473
284.17999	134
301.29001	5
303.04999	1000
304.07999	135
389.20999	5
419.09	103
420.01999	20
439.06	19
493.20999	42
494.20999	23
511.12	141
512.17999	52
513.10999	46
514.28998	6
531.10999	9
625.28003	7
715.10999	5
738.03998	8

NAME: Phosphatidylglyceride 18
PRECURSORMZ: 821.533809
PRECURSORTYPE: [M-H]-
FORMULA: C46H79O10P
Ontology: Phosphatidylglycerols
INCHIKEY: CLQKBJHAUYGCOB-HSBBONCLNA-N
SMILES: CCCCCCCCCCCCCCCCCC(=O)OCC(COP(O)(=O)OCC(O)CO)OC(=O)CC\C=C/C\C=C/C\C=C/C\C=C/C\C=C/C\C=C/CC
RETENTIONTIME: 
CCS: 415.2281126
IONMODE: Negative
INSTRUMENTTYPE: LC-ESI-ITFT
INSTRUMENT: 
COLLISIONENERGY: 30
Comment: registered in MassBank
Num Peaks: 47
241.03999	8
249.33	7
258.91	6
269.16	8
283.14001	442
284.17999	51
303.07001	14
315.10999	18
327.12	296
328.23001	47
405.07999	20
405.98999	7
416.98001	7
419.04999	37
422.98999	13
462.94	36
463.79999	10
493.01001	30
493.92001	7
509.88	11
511.17001	125
512.13	30
534.03003	6
537.20001	10
539.40997	135
540.17999	173
541.29999	108
542.21997	20
555.08002	14
563.56	9
564.27002	6
565.98999	10
568.23999	11
716.78998	8
733.07001	145
734.10999	137
735.14001	22
738.09003	1000
739.10999	587
740.17999	9
745.35999	8
746.92999	10
768.23999	21
769.53003	8
777.53003	9
820.27002	331
821.34998	46

NAME: Phosphatidylglyceride 18
PRECURSORMZ: 795.518159
PRECURSORTYPE: [M-H]-
FORMULA: C44H77O10P
Ontology: Phosphatidylglycerols
INCHIKEY: ITIOHRDVKOPUBF-MOYSMJPMNA-N
SMILES: CCCCCCCCCCCCC\C=C/CCC(=O)OCC(COP(O)(=O)OCC(O)CO)OC(=O)CC\C=C/C\C=C/C\C=C/C\C=C/CCCCCC
RETENTIONTIME: 
CCS: -1
IONMODE: Negative
INSTRUMENTTYPE: LC-ESI-ITFT
INSTRUMENT: 
COLLISIONENERGY: 30
Comment: registered in MassBank
Num Peaks: 14
244.78999	43
281.09	753
302.98001	1000
304.12	208
329.03	48
391	39
442.62	87
508.95001	22
548.31	17
696.34998	30
730.69	307
731.76001	30
750.77002	30
759.08002	30

NAME: Phosphatidylglyceride 18
PRECURSORMZ: 819.518159
PRECURSORTYPE: [M-H]-
FORMULA: C46H77O10P
Ontology: Phosphatidylglycerols
INCHIKEY: VGGGUMPTGJTNFQ-QRPORDCINA-N
SMILES: CCCCCCCCCCCCC\C=C/CCC(=O)OCC(COP(O)(=O)OCC(O)CO)OC(=O)CC\C=C/C\C=C/C\C=C/C\C=C/C\C=C/C\C=C/CC
RETENTIONTIME: 
CCS: -1
IONMODE: Negative
INSTRUMENTTYPE: LC-ESI-ITFT
INSTRUMENT: 
COLLISIONENERGY: 30
Comment: registered in MassBank
Num Peaks: 10
249.06	153
281.06	1000
283.19	328
283.95999	84
303.14001	38
326.73999	115
327.39001	160
329.20001	61
512.94	107
759.65997	46

NAME: Phosphatidylglyceride 18
PRECURSORMZ: 817.502509
PRECURSORTYPE: [M-H]-
FORMULA: C46H75O10P
Ontology: Phosphatidylglycerols
INCHIKEY: QVDNNCVPBKNHNS-XPMHQQHXNA-N
SMILES: CCCCCCCCCC\C=C/C\C=C/CCC(=O)OCC(COP(O)(=O)OCC(O)CO)OC(=O)CC\C=C/C\C=C/C\C=C/C\C=C/C\C=C/C\C=C/CC
RETENTIONTIME: 
CCS: -1
IONMODE: Negative
INSTRUMENTTYPE: LC-ESI-ITFT
INSTRUMENT: 
COLLISIONENERGY: 30
Comment: registered in MassBank
Num Peaks: 14
279.19	1000
279.95001	101
283.07001	754
303.07001	87
327.01001	319
480.85999	232
537.01001	261
724.94	217
743.31	333
756.91998	391
758.84998	261
796.78998	333
797.51001	58
799.88	72

NAME: Phosphatidylglyceride 20
PRECURSORMZ: 841.502509
PRECURSORTYPE: [M-H]-
FORMULA: C48H75O10P
Ontology: Phosphatidylglycerols
INCHIKEY: WAHLPBOVXFIGAP-YARNEYDXNA-N
SMILES: CCCCCC\C=C/C\C=C/C\C=C/C\C=C/CCC(=O)OCC(COP(O)(=O)OCC(O)CO)OC(=O)CC\C=C/C\C=C/C\C=C/C\C=C/C\C=C/C\C=C/CC
RETENTIONTIME: 
CCS: -1
IONMODE: Negative
INSTRUMENTTYPE: LC-ESI-ITFT
INSTRUMENT: 
COLLISIONENERGY: 30
Comment: registered in MassBank
Num Peaks: 18
283.17999	208
303.04001	1000
303.92001	93
326.95999	963
328.04999	157
351.12	32
441.12	102
459.63	42
530.60999	111
533.38	28
555.19	69
664.97998	97
758.72998	125
759.53003	28
762.79999	130
767.45001	19
808.14001	51
822.58002	111

NAME: Phosphatidylglyceride 22
PRECURSORMZ: 869.533809
PRECURSORTYPE: [M-H]-
FORMULA: C50H79O10P
Ontology: Phosphatidylglycerols
INCHIKEY: NKQMVGLKBUHTCY-JKIJTENUNA-N
SMILES: CCCCCCCC\C=C/C\C=C/C\C=C/C\C=C/CCC(=O)OC(COC(=O)CC\C=C/C\C=C/C\C=C/C\C=C/C\C=C/C\C=C/CC)COP(O)(=O)OCC(O)CO
RETENTIONTIME: 
CCS: -1
IONMODE: Negative
INSTRUMENTTYPE: LC-ESI-ITFT
INSTRUMENT: 
COLLISIONENERGY: 30
Comment: registered in MassBank
Num Peaks: 3
327.28	930
331.04999	1000
541.16998	581

NAME: Phosphatidylglyceride 22
PRECURSORMZ: 867.518159
PRECURSORTYPE: [M-H]-
FORMULA: C50H77O10P
Ontology: Phosphatidylglycerols
INCHIKEY: XHLZURIDNJOINR-WBRRUXEENA-N
SMILES: CCCCC\C=C/C\C=C/C\C=C/C\C=C/C\C=C/CCC(=O)OC(COC(=O)CC\C=C/C\C=C/C\C=C/C\C=C/C\C=C/C\C=C/CC)COP(O)(=O)OCC(O)CO
RETENTIONTIME: 
CCS: 432.3055905
IONMODE: Negative
INSTRUMENTTYPE: LC-ESI-ITFT
INSTRUMENT: 
COLLISIONENERGY: 30
Comment: registered in MassBank
Num Peaks: 6
285.37	192
327.23999	1000
329.20001	654
421.17001	269
555.04999	462
557.21002	423

NAME: Phosphatidylglyceride 22
PRECURSORMZ: 865.502509
PRECURSORTYPE: [M-H]-
FORMULA: C50H75O10P
Ontology: Phosphatidylglycerols
INCHIKEY: XACKZSRNTPEYBU-GZSOIYOPNA-N
SMILES: CC\C=C/C\C=C/C\C=C/C\C=C/C\C=C/C\C=C/CCC(=O)OCC(COP(O)(=O)OCC(O)CO)OC(=O)CC\C=C/C\C=C/C\C=C/C\C=C/C\C=C/C\C=C/CC
RETENTIONTIME: 
CCS: 424.3166899
IONMODE: Negative
INSTRUMENTTYPE: LC-ESI-ITFT
INSTRUMENT: 
COLLISIONENERGY: 30
Comment: registered in MassBank
Num Peaks: 18
249.11	9
283.12	266
283.98001	88
327.12	1000
328.14001	208
537.39001	47
538.03998	18
553.28998	10
554.96002	43
556.15002	27
692.21002	10
789.16998	9
791.15997	18
805.89001	12
814.95001	27
829.35999	18
830.45001	18
835.71997	36

NAME: Phosphatidylinositol 16
PRECURSORMZ: 835.534203
PRECURSORTYPE: [M-H]-
FORMULA: C43H81O13P
Ontology: Phosphatidylinositols
INCHIKEY: IBBOEPTXNHPBRH-AFOMSZMQSA-N
SMILES: CCCCCCCCCCCCCCCC(=O)OCC(COP(O)(=O)O[C@H]1[C@H](O)[C@@H](O)[C@H](O)[C@@H](O)[C@H]1O)OC(=O)CC\C=C/CCCCCCCCCCCCC
RETENTIONTIME: 
CCS: -1
IONMODE: Negative
INSTRUMENTTYPE: LC-ESI-ITFT
INSTRUMENT: 
COLLISIONENERGY: 30
Comment: registered in MassBank
Num Peaks: 27
240.75999	74
242.02	5
255.09	118
256.09	11
281.04999	131
281.98999	25
296.89999	59
298.85999	20
314.79001	11
390.94	154
392.09	19
409.13	8
417.07999	96
418.22	7
522.21997	6
524.98999	31
553.08002	1000
554.09003	205
571.06	39
572.17999	6
579.10999	787
580.10999	201
597.08002	25
598.04999	6
607.04999	26
608.28003	7
835.28003	22

NAME: Phosphatidylinositol 16
PRECURSORMZ: 859.534203
PRECURSORTYPE: [M-H]-
FORMULA: C45H81O13P
Ontology: Phosphatidylinositols
INCHIKEY: TYVNWAWTRSCTFD-PSOMHJJNSA-N
SMILES: CCCCCCCCCCCCCCCC(=O)OCC(COP(O)(=O)O[C@H]1[C@H](O)[C@@H](O)[C@H](O)[C@@H](O)[C@H]1O)OC(=O)CC\C=C/C\C=C/C\C=C/CCCCCCCCC
RETENTIONTIME: 
CCS: -1
IONMODE: Negative
INSTRUMENTTYPE: LC-ESI-ITFT
INSTRUMENT: 
COLLISIONENERGY: 30
Comment: registered in MassBank
Num Peaks: 24
241.02	38
255.21001	316
256.45999	16
281.13	12
296.88	28
305.01999	222
306.35999	53
307.04001	28
315.34	41
390.95999	212
392.01001	28
409.20999	100
441	66
442.01999	44
553.12	1000
554.09003	125
570.97998	209
572	88
603.17999	412
604.15997	44
654.44	72
771.19	16
773.03998	84
785.13	69

NAME: Phosphatidylinositol 16
PRECURSORMZ: 857.518553
PRECURSORTYPE: [M-H]-
FORMULA: C45H79O13P
Ontology: Phosphatidylinositols
INCHIKEY: QAOYQEIOBPZFPB-VHZSRAIHSA-N
SMILES: CCCCCCCCCCCCCCCC(=O)OCC(COP(O)(=O)O[C@H]1[C@H](O)[C@@H](O)[C@H](O)[C@@H](O)[C@H]1O)OC(=O)CC\C=C/C\C=C/C\C=C/C\C=C/CCCCCC
RETENTIONTIME: 
CCS: -1
IONMODE: Negative
INSTRUMENTTYPE: LC-ESI-ITFT
INSTRUMENT: 
COLLISIONENERGY: 30
Comment: registered in MassBank
Num Peaks: 27
240.92	50
241.78999	9
255.03999	412
256.10001	60
256.70001	5
258.88	29
296.84	227
298.12	8
303.04999	236
304.17001	38
315	55
390.98999	784
391.92999	60
409.10001	46
438.92001	76
439.95001	17
457.34	6
553.01001	1000
554.08002	200
571.15002	244
572.17999	39
601	193
601.94	34
619.25	15
620.08002	15
695.79999	13
770.09003	10

NAME: Phosphatidylinositol 16
PRECURSORMZ: 855.502903
PRECURSORTYPE: [M-H]-
FORMULA: C45H77O13P
Ontology: Phosphatidylinositols
INCHIKEY: CTYGZBOFLKSVSJ-AYZKUARYSA-N
SMILES: CCCCCCCCCCCCCCCC(=O)OCC(COP(O)(=O)O[C@H]1[C@H](O)[C@@H](O)[C@H](O)[C@@H](O)[C@H]1O)OC(=O)CC\C=C/C\C=C/C\C=C/C\C=C/C\C=C/CCC
RETENTIONTIME: 
CCS: -1
IONMODE: Negative
INSTRUMENTTYPE: LC-ESI-ITFT
INSTRUMENT: 
COLLISIONENERGY: 30
Comment: registered in MassBank
Num Peaks: 23
255.13	406
296.84	242
297.72	16
302.10001	33
390.94	275
392.29001	49
437.09	74
439.42999	41
440.26001	70
441.32001	49
458.70999	20
463.20001	20
553.14001	709
570.77002	45
571.84003	45
598.89001	45
600.40997	33
617.04999	29
766.32001	37
767.90997	1000
768.65002	70
769.32001	78
803.13	78

NAME: Phosphatidylinositol 16
PRECURSORMZ: 833.518553
PRECURSORTYPE: [M-H]-
FORMULA: C43H79O13P
Ontology: Phosphatidylinositols
INCHIKEY: KIDMVLLBZCDJPI-BDZOPLRHSA-N
SMILES: CCCCCCCCCCCCC\C=C/CCC(=O)OC(COC(=O)CC\C=C/CCCCCCCCCCC)COP(O)(=O)O[C@H]1[C@H](O)[C@@H](O)[C@H](O)[C@@H](O)[C@H]1O
RETENTIONTIME: 
CCS: -1
IONMODE: Negative
INSTRUMENTTYPE: LC-ESI-ITFT
INSTRUMENT: 
COLLISIONENERGY: 30
Comment: registered in MassBank
Num Peaks: 21
253.12	87
280.94	281
296.89999	107
389.13	20
407.14999	61
417.14001	26
418.01001	255
418.76001	31
522.98999	20
551.22998	347
552.15997	133
569.46002	41
579.14001	1000
580.09003	209
596.96997	56
598.09998	41
746.19	31
747.28003	209
787.37	46
789.14001	20
802.45001	15

NAME: Phosphatidylinositol 16
PRECURSORMZ: 855.502903
PRECURSORTYPE: [M-H]-
FORMULA: C45H77O13P
Ontology: Phosphatidylinositols
INCHIKEY: BYKLOOOZTSWGPM-PREZKPSWSA-N
SMILES: CCCCCCCCCCC\C=C/CCC(=O)OCC(COP(O)(=O)O[C@H]1[C@H](O)[C@@H](O)[C@H](O)[C@@H](O)[C@H]1O)OC(=O)CC\C=C/C\C=C/C\C=C/C\C=C/CCCCCC
RETENTIONTIME: 
CCS: -1
IONMODE: Negative
INSTRUMENTTYPE: LC-ESI-ITFT
INSTRUMENT: 
COLLISIONENERGY: 30
Comment: registered in MassBank
Num Peaks: 15
253.12	493
283.17999	43
296.89999	36
304	36
363.17001	57
389.06	1000
390.01999	314
439.16	57
544.96002	29
551.13	943
560.96002	71
569.26001	407
570.15997	86
601.66998	86
823.53998	64

NAME: Phosphatidylinositol 17
PRECURSORMZ: 871.534203
PRECURSORTYPE: [M-H]-
FORMULA: C46H81O13P
Ontology: Phosphatidylinositols
INCHIKEY: DFLHJZQZIPIWSG-VAUUZOHPSA-N
SMILES: CCCCCCCCCCCCCCCCC(=O)OCC(COP(O)(=O)O[C@H]1[C@H](O)[C@@H](O)[C@H](O)[C@@H](O)[C@H]1O)OC(=O)CC\C=C/C\C=C/C\C=C/C\C=C/CCCCCC
RETENTIONTIME: 
CCS: -1
IONMODE: Negative
INSTRUMENTTYPE: LC-ESI-ITFT
INSTRUMENT: 
COLLISIONENERGY: 30
Comment: registered in MassBank
Num Peaks: 19
259.26999	17
269.09	296
270.13	47
281.09	13
296.91	48
303.12	71
315.09	26
327.25	11
405.01001	268
406.04999	74
423.01999	13
438.67999	36
567.15002	364
567.92999	120
585.14001	119
601.12	47
602.28003	21
787.88	33
789.09998	1000

NAME: Phosphatidylinositol 18
PRECURSORMZ: 887.565503
PRECURSORTYPE: [M-H]-
FORMULA: C47H85O13P
Ontology: Phosphatidylinositols
INCHIKEY: IVPVQEZYLVFIGH-FLPISHNPSA-N
SMILES: CCCCCCCCCCCCCCCCCC(=O)OCC(COP(O)(=O)O[C@H]1[C@H](O)[C@@H](O)[C@H](O)[C@@H](O)[C@H]1O)OC(=O)CC\C=C/C\C=C/C\C=C/CCCCCCCCC
RETENTIONTIME: 
CCS: -1
IONMODE: Negative
INSTRUMENTTYPE: LC-ESI-ITFT
INSTRUMENT: 
COLLISIONENERGY: 30
Comment: registered in MassBank
Num Peaks: 19
283.16	966
284.26999	62
296.92999	191
305.14001	503
306.09	46
419.03	832
420.10999	117
437.16	11
438.12	23
440.89001	99
471.85001	9
558.13	11
581.15002	1000
582.14001	193
599.20001	30
601.42999	11
603.09998	232
604.20001	97
619.47998	11

NAME: Phosphatidylinositol 18
PRECURSORMZ: 885.549853
PRECURSORTYPE: [M-H]-
FORMULA: C47H83O13P
Ontology: Phosphatidylinositols
INCHIKEY: QTBZDDLLDFZGQX-KVUJAYRISA-N
SMILES: CCCCCCCCCCCCCCCCCC(=O)OCC(COP(O)(=O)O[C@H]1[C@H](O)[C@@H](O)[C@H](O)[C@@H](O)[C@H]1O)OC(=O)CC\C=C/C\C=C/C\C=C/C\C=C/CCCCCC
RETENTIONTIME: 
CCS: -1
IONMODE: Negative
INSTRUMENTTYPE: LC-ESI-ITFT
INSTRUMENT: 
COLLISIONENERGY: 30
Comment: registered in MassBank
Num Peaks: 23
259.23001	13
283.13	695
284.09	63
296.94	166
297.94	20
303.19	181
304.14999	10
314.76999	8
419.03	618
420.12	63
437.07999	21
438.29001	13
438.97	108
440.04999	9
457.34	10
581.04999	1000
582.15997	206
599.08002	244
600.19	78
601.15997	172
601.98999	20
618.82001	15
723.23999	10

NAME: Phosphatidylinositol 18
PRECURSORMZ: 913.581153
PRECURSORTYPE: [M-H]-
FORMULA: C49H87O13P
Ontology: Phosphatidylinositols
INCHIKEY: LBMMQTGWTSTFIZ-WJEBLFDXSA-N
SMILES: CCCCCCCCCCCCCCCCCC(=O)OCC(COP(O)(=O)O[C@H]1[C@H](O)[C@@H](O)[C@H](O)[C@@H](O)[C@H]1O)OC(=O)CC\C=C/C\C=C/C\C=C/C\C=C/CCCCCCCC
RETENTIONTIME: 
CCS: -1
IONMODE: Negative
INSTRUMENTTYPE: LC-ESI-ITFT
INSTRUMENT: 
COLLISIONENERGY: 30
Comment: registered in MassBank
Num Peaks: 18
283.20001	436
284.29001	42
287.39001	20
296.64001	33
315.17001	33
331.25	270
332.31	81
419.12	208
420.16	78
437.38	42
467.07999	127
468.01999	49
581.06	1000
582.25	264
599.27002	225
629.12	81
870.15997	20
913.32001	49

NAME: Phosphatidylinositol 18
PRECURSORMZ: 909.549853
PRECURSORTYPE: [M-H]-
FORMULA: C49H83O13P
Ontology: Phosphatidylinositols
INCHIKEY: DJVOKHFQPGWUPK-CONVNOKZSA-N
SMILES: CCCCCCCCCCCCCCCCCC(=O)OCC(COP(O)(=O)O[C@H]1[C@H](O)[C@@H](O)[C@H](O)[C@@H](O)[C@H]1O)OC(=O)CC\C=C/C\C=C/C\C=C/C\C=C/C\C=C/C\C=C/CC
RETENTIONTIME: 
CCS: 418.8282198
IONMODE: Negative
INSTRUMENTTYPE: LC-ESI-ITFT
INSTRUMENT: 
COLLISIONENERGY: 30
Comment: registered in MassBank
Num Peaks: 25
283.17999	780
284.14999	42
296.73999	115
298.01001	8
315.01001	25
323.56	15
327.13	183
327.98999	10
419.06	745
420.14999	64
437.01999	20
462.79001	70
463.62	29
464.23001	5
581.03003	1000
582.03998	122
599.10999	92
599.73999	29
600.38	12
624.95001	112
626.09003	33
642.89001	9
750.09998	6
805.32001	15
823.40997	6

NAME: Phosphatidylinositol 18
PRECURSORMZ: 863.565503
PRECURSORTYPE: [M-H]-
FORMULA: C45H85O13P
Ontology: Phosphatidylinositols
INCHIKEY: WQMQEJCRDIIRGN-VWFGVUABSA-N
SMILES: CCCCCCCCCCCCCCCCCC(=O)OC(COC(=O)CC\C=C/CCCCCCCCCCCCC)COP(O)(=O)O[C@H]1[C@H](O)[C@@H](O)[C@H](O)[C@@H](O)[C@H]1O
RETENTIONTIME: 
CCS: -1
IONMODE: Negative
INSTRUMENTTYPE: LC-ESI-ITFT
INSTRUMENT: 
COLLISIONENERGY: 30
Comment: registered in MassBank
Num Peaks: 33
259.01999	12
281.14001	207
282.12	70
283.10001	855
284.20001	117
296.85999	181
314.73999	30
417.04001	82
418.97	618
420.04999	150
422.63	21
437.10001	38
553.04999	11
571.89001	13
579.07001	387
580.33002	166
581.09003	1000
582.09003	276
598.34003	54
599.21997	156
600.04999	21
603.39001	8
620.65002	8
625.16998	17
713.53003	9
716.71002	7
765.08002	12
776	27
777.21997	27
781.34003	37
782.04999	6
862.45001	206
863.56	31

NAME: Phosphatidylinositol 18
PRECURSORMZ: 861.549853
PRECURSORTYPE: [M-H]-
FORMULA: C45H83O13P
Ontology: Phosphatidylinositols
INCHIKEY: OEIRDSPUMTVTLZ-ZKCAXHNESA-N
SMILES: CCCCCCCCCCCCC\C=C/CCC(=O)OCC(COP(O)(=O)O[C@H]1[C@H](O)[C@@H](O)[C@H](O)[C@@H](O)[C@H]1O)OC(=O)CC\C=C/CCCCCCCCCCCCC
RETENTIONTIME: 
CCS: -1
IONMODE: Negative
INSTRUMENTTYPE: LC-ESI-ITFT
INSTRUMENT: 
COLLISIONENERGY: 30
Comment: registered in MassBank
Num Peaks: 22
281.06	197
282.14001	25
296.89999	34
299.91	6
417.07001	172
417.95999	32
435.01999	9
435.95001	5
523.15002	6
551.19	261
552.22998	41
579.10999	1000
580.16998	238
597.25	46
598.10999	10
607.10999	135
608.20001	49
773.41998	7
774.29999	9
775.40997	6
800.73999	6
861.37	37

NAME: Phosphatidylinositol 18
PRECURSORMZ: 881.518553
PRECURSORTYPE: [M-H]-
FORMULA: C47H79O13P
Ontology: Phosphatidylinositols
INCHIKEY: BWTICRGPYJPYOE-PQMBXUDJSA-N
SMILES: CCCCCCCCCCCCC\C=C/CCC(=O)OCC(COP(O)(=O)O[C@H]1[C@H](O)[C@@H](O)[C@H](O)[C@@H](O)[C@H]1O)OC(=O)CC\C=C/C\C=C/C\C=C/C\C=C/C\C=C/CCC
RETENTIONTIME: 
CCS: -1
IONMODE: Negative
INSTRUMENTTYPE: LC-ESI-ITFT
INSTRUMENT: 
COLLISIONENERGY: 30
Comment: registered in MassBank
Num Peaks: 28
255.13	297
256.26999	46
283.07999	77
296.88	68
297.89001	6
315.23999	23
327.13	65
328.01001	6
330.45001	6
331.35001	12
390.97	442
392.06	55
409.06	36
410.14999	19
462.60999	68
463.26001	87
463.98999	17
553.02002	1000
554.17999	154
571.16998	350
571.95001	22
625.06	302
642.87	12
793.10999	31
794.34998	209
795.28998	46
824.78003	30
837.72998	14

NAME: Phosphatidylinositol 20
PRECURSORMZ: 905.518553
PRECURSORTYPE: [M-H]-
FORMULA: C49H79O13P
Ontology: Phosphatidylinositols
INCHIKEY: BQGBJGDIIRNCBP-WLQFNMGVSA-N
SMILES: CCCCCC\C=C/C\C=C/C\C=C/C\C=C/CCC(=O)OCC(COP(O)(=O)O[C@H]1[C@H](O)[C@@H](O)[C@H](O)[C@@H](O)[C@H]1O)OC(=O)CC\C=C/C\C=C/C\C=C/C\C=C/CCCCCC
RETENTIONTIME: 
CCS: -1
IONMODE: Negative
INSTRUMENTTYPE: LC-ESI-ITFT
INSTRUMENT: 
COLLISIONENERGY: 30
Comment: registered in MassBank
Num Peaks: 13
296.92999	176
303.07001	415
304.26001	78
433.35999	36
439.03	420
439.66	135
577.13	67
600.91998	1000
602.33002	104
618.51001	83
619.14001	52
619.97998	31
823.64001	114

NAME: Phosphatidylinositol lyso 16
PRECURSORMZ: 571.288887
PRECURSORTYPE: [M-H]-
FORMULA: C25H49O12P
Ontology: 2-acyl-sn-glycerol-3-phosphoinositols
INCHIKEY: NUDRHGDMWNFXMD-PYXWJOJKSA-N
SMILES: CCCCCCCCCCCCCCCC(=O)OC(CO)COP(O)(=O)O[C@H]1[C@H](O)[C@@H](O)[C@H](O)[C@@H](O)[C@H]1O
RETENTIONTIME: 
CCS: -1
IONMODE: Negative
INSTRUMENTTYPE: LC-ESI-ITFT
INSTRUMENT: 
COLLISIONENERGY: 30
Comment: registered in MassBank
Num Peaks: 19
222.77	41
240.87	265
255.03999	1000
256.29999	109
314.85001	646
315.95001	94
360.89999	29
382.28	21
391.07001	522
394.87	44
409.28	18
430.10999	15
434.89999	27
456.09	18
488.32999	94
496.95001	47
509.66	27
510.98001	106
539.15997	29

NAME: Phosphatidylinositol lyso 18
PRECURSORMZ: 599.320187
PRECURSORTYPE: [M-H]-
FORMULA: C27H53O12P
Ontology: 2-acyl-sn-glycerol-3-phosphoinositols
INCHIKEY: AGVRWBBFKKEVAX-WAPMBQLLSA-N
SMILES: CCCCCCCCCCCCCCCCCC(=O)OC(CO)COP(O)(=O)O[C@H]1[C@H](O)[C@@H](O)[C@H](O)[C@@H](O)[C@H]1O
RETENTIONTIME: 
CCS: 275.2004289
IONMODE: Negative
INSTRUMENTTYPE: LC-ESI-ITFT
INSTRUMENT: 
COLLISIONENERGY: 30
Comment: registered in MassBank
Num Peaks: 15
222.81	26
240.89	346
241.75999	5
258.94	6
263.95999	5
283.10001	1000
284.19	67
314.92001	445
315.89001	21
332.85001	18
339	5
419.01001	559
420.06	47
431.07999	6
437.94	7

NAME: Phosphatidylinositol lyso 18
PRECURSORMZ: 597.304537
PRECURSORTYPE: [M-H]-
FORMULA: C27H51O12P
Ontology: 2-acyl-sn-glycerol-3-phosphoinositols
INCHIKEY: OVHGUPNHWUHPOM-DBFVMBBUSA-N
SMILES: CCCCCCCCCCCCC\C=C/CCC(=O)OC(CO)COP(O)(=O)O[C@H]1[C@H](O)[C@@H](O)[C@H](O)[C@@H](O)[C@H]1O
RETENTIONTIME: 
CCS: -1
IONMODE: Negative
INSTRUMENTTYPE: LC-ESI-ITFT
INSTRUMENT: 
COLLISIONENERGY: 30
Comment: registered in MassBank
Num Peaks: 21
222.14	48
222.91	81
240.87	194
281.10001	1000
282.10999	70
299.25	32
307.67999	27
314.85999	731
332.89001	38
417.17001	285
418.10001	38
421.17001	81
427.41	70
454.76999	27
483.09	38
507.10999	22
515.10999	108
523.15002	124
525.73999	43
560.98999	59
603.46997	65

NAME: Phosphatidylinositol lyso 20
PRECURSORMZ: 619.288887
PRECURSORTYPE: [M-H]-
FORMULA: C29H49O12P
Ontology: 2-acyl-sn-glycerol-3-phosphoinositols
INCHIKEY: GCTCZDZDLCVEBR-BMBRPNNFSA-N
SMILES: CCCCCC\C=C/C\C=C/C\C=C/C\C=C/CCC(=O)OC(CO)COP(O)(=O)O[C@H]1[C@H](O)[C@@H](O)[C@H](O)[C@@H](O)[C@H]1O
RETENTIONTIME: 
CCS: -1
IONMODE: Negative
INSTRUMENTTYPE: LC-ESI-ITFT
INSTRUMENT: 
COLLISIONENERGY: 30
Comment: registered in MassBank
Num Peaks: 30
205.14999	102
222.74001	108
239.14	38
240.81	382
259.25	70
260.29999	57
303.25	1000
304.10001	57
314.88	968
332.98001	83
390.91	64
408.95001	57
436.82001	89
438.81	529
439.75	45
445.39999	146
476.76999	89
478.10999	25
482.79999	64
494.62	57
531.51001	19
546.96002	140
555.66998	32
558.87	64
574.95001	127
582.78003	57
587.02002	64
589.88	38
601.10999	127
604.59998	134

NAME: Phosphatidylserine 16
PRECURSORMZ: 806.497758
PRECURSORTYPE: [M-H]-
FORMULA: C44H74NO10P
Ontology: Phosphatidylserines
INCHIKEY: PWBBJQOVCTWPIM-LGFBOSHVNA-N
SMILES: CCCCCCCCCCCCCCCC(=O)OCC(COP(O)(=O)OCC(N)C(O)=O)OC(=O)CC\C=C/C\C=C/C\C=C/C\C=C/C\C=C/C\C=C/CC
RETENTIONTIME: 
CCS: 392.052821
IONMODE: Negative
INSTRUMENTTYPE: LC-ESI-ITFT
INSTRUMENT: 
COLLISIONENERGY: 30
Comment: registered in MassBank
Num Peaks: 14
255.11	22
390.92001	85
409.20999	18
463.07999	18
463.85999	9
480.19	8
498.51001	12
551.22998	46
552.98999	5
635.34998	13
701.52002	5
718.96997	1000
720.12	486
766.89001	5

NAME: Phosphatidylserine 18
PRECURSORMZ: 816.576008
PRECURSORTYPE: [M-H]-
FORMULA: C44H84NO10P
Ontology: Phosphatidylserines
INCHIKEY: CWSHAMZVMDYRSO-GCUVURNUNA-N
SMILES: CCCCCCCCCCCCCCCCCC(=O)OCC(COP(O)(=O)OCC(N)C(O)=O)OC(=O)CC\C=C/CCCCCCCCCCCCCCC
RETENTIONTIME: 
CCS: -1
IONMODE: Negative
INSTRUMENTTYPE: LC-ESI-ITFT
INSTRUMENT: 
COLLISIONENERGY: 30
Comment: registered in MassBank
Num Peaks: 11
283.20001	38
309.26001	32
311.31	9
419.01999	100
420.22	14
437.09	19
445.04001	43
446.10999	7
447.10001	37
729.13	1000
730.17999	400

NAME: Phosphatidylserine 18
PRECURSORMZ: 814.560358
PRECURSORTYPE: [M-H]-
FORMULA: C44H82NO10P
Ontology: Phosphatidylserines
INCHIKEY: XYOBNNJBURXNAH-QIPJBBGZNA-N
SMILES: CCCCCCCCCCCCCCCCCC(=O)OCC(COP(O)(=O)OCC(N)C(O)=O)OC(=O)CC\C=C/C\C=C/CCCCCCCCCCCC
RETENTIONTIME: 
CCS: -1
IONMODE: Negative
INSTRUMENTTYPE: LC-ESI-ITFT
INSTRUMENT: 
COLLISIONENERGY: 30
Comment: registered in MassBank
Num Peaks: 23
281.32999	20
283.09	102
309.09	32
309.73001	25
310.42001	18
369.23001	45
416.82999	32
418.87	110
437.06	35
442.03	18
443.14001	48
443.85999	35
445.17001	38
463.10001	8
609.64001	40
700.42999	15
727.08002	1000
728.22998	770
754.20001	252
755.25	220
756.15997	75
757.54999	30
794.90997	22

NAME: Phosphatidylserine 18
PRECURSORMZ: 812.544708
PRECURSORTYPE: [M-H]-
FORMULA: C44H80NO10P
Ontology: Phosphatidylserines
INCHIKEY: JRRYKGRILWVSHS-JCXYTCFZNA-N
SMILES: CCCCCCCCCCCCCCCCCC(=O)OCC(COP(O)(=O)OCC(N)C(O)=O)OC(=O)CC\C=C/C\C=C/C\C=C/CCCCCCCCC
RETENTIONTIME: 
CCS: -1
IONMODE: Negative
INSTRUMENTTYPE: LC-ESI-ITFT
INSTRUMENT: 
COLLISIONENERGY: 30
Comment: registered in MassBank
Num Peaks: 11
283.20001	95
284.17001	6
304.98001	13
419.16	115
420.04999	19
437.10001	33
440.92999	9
442	12
724.15997	142
725.12	1000
726.21997	327

NAME: Phosphatidylserine 18
PRECURSORMZ: 810.529058
PRECURSORTYPE: [M-H]-
FORMULA: C44H78NO10P
Ontology: Phosphatidylserines
INCHIKEY: AENVCOSUVDLDFA-NQWSYULSNA-N
SMILES: CCCCCCCCCCCCCCCCCC(=O)OCC(COP(O)(=O)OCC(N)C(O)=O)OC(=O)CC\C=C/C\C=C/C\C=C/C\C=C/CCCCCC
RETENTIONTIME: 
CCS: -1
IONMODE: Negative
INSTRUMENTTYPE: LC-ESI-ITFT
INSTRUMENT: 
COLLISIONENERGY: 30
Comment: registered in MassBank
Num Peaks: 13
283.14001	67
284.09	7
303.12	15
416.95999	7
418.95999	137
420.01001	25
437.10999	37
438.04999	11
438.92999	40
458.20999	6
545.09003	9
723.09998	1000
724.17999	289

NAME: Phosphatidylserine 18
PRECURSORMZ: 838.560358
PRECURSORTYPE: [M-H]-
FORMULA: C46H82NO10P
Ontology: Phosphatidylserines
INCHIKEY: IKWBXMMMFROIHT-BPSDUUPONA-N
SMILES: CCCCCCCCCCCCCCCCCC(=O)OCC(COP(O)(=O)OCC(N)C(O)=O)OC(=O)CC\C=C/C\C=C/C\C=C/C\C=C/CCCCCCCC
RETENTIONTIME: 
CCS: -1
IONMODE: Negative
INSTRUMENTTYPE: LC-ESI-ITFT
INSTRUMENT: 
COLLISIONENERGY: 30
Comment: registered in MassBank
Num Peaks: 17
283.09	44
284.16	8
331.26001	9
419.07999	145
420.06	12
437.04999	32
466.92999	34
468.01001	8
553.28003	49
554.17999	60
555.25	20
581.17999	44
582.15997	38
583.26001	11
751.09998	1000
752.21002	76
838.42999	10

NAME: Phosphatidylserine 18
PRECURSORMZ: 836.544708
PRECURSORTYPE: [M-H]-
FORMULA: C46H80NO10P
Ontology: Phosphatidylserines
INCHIKEY: KMPUODCMAGXMDR-WZARRQHINA-N
SMILES: CCCCCCCCCCCCCCCCCC(=O)OCC(COP(O)(=O)OCC(N)C(O)=O)OC(=O)CC\C=C/C\C=C/C\C=C/C\C=C/C\C=C/CCCCC
RETENTIONTIME: 
CCS: 368.65133
IONMODE: Negative
INSTRUMENTTYPE: LC-ESI-ITFT
INSTRUMENT: 
COLLISIONENERGY: 30
Comment: registered in MassBank
Num Peaks: 17
283.22	51
284.13	40
419.14001	161
437	37
463.95999	11
464.98001	36
524.20001	13
717.09998	10
732.39001	14
747.28003	16
749.09003	1000
750.20001	142
751.44	8
753.96997	9
767.04999	6
818.23999	5
836.29999	84

NAME: Phosphatidylserine 18
PRECURSORMZ: 834.529058
PRECURSORTYPE: [M-H]-
FORMULA: C46H78NO10P
Ontology: Phosphatidylserines
INCHIKEY: LYYHRRPTEXPVOR-HSBBONCLNA-N
SMILES: CCCCCCCCCCCCCCCCCC(=O)OCC(COP(O)(=O)OCC(N)C(O)=O)OC(=O)CC\C=C/C\C=C/C\C=C/C\C=C/C\C=C/C\C=C/CC
RETENTIONTIME: 
CCS: 404.9164861
IONMODE: Negative
INSTRUMENTTYPE: LC-ESI-ITFT
INSTRUMENT: 
COLLISIONENERGY: 30
Comment: registered in MassBank
Num Peaks: 15
253.14	9
283.09	409
284.14999	17
309.04999	5
327.07999	41
328.04001	6
419.04999	1000
420.07999	37
437.09	189
462.95999	234
480.92999	10
523.91998	21
553.27002	15
579.34003	11
581.03998	6

NAME: Phosphatidylserine 18
PRECURSORMZ: 788.544708
PRECURSORTYPE: [M-H]-
FORMULA: C42H80NO10P
Ontology: Phosphatidylserines
INCHIKEY: IPZRENQGCCSGRE-OHYPFYFLNA-N
SMILES: CCCCCCCCCCCCCCCCCC(=O)OC(COC(=O)CC\C=C/CCCCCCCCCCCCC)COP(O)(=O)OCC(N)C(O)=O
RETENTIONTIME: 
CCS: -1
IONMODE: Negative
INSTRUMENTTYPE: LC-ESI-ITFT
INSTRUMENT: 
COLLISIONENERGY: 30
Comment: registered in MassBank
Num Peaks: 8
281.20001	22
283.17999	38
417	37
419.04001	131
420.14999	10
437.20001	21
701.04999	1000
702.17999	116

NAME: Phosphatidylserine 18
PRECURSORMZ: 786.529058
PRECURSORTYPE: [M-H]-
FORMULA: C42H78NO10P
Ontology: Phosphatidylserines
INCHIKEY: JTUPNPXBWXOEFZ-ZUELCTOONA-N
SMILES: CCCCCCCCCCCCC\C=C/CCC(=O)OCC(COP(O)(=O)OCC(N)C(O)=O)OC(=O)CC\C=C/CCCCCCCCCCCCC
RETENTIONTIME: 
CCS: -1
IONMODE: Negative
INSTRUMENTTYPE: LC-ESI-ITFT
INSTRUMENT: 
COLLISIONENERGY: 30
Comment: registered in MassBank
Num Peaks: 7
281.07999	66
282.14999	8
416.98999	183
418.06	14
435.04001	23
699.10999	1000
700.06	225

NAME: Phosphatidylserine 18
PRECURSORMZ: 814.560358
PRECURSORTYPE: [M-H]-
FORMULA: C44H82NO10P
Ontology: Phosphatidylserines
INCHIKEY: OHVPXIJWGQXNSY-SZDCHMHBNA-N
SMILES: CCCCCCCCCCCCCCC\C=C/CCC(=O)OC(COC(=O)CC\C=C/CCCCCCCCCCCCC)COP(O)(=O)OCC(N)C(O)=O
RETENTIONTIME: 
CCS: -1
IONMODE: Negative
INSTRUMENTTYPE: LC-ESI-ITFT
INSTRUMENT: 
COLLISIONENERGY: 30
Comment: registered in MassBank
Num Peaks: 22
281.10001	48
283.12	6
309.10001	63
417	74
418.14001	26
419.07999	6
420.19	7
434.92999	11
436.10999	9
438.85001	7
445.13	52
446.23999	24
463.17999	11
550	12
725.54999	57
726.33002	186
727.21997	1000
728.21997	322
731.35999	9
739.72998	7
748.83002	7
753.28003	9

NAME: Phosphatidylserine 18
PRECURSORMZ: 844.607308
PRECURSORTYPE: [M-H]-
FORMULA: C46H88NO10P
Ontology: Phosphatidylserines
INCHIKEY: RGMUYILZSPVWSQ-FPODKLOTNA-N
SMILES: CCCCCCCCCCCCCCCCCCCCCC(=O)OC(COC(=O)CC\C=C/CCCCCCCCCCCCC)COP(O)(=O)OCC(N)C(O)=O
RETENTIONTIME: 
CCS: -1
IONMODE: Negative
INSTRUMENTTYPE: LC-ESI-ITFT
INSTRUMENT: 
COLLISIONENERGY: 30
Comment: registered in MassBank
Num Peaks: 13
281.32001	7
283.10999	30
475.09	41
476.14001	21
493.64999	7
753.70001	13
757.12	1000
758.15002	413
762.08002	16
771.47998	41
780.76001	127
784.23999	33
844.53998	30

NAME: Phosphatidylserine 18
PRECURSORMZ: 832.513408
PRECURSORTYPE: [M-H]-
FORMULA: C46H76NO10P
Ontology: Phosphatidylserines
INCHIKEY: ZBHJZQBBODCTLM-QRPORDCINA-N
SMILES: CCCCCCCCCCCCC\C=C/CCC(=O)OCC(COP(O)(=O)OCC(N)C(O)=O)OC(=O)CC\C=C/C\C=C/C\C=C/C\C=C/C\C=C/C\C=C/CC
RETENTIONTIME: 
CCS: -1
IONMODE: Negative
INSTRUMENTTYPE: LC-ESI-ITFT
INSTRUMENT: 
COLLISIONENERGY: 30
Comment: registered in MassBank
Num Peaks: 17
256.98001	5
281.17999	39
326.98001	15
391.26001	14
409.14999	7
417.01999	160
417.95999	17
435.01999	25
463	51
481.29001	5
553.16998	59
576.71002	7
577.35999	37
745.03003	1000
746.14001	186
750.33002	12
831.78003	14

NAME: Phosphatidylserine 19
PRECURSORMZ: 848.544708
PRECURSORTYPE: [M-H]-
FORMULA: C47H80NO10P
Ontology: Phosphatidylserines
INCHIKEY: KQUCBTRVYDUHMT-MXQGKLILNA-N
SMILES: CCCCCCCCCCCCCCCCCCC(=O)OCC(COP(O)(=O)OCC(N)C(O)=O)OC(=O)CC\C=C/C\C=C/C\C=C/C\C=C/C\C=C/C\C=C/CC
RETENTIONTIME: 
CCS: -1
IONMODE: Negative
INSTRUMENTTYPE: LC-ESI-ITFT
INSTRUMENT: 
COLLISIONENERGY: 30
Comment: registered in MassBank
Num Peaks: 10
303.23001	15
385.34	5
480.31	6
718.35999	5
746.96997	20
750.16998	8
761.25	30
766.10999	1000
767.21002	22
774.15997	17

NAME: Phosphatidylserine 20
PRECURSORMZ: 854.497758
PRECURSORTYPE: [M-H]-
FORMULA: C48H74NO10P
Ontology: Phosphatidylserines
INCHIKEY: ZGLJCKUIELGDPR-YARNEYDXNA-N
SMILES: CCCCCC\C=C/C\C=C/C\C=C/C\C=C/CCC(=O)OCC(COP(O)(=O)OCC(N)C(O)=O)OC(=O)CC\C=C/C\C=C/C\C=C/C\C=C/C\C=C/C\C=C/CC
RETENTIONTIME: 
CCS: -1
IONMODE: Negative
INSTRUMENTTYPE: LC-ESI-ITFT
INSTRUMENT: 
COLLISIONENERGY: 30
Comment: registered in MassBank
Num Peaks: 17
302.95001	34
419.42001	9
438.98001	289
440.01001	29
457.07999	75
463.17999	15
463.82999	20
481.01001	17
489.04999	9
593.65002	12
766.95001	1000
767.87	378
772.38	20
795.76001	12
797.34003	21
802.41998	12
853.88	12

NAME: Phosphatidylserine 22
PRECURSORMZ: 878.497758
PRECURSORTYPE: [M-H]-
FORMULA: C50H74NO10P
Ontology: Phosphatidylserines
INCHIKEY: RJCZACBLQGCNCW-GZSOIYOPNA-N
SMILES: CC\C=C/C\C=C/C\C=C/C\C=C/C\C=C/C\C=C/CCC(=O)OCC(COP(O)(=O)OCC(N)C(O)=O)OC(=O)CC\C=C/C\C=C/C\C=C/C\C=C/C\C=C/C\C=C/CC
RETENTIONTIME: 
CCS: 379.0794439
IONMODE: Negative
INSTRUMENTTYPE: LC-ESI-ITFT
INSTRUMENT: 
COLLISIONENERGY: 30
Comment: registered in MassBank
Num Peaks: 7
283.37	6
327.14001	19
463.03	167
481.04001	26
671.84998	6
791.01001	1000
791.96997	13

NAME: Sphingomyelin d18
PRECURSORMZ: 735.602163
PRECURSORTYPE: [M+CH3COO]-
FORMULA: C39H81N2O6P
Ontology: Phosphosphingolipids
INCHIKEY: QHZIGNLCLJPLCU-AMAPPZPBSA-N
SMILES: CCCCCCCCCCCCCCC[C@H](O)[C@@H](COP([O-])(=O)OCC[N+](C)(C)C)N=C(O)CCCCCCCCCCCCCCC
RETENTIONTIME: 
CCS: -1
IONMODE: Negative
INSTRUMENTTYPE: LC-ESI-ITFT
INSTRUMENT: 
COLLISIONENERGY: 30
Comment: registered in MassBank
Num Peaks: 19
281.35999	24
282.29999	27
283.17999	20
301.14001	33
303.19	27
328.82001	53
331.17999	12
394.23001	22
472.03	27
478.07999	22
479.98999	18
673.94	8
675.40997	100
676.41998	49
677.03003	22
682.95001	27
689.29999	1000
703.40002	10
713.52002	35

NAME: Sphingomyelin d18
PRECURSORMZ: 763.633463
PRECURSORTYPE: [M+CH3COO]-
FORMULA: C41H85N2O6P
Ontology: Phosphosphingolipids
INCHIKEY: JCELSEVNSMXGKA-PVXQIPPMSA-N
SMILES: CCCCCCCCCCCCCCCCCC(O)=N[C@H](COP([O-])(=O)OCC[N+](C)(C)C)[C@@H](O)CCCCCCCCCCCCCCC
RETENTIONTIME: 
CCS: -1
IONMODE: Negative
INSTRUMENTTYPE: LC-ESI-ITFT
INSTRUMENT: 
COLLISIONENERGY: 30
Comment: registered in MassBank
Num Peaks: 17
283.17999	5
283.91	16
285.10999	10
304.14999	6
418.98001	26
420.23999	19
421.13	30
439.16	6
458.17001	13
553.15002	9
700.85999	8
702.27002	52
703.10999	144
704.14001	258
704.92999	24
709.03998	6
717.40002	1000

NAME: Sphingomyelin d18
PRECURSORMZ: 733.586513
PRECURSORTYPE: [M+CH3COO]-
FORMULA: C39H79N2O6P
Ontology: Phosphosphingolipids
INCHIKEY: RWKUXQNLWDTSLO-KHDLYOHESA-N
SMILES: CCCCCCCCCCCCCCCC(O)=N[C@H](COP([O-])(=O)OCC[N+](C)(C)C)[C@@H](O)\C=C\CCCCCCCCCCCCC
RETENTIONTIME: 
CCS: -1
IONMODE: Negative
INSTRUMENTTYPE: LC-ESI-ITFT
INSTRUMENT: 
COLLISIONENERGY: 30
Comment: registered in MassBank
Num Peaks: 2
687.23999	1000
687.87	26

NAME: Sphingomyelin d18
PRECURSORMZ: 747.602163
PRECURSORTYPE: [M+CH3COO]-
FORMULA: C40H81N2O6P
Ontology: Phosphosphingolipids
INCHIKEY: YMQZQHIESOAPQH-QSTWNKESSA-N
SMILES: CCCCCCCCCCCCCCCCC(O)=N[C@H](COP([O-])(=O)OCC[N+](C)(C)C)[C@@H](O)\C=C\CCCCCCCCCCCCC
RETENTIONTIME: 
CCS: -1
IONMODE: Negative
INSTRUMENTTYPE: LC-ESI-ITFT
INSTRUMENT: 
COLLISIONENERGY: 30
Comment: registered in MassBank
Num Peaks: 19
251.23	15
280.70999	14
282.22	10
283.26001	56
286.32001	11
327.17001	12
329.20001	94
330.26999	25
363.14999	22
438.19	14
443.98999	9
445.28	11
462.01001	44
463.20999	42
464.10001	17
504.5	37
568.62	16
701.35999	1000
716.47998	9

NAME: Sphingomyelin d18
PRECURSORMZ: 761.617813
PRECURSORTYPE: [M+CH3COO]-
FORMULA: C41H83N2O6P
Ontology: Phosphosphingolipids
INCHIKEY: LKQLRGMMMAHREN-GDBDMVKWSA-N
SMILES: CCCCCCCCCCCCCCCCCC(O)=N[C@H](COP([O-])(=O)OCC[N+](C)(C)C)[C@@H](O)\C=C\CCCCCCCCCCCCC
RETENTIONTIME: 
CCS: -1
IONMODE: Negative
INSTRUMENTTYPE: LC-ESI-ITFT
INSTRUMENT: 
COLLISIONENERGY: 30
Comment: registered in MassBank
Num Peaks: 1
715.31	1000

NAME: Sphingomyelin d18
PRECURSORMZ: 817.680413
PRECURSORTYPE: [M+CH3COO]-
FORMULA: C45H91N2O6P
Ontology: Phosphosphingolipids
INCHIKEY: FJJANLYCZUNFSE-QVMKKYBKSA-N
SMILES: CCCCCCCCCCCCCCCCCCCCCC(O)=N[C@H](COP([O-])(=O)OCC[N+](C)(C)C)[C@@H](O)\C=C\CCCCCCCCCCCCC
RETENTIONTIME: 
CCS: -1
IONMODE: Negative
INSTRUMENTTYPE: LC-ESI-ITFT
INSTRUMENT: 
COLLISIONENERGY: 30
Comment: registered in MassBank
Num Peaks: 8
563.65997	8
644.66998	8
758.25	15
759.46002	8
766.20001	9
771.46002	1000
809.04999	33
814.32001	8

NAME: Sphingomyelin d18
PRECURSORMZ: 731.570863
PRECURSORTYPE: [M+CH3COO]-
FORMULA: C39H77N2O6P
Ontology: Phosphosphingolipids
INCHIKEY: RYPRHPLEPBYJJE-SFDSNHFWSA-N
SMILES: CCCCCCCCCCCCCCCC(O)=N[C@H](COP([O-])(=O)OCC[N+](C)(C)C)[C@@H](O)\C=C\CC\C=C\CCCCCCCCC
RETENTIONTIME: 
CCS: -1
IONMODE: Negative
INSTRUMENTTYPE: LC-ESI-ITFT
INSTRUMENT: 
COLLISIONENERGY: 30
Comment: registered in MassBank
Num Peaks: 6
253.10001	8
278.73001	55
435.95001	50
637.82001	38
685.28003	1000
700.21997	18

NAME: Sphingomyelin d18
PRECURSORMZ: 759.602163
PRECURSORTYPE: [M+CH3COO]-
FORMULA: C41H81N2O6P
Ontology: Phosphosphingolipids
INCHIKEY: GCHHFAWECQPLHL-KCJNDVAJSA-N
SMILES: CCCCCCCCCCCCCCCCCC(O)=N[C@H](COP([O-])(=O)OCC[N+](C)(C)C)[C@@H](O)\C=C\CC\C=C\CCCCCCCCC
RETENTIONTIME: 
CCS: -1
IONMODE: Negative
INSTRUMENTTYPE: LC-ESI-ITFT
INSTRUMENT: 
COLLISIONENERGY: 30
Comment: registered in MassBank
Num Peaks: 9
281.12	11
282.37	5
417.09	18
417.92999	14
699.15997	56
700.15002	169
701.26001	30
713.21002	1000
726.84998	9

NAME: Phosphatidylcholine 14
PRECURSORMZ: 736.549793
PRECURSORTYPE: [M+CH3COO]-
FORMULA: C38H76NO8P
Ontology: Phosphatidylcholines
INCHIKEY: RFVFQQWKPSOBED-UHFFFAOYNA-N
SMILES: CCCCCCCCCCCCCCCC(=O)OC(COC(=O)CCCCCCCCCCCCC)COP([O-])(=O)OCC[N+](C)(C)C
RETENTIONTIME: 
CCS: -1
IONMODE: Negative
INSTRUMENTTYPE: LC-ESI-ITFT
INSTRUMENT: 
COLLISIONENERGY: 30
Comment: registered in MassBank
Num Peaks: 29
231.25	12
251.14999	5
255.05	361
256.10999	33
258.89999	11
281.17999	136
281.97	6
284.20999	14
285.14999	95
286.25	13
301.10001	5
303.17001	253
303.94	28
310.95999	7
327.09	22
328.45999	85
329.10999	1000
330.13	93
434.23999	7
452.16	200
453.12	21
459.95001	7
478.19	70
478.98999	6
496.07001	13
497.23001	7
508.13	8
690.16998	426
764.40002	87

NAME: Phosphatidylcholine 14
PRECURSORMZ: 760.549793
PRECURSORTYPE: [M+CH3COO]-
FORMULA: C40H76NO8P
Ontology: Phosphatidylcholines
INCHIKEY: IYYGCMJPRHBGGS-FTRFHSPVNA-N
SMILES: CCCCCCCCCCCCCC(=O)OCC(COP([O-])(=O)OCC[N+](C)(C)C)OC(=O)CC\C=C/C\C=C/CCCCCCCCCC
RETENTIONTIME: 
CCS: -1
IONMODE: Negative
INSTRUMENTTYPE: LC-ESI-ITFT
INSTRUMENT: 
COLLISIONENERGY: 30
Comment: registered in MassBank
Num Peaks: 9
279.14999	12
281.23001	6
283.29999	12
325.03	6
327.76999	9
329.35001	6
714.17999	1000
715.20001	8
729.06	6

NAME: Phosphatidylcholine 14
PRECURSORMZ: 786.565443
PRECURSORTYPE: [M+CH3COO]-
FORMULA: C42H78NO8P
Ontology: Phosphatidylcholines
INCHIKEY: BYFLSLXMNRHKEZ-YVCMCYLKNA-N
SMILES: CCCCCCCCCCCCCC(=O)OCC(COP([O-])(=O)OCC[N+](C)(C)C)OC(=O)CC\C=C/C\C=C/C\C=C/CCCCCCCCC
RETENTIONTIME: 
CCS: -1
IONMODE: Negative
INSTRUMENTTYPE: LC-ESI-ITFT
INSTRUMENT: 
COLLISIONENERGY: 30
Comment: registered in MassBank
Num Peaks: 4
279.17001	17
740.15002	1000
764.13	870
765	32

NAME: Phosphatidylcholine 14
PRECURSORMZ: 784.549793
PRECURSORTYPE: [M+CH3COO]-
FORMULA: C42H76NO8P
Ontology: Phosphatidylcholines
INCHIKEY: LTAXKUDPWVWJJR-VONYRGFMNA-N
SMILES: CCCCCCCCCCCCCC(=O)OCC(COP([O-])(=O)OCC[N+](C)(C)C)OC(=O)CC\C=C/C\C=C/C\C=C/C\C=C/CCCCCC
RETENTIONTIME: 
CCS: -1
IONMODE: Negative
INSTRUMENTTYPE: LC-ESI-ITFT
INSTRUMENT: 
COLLISIONENERGY: 30
Comment: registered in MassBank
Num Peaks: 5
303.04999	10
453.14999	8
724.76001	16
738.19	1000
739.40002	7

NAME: Phosphatidylcholine 14
PRECURSORMZ: 782.534143
PRECURSORTYPE: [M+CH3COO]-
FORMULA: C42H74NO8P
Ontology: Phosphatidylcholines
INCHIKEY: WOZQMKGPSSBBKF-AKCCMISZNA-N
SMILES: CCCCCCCCCCCCCC(=O)OCC(COP([O-])(=O)OCC[N+](C)(C)C)OC(=O)CC\C=C/C\C=C/C\C=C/C\C=C/C\C=C/CCC
RETENTIONTIME: 
CCS: -1
IONMODE: Negative
INSTRUMENTTYPE: LC-ESI-ITFT
INSTRUMENT: 
COLLISIONENERGY: 30
Comment: registered in MassBank
Num Peaks: 10
419.25	79
499.09	28
711.53998	37
722.89001	22
727.03998	20
728.65002	14
736.15002	1000
737	14
751.22998	34
790.73999	20

NAME: Phosphatidylcholine 15
PRECURSORMZ: 750.565443
PRECURSORTYPE: [M+CH3COO]-
FORMULA: C39H78NO8P
Ontology: Phosphatidylcholines
INCHIKEY: LLHISNQVRRYJGL-UHFFFAOYNA-N
SMILES: CCCCCCCCCCCCCCCC(=O)OC(COC(=O)CCCCCCCCCCCCCC)COP([O-])(=O)OCC[N+](C)(C)C
RETENTIONTIME: 
CCS: -1
IONMODE: Negative
INSTRUMENTTYPE: LC-ESI-ITFT
INSTRUMENT: 
COLLISIONENERGY: 30
Comment: registered in MassBank
Num Peaks: 8
240.91	11
257.12	9
303.22	20
304.20001	6
466.01001	12
704.09998	1000
704.75	47
728.25	9

NAME: Phosphatidylcholine 15
PRECURSORMZ: 748.549793
PRECURSORTYPE: [M+CH3COO]-
FORMULA: C39H76NO8P
Ontology: Phosphatidylcholines
INCHIKEY: IHUFBQDVMMMJHR-SGEDCAFJNA-N
SMILES: CCCCCCCCCCCCCCC(=O)OCC(COP([O-])(=O)OCC[N+](C)(C)C)OC(=O)CC\C=C/CCCCCCCCCCC
RETENTIONTIME: 
CCS: -1
IONMODE: Negative
INSTRUMENTTYPE: LC-ESI-ITFT
INSTRUMENT: 
COLLISIONENERGY: 30
Comment: registered in MassBank
Num Peaks: 13
281.26999	56
284.48001	45
329.20999	22
572.13	78
647.40002	95
693.84998	34
694.46002	134
702.26001	1000
703.14001	45
712.84998	61
715.54999	56
716.58002	61
744.10999	67

NAME: Phosphatidylcholine 15
PRECURSORMZ: 774.565443
PRECURSORTYPE: [M+CH3COO]-
FORMULA: C41H78NO8P
Ontology: Phosphatidylcholines
INCHIKEY: OKOJVIBHOSGPIV-JSCMVKKRNA-N
SMILES: CCCCCCCCCCCCCCC(=O)OCC(COP([O-])(=O)OCC[N+](C)(C)C)OC(=O)CC\C=C/C\C=C/CCCCCCCCCC
RETENTIONTIME: 
CCS: -1
IONMODE: Negative
INSTRUMENTTYPE: LC-ESI-ITFT
INSTRUMENT: 
COLLISIONENERGY: 30
Comment: registered in MassBank
Num Peaks: 5
478.39999	8
728.08002	1000
728.78003	31
741.76001	36
745.51001	5

NAME: Phosphatidylcholine 15
PRECURSORMZ: 798.565443
PRECURSORTYPE: [M+CH3COO]-
FORMULA: C43H78NO8P
Ontology: Phosphatidylcholines
INCHIKEY: CLOJCJSOXWBGTM-BSBLZQCJNA-N
SMILES: CCCCCCCCCCCCCCC(=O)OCC(COP([O-])(=O)OCC[N+](C)(C)C)OC(=O)CC\C=C/C\C=C/C\C=C/C\C=C/CCCCCC
RETENTIONTIME: 
CCS: -1
IONMODE: Negative
INSTRUMENTTYPE: LC-ESI-ITFT
INSTRUMENT: 
COLLISIONENERGY: 30
Comment: registered in MassBank
Num Peaks: 9
438.51001	12
542.15002	12
702.72998	7
752.16998	1000
753.13	36
764.12	36
764.96997	46
766.16998	85
767.06	7

NAME: Phosphatidylcholine 15
PRECURSORMZ: 796.549793
PRECURSORTYPE: [M+CH3COO]-
FORMULA: C43H76NO8P
Ontology: Phosphatidylcholines
INCHIKEY: MFZQMCRGTGNKQM-KTWSQXGJNA-N
SMILES: CCCCCCCCCCCCCCC(=O)OCC(COP([O-])(=O)OCC[N+](C)(C)C)OC(=O)CC\C=C/C\C=C/C\C=C/C\C=C/C\C=C/CCC
RETENTIONTIME: 
CCS: -1
IONMODE: Negative
INSTRUMENTTYPE: LC-ESI-ITFT
INSTRUMENT: 
COLLISIONENERGY: 30
Comment: registered in MassBank
Num Peaks: 7
280.95001	10
417.35999	11
590.94	9
620.01001	8
742.72998	6
750.07001	1000
751.20001	73

NAME: Phosphatidylcholine 15
PRECURSORMZ: 822.565443
PRECURSORTYPE: [M+CH3COO]-
FORMULA: C45H78NO8P
Ontology: Phosphatidylcholines
INCHIKEY: GEINPYKZLFHHIL-BDWYRQGHNA-N
SMILES: CCCCCCCCCCCCCCC(=O)OCC(COP([O-])(=O)OCC[N+](C)(C)C)OC(=O)CC\C=C/C\C=C/C\C=C/C\C=C/C\C=C/C\C=C/CC
RETENTIONTIME: 
CCS: -1
IONMODE: Negative
INSTRUMENTTYPE: LC-ESI-ITFT
INSTRUMENT: 
COLLISIONENERGY: 30
Comment: registered in MassBank
Num Peaks: 7
327.29999	9
731.02002	5
776.08002	1000
776.71997	21
778.71002	9
791.32001	18
792.32001	6

NAME: Phosphatidylcholine 16
PRECURSORMZ: 764.581093
PRECURSORTYPE: [M+CH3COO]-
FORMULA: C40H80NO8P
Ontology: Phosphatidylcholines
INCHIKEY: KILNVBDSWZSGLL-UHFFFAOYNA-N
SMILES: CCCCCCCCCCCCCCCC(=O)OCC(COP([O-])(=O)OCC[N+](C)(C)C)OC(=O)CCCCCCCCCCCCCCC
RETENTIONTIME: 
CCS: -1
IONMODE: Negative
INSTRUMENTTYPE: LC-ESI-ITFT
INSTRUMENT: 
COLLISIONENERGY: 30
Comment: registered in MassBank
Num Peaks: 4
255.10001	6
283.19	6
718.15997	1000
733.12	7

NAME: Phosphatidylcholine 16
PRECURSORMZ: 762.565443
PRECURSORTYPE: [M+CH3COO]-
FORMULA: C40H78NO8P
Ontology: Phosphatidylcholines
INCHIKEY: QAFBBWZLSNOQGW-OHYPFYFLNA-N
SMILES: CCCCCCCCCCCCCCCC(=O)OCC(COP([O-])(=O)OCC[N+](C)(C)C)OC(=O)CC\C=C/CCCCCCCCCCC
RETENTIONTIME: 
CCS: -1
IONMODE: Negative
INSTRUMENTTYPE: LC-ESI-ITFT
INSTRUMENT: 
COLLISIONENERGY: 30
Comment: registered in MassBank
Num Peaks: 6
253.14999	7
281.16	12
327.98999	5
329.13	31
716.15997	1000
731.21002	6

NAME: Phosphatidylcholine 16
PRECURSORMZ: 790.596743
PRECURSORTYPE: [M+CH3COO]-
FORMULA: C42H82NO8P
Ontology: Phosphatidylcholines
INCHIKEY: QPHGOXQEXDWRIB-YCNYHXFENA-N
SMILES: CCCCCCCCCCCCCCCC(=O)OCC(COP([O-])(=O)OCC[N+](C)(C)C)OC(=O)CC\C=C/CCCCCCCCCCCCC
RETENTIONTIME: 
CCS: -1
IONMODE: Negative
INSTRUMENTTYPE: LC-ESI-ITFT
INSTRUMENT: 
COLLISIONENERGY: 30
Comment: registered in MassBank
Num Peaks: 3
281.10001	11
744.10999	1000
759.22998	8

NAME: Phosphatidylcholine 16
PRECURSORMZ: 788.581093
PRECURSORTYPE: [M+CH3COO]-
FORMULA: C42H80NO8P
Ontology: Phosphatidylcholines
INCHIKEY: PWJTWIQVMHNOLN-WGPKDLKGNA-N
SMILES: CCCCCCCCCCCCCCCC(=O)OCC(COP([O-])(=O)OCC[N+](C)(C)C)OC(=O)CC\C=C/C\C=C/CCCCCCCCCC
RETENTIONTIME: 
CCS: -1
IONMODE: Negative
INSTRUMENTTYPE: LC-ESI-ITFT
INSTRUMENT: 
COLLISIONENERGY: 30
Comment: registered in MassBank
Num Peaks: 2
279.20001	6
742.16998	1000

NAME: Phosphatidylcholine 16
PRECURSORMZ: 786.565443
PRECURSORTYPE: [M+CH3COO]-
FORMULA: C42H78NO8P
Ontology: Phosphatidylcholines
INCHIKEY: LTFQLMSVQQIRBG-YOKRUPNWNA-N
SMILES: CCCCCCCCCCCCCCCC(=O)OCC(COP([O-])(=O)OCC[N+](C)(C)C)OC(=O)CC\C=C/C\C=C/C\C=C/CCCCCCC
RETENTIONTIME: 
CCS: -1
IONMODE: Negative
INSTRUMENTTYPE: LC-ESI-ITFT
INSTRUMENT: 
COLLISIONENERGY: 30
Comment: registered in MassBank
Num Peaks: 4
277.10001	6
740.09998	1000
740.77002	5
754.94	5

NAME: Phosphatidylcholine 16
PRECURSORMZ: 814.596743
PRECURSORTYPE: [M+CH3COO]-
FORMULA: C44H82NO8P
Ontology: Phosphatidylcholines
INCHIKEY: XWDUIGPTBYOBBP-BQYMPCJENA-N
SMILES: CCCCCCCCCCCCCCCC(=O)OCC(COP([O-])(=O)OCC[N+](C)(C)C)OC(=O)CC\C=C/C\C=C/C\C=C/CCCCCCCCC
RETENTIONTIME: 
CCS: -1
IONMODE: Negative
INSTRUMENTTYPE: LC-ESI-ITFT
INSTRUMENT: 
COLLISIONENERGY: 30
Comment: registered in MassBank
Num Peaks: 5
305.09	8
768.15002	1000
768.78998	6
783.03998	6
792.15997	12

NAME: Phosphatidylcholine 16
PRECURSORMZ: 812.581093
PRECURSORTYPE: [M+CH3COO]-
FORMULA: C44H80NO8P
Ontology: Phosphatidylcholines
INCHIKEY: YRCYEVIWNSLKRF-RZUUUYDYNA-N
SMILES: CCCCCCCCCCCCCCCC(=O)OCC(COP([O-])(=O)OCC[N+](C)(C)C)OC(=O)CC\C=C/C\C=C/C\C=C/C\C=C/CCCCCC
RETENTIONTIME: 
CCS: -1
IONMODE: Negative
INSTRUMENTTYPE: LC-ESI-ITFT
INSTRUMENT: 
COLLISIONENERGY: 30
Comment: registered in MassBank
Num Peaks: 3
303.10001	6
766.09003	1000
781.13	5

NAME: Phosphatidylcholine 16
PRECURSORMZ: 810.565443
PRECURSORTYPE: [M+CH3COO]-
FORMULA: C44H78NO8P
Ontology: Phosphatidylcholines
INCHIKEY: RKFHFBWDNSYADY-SNIIIARXNA-N
SMILES: CCCCCCCCCCCCCCCC(=O)OCC(COP([O-])(=O)OCC[N+](C)(C)C)OC(=O)CC\C=C/C\C=C/C\C=C/C\C=C/C\C=C/CCC
RETENTIONTIME: 
CCS: -1
IONMODE: Negative
INSTRUMENTTYPE: LC-ESI-ITFT
INSTRUMENT: 
COLLISIONENERGY: 30
Comment: registered in MassBank
Num Peaks: 2
301.04001	6
764.15002	1000

NAME: Phosphatidylcholine 16
PRECURSORMZ: 838.596743
PRECURSORTYPE: [M+CH3COO]-
FORMULA: C46H82NO8P
Ontology: Phosphatidylcholines
INCHIKEY: MWXAIAMSOXOQJK-TZCDOOIHNA-N
SMILES: CCCCCCCCCCCCCCCC(=O)OCC(COP([O-])(=O)OCC[N+](C)(C)C)OC(=O)CC\C=C/C\C=C/C\C=C/C\C=C/C\C=C/CCCCC
RETENTIONTIME: 
CCS: -1
IONMODE: Negative
INSTRUMENTTYPE: LC-ESI-ITFT
INSTRUMENT: 
COLLISIONENERGY: 30
Comment: registered in MassBank
Num Peaks: 4
404.70001	9
791.57001	117
792.19	1000
848.08002	13

NAME: Phosphatidylcholine 16
PRECURSORMZ: 836.581093
PRECURSORTYPE: [M+CH3COO]-
FORMULA: C46H80NO8P
Ontology: Phosphatidylcholines
INCHIKEY: IESVDEZGAHUQJU-SYGPSSPWNA-N
SMILES: CCCCCCCCCCCCCCCC(=O)OCC(COP([O-])(=O)OCC[N+](C)(C)C)OC(=O)CC\C=C/C\C=C/C\C=C/C\C=C/C\C=C/C\C=C/CC
RETENTIONTIME: 
CCS: -1
IONMODE: Negative
INSTRUMENTTYPE: LC-ESI-ITFT
INSTRUMENT: 
COLLISIONENERGY: 30
Comment: registered in MassBank
Num Peaks: 2
327.26999	5
790.07001	1000

NAME: Phosphatidylcholine 16
PRECURSORMZ: 848.581093
PRECURSORTYPE: [M+CH3COO]-
FORMULA: C47H80NO8P
Ontology: Phosphatidylcholines
INCHIKEY: FXSXZNJPDJYSQF-YABKEOHFNA-N
SMILES: CCCCCCCCCCCCCCCC(=O)OCC(COP([O-])(=O)OCC[N+](C)(C)C)OC(=O)CC\C=C/C\C=C/C\C=C/C\C=C/C\C=C/C\C=C/CC=C
RETENTIONTIME: 
CCS: -1
IONMODE: Negative
INSTRUMENTTYPE: LC-ESI-ITFT
INSTRUMENT: 
COLLISIONENERGY: 30
Comment: registered in MassBank
Num Peaks: 4
788.09998	1000
802.17999	10
803.38	9
843.65997	8

NAME: Phosphatidylcholine 16
PRECURSORMZ: 760.549793
PRECURSORTYPE: [M+CH3COO]-
FORMULA: C40H76NO8P
Ontology: Phosphatidylcholines
INCHIKEY: SOUQZYYFGDCZOX-UKDOXLPINA-N
SMILES: CCCCCCCCCCC\C=C/CCC(=O)OCC(COP([O-])(=O)OCC[N+](C)(C)C)OC(=O)CC\C=C/CCCCCCCCCCC
RETENTIONTIME: 
CCS: -1
IONMODE: Negative
INSTRUMENTTYPE: LC-ESI-ITFT
INSTRUMENT: 
COLLISIONENERGY: 30
Comment: registered in MassBank
Num Peaks: 26
259.91	7
279.07999	158
280.16	150
281.09	141
282.56	24
283.25	149
284.10001	138
284.89999	28
286.38	12
303.06	31
304.26001	29
305.29001	15
310.14999	18
324.95999	7
326.89001	250
328.03	144
329.20999	87
476.20999	19
477.22	141
478.10999	22
491.48001	31
507.32001	74
712.04999	6
714.09998	1000
738.28003	175
765.21002	15

NAME: Phosphatidylcholine 16
PRECURSORMZ: 788.581093
PRECURSORTYPE: [M+CH3COO]-
FORMULA: C42H80NO8P
Ontology: Phosphatidylcholines
INCHIKEY: QNRBHVUJSHOYGI-BRMDCIMDNA-N
SMILES: CCCCCCCCCCCCC\C=C/CCC(=O)OC(COC(=O)CC\C=C/CCCCCCCCCCC)COP([O-])(=O)OCC[N+](C)(C)C
RETENTIONTIME: 
CCS: -1
IONMODE: Negative
INSTRUMENTTYPE: LC-ESI-ITFT
INSTRUMENT: 
COLLISIONENERGY: 30
Comment: registered in MassBank
Num Peaks: 9
252.81	6
280.76001	6
554.13	11
581.38	7
699.90997	7
742.08002	1000
742.97998	44
757.04999	6
766.06	45

NAME: Phosphatidylcholine 16
PRECURSORMZ: 786.565443
PRECURSORTYPE: [M+CH3COO]-
FORMULA: C42H78NO8P
Ontology: Phosphatidylcholines
INCHIKEY: XSSJXFBQZLYYFK-TVGXXSNYNA-N
SMILES: CCCCCCCCCCC\C=C/CCC(=O)OCC(COP([O-])(=O)OCC[N+](C)(C)C)OC(=O)CC\C=C/C\C=C/CCCCCCCCCC
RETENTIONTIME: 
CCS: -1
IONMODE: Negative
INSTRUMENTTYPE: LC-ESI-ITFT
INSTRUMENT: 
COLLISIONENERGY: 30
Comment: registered in MassBank
Num Peaks: 3
279.14001	10
740.09998	1000
755.08002	6

NAME: Phosphatidylcholine 16
PRECURSORMZ: 784.549793
PRECURSORTYPE: [M+CH3COO]-
FORMULA: C42H76NO8P
Ontology: Phosphatidylcholines
INCHIKEY: XIVMVZLGWNNXST-DGUBAHAQNA-N
SMILES: CCCCCCCCCCC\C=C/CCC(=O)OCC(COP([O-])(=O)OCC[N+](C)(C)C)OC(=O)CC\C=C/C\C=C/C\C=C/CCCCCCC
RETENTIONTIME: 
CCS: -1
IONMODE: Negative
INSTRUMENTTYPE: LC-ESI-ITFT
INSTRUMENT: 
COLLISIONENERGY: 30
Comment: registered in MassBank
Num Peaks: 22
259.06	8
261.28	7
284.23001	6
302.98001	40
304.14999	164
306.04001	20
326.79999	8
327.45999	33
328.20001	6
329.14999	26
377.35001	25
482.85999	12
487.20999	7
500.01999	33
525.14001	32
526.15997	7
549.40002	8
581.71997	7
738.15997	1000
739.37	10
762.08002	354
763.28998	22

NAME: Phosphatidylcholine 16
PRECURSORMZ: 810.565443
PRECURSORTYPE: [M+CH3COO]-
FORMULA: C44H78NO8P
Ontology: Phosphatidylcholines
INCHIKEY: QSBABJGBCMSZOL-RNVRRVRJNA-N
SMILES: CCCCCCCCCCC\C=C/CCC(=O)OCC(COP([O-])(=O)OCC[N+](C)(C)C)OC(=O)CC\C=C/C\C=C/C\C=C/C\C=C/CCCCCC
RETENTIONTIME: 
CCS: -1
IONMODE: Negative
INSTRUMENTTYPE: LC-ESI-ITFT
INSTRUMENT: 
COLLISIONENERGY: 30
Comment: registered in MassBank
Num Peaks: 6
303.07999	18
438.66	10
764.15002	1000
764.77002	15
779.06	6
788.21002	6

NAME: Phosphatidylcholine 16
PRECURSORMZ: 808.549793
PRECURSORTYPE: [M+CH3COO]-
FORMULA: C44H76NO8P
Ontology: Phosphatidylcholines
INCHIKEY: CRYGVKXXJSFPAW-VDGOIRDXNA-N
SMILES: CCCCCCCCCCC\C=C/CCC(=O)OCC(COP([O-])(=O)OCC[N+](C)(C)C)OC(=O)CC\C=C/C\C=C/C\C=C/C\C=C/C\C=C/CCC
RETENTIONTIME: 
CCS: -1
IONMODE: Negative
INSTRUMENTTYPE: LC-ESI-ITFT
INSTRUMENT: 
COLLISIONENERGY: 30
Comment: registered in MassBank
Num Peaks: 7
283.10001	15
633.71997	24
732.10999	15
749.25	11
750.20001	20
762.09998	1000
804.48999	7

NAME: Phosphatidylcholine 16
PRECURSORMZ: 834.565443
PRECURSORTYPE: [M+CH3COO]-
FORMULA: C46H78NO8P
Ontology: Phosphatidylcholines
INCHIKEY: ALJYHFIRPGURAF-DACYDXBYNA-N
SMILES: CCCCCCCCCCC\C=C/CCC(=O)OCC(COP([O-])(=O)OCC[N+](C)(C)C)OC(=O)CC\C=C/C\C=C/C\C=C/C\C=C/C\C=C/C\C=C/CC
RETENTIONTIME: 
CCS: -1
IONMODE: Negative
INSTRUMENTTYPE: LC-ESI-ITFT
INSTRUMENT: 
COLLISIONENERGY: 30
Comment: registered in MassBank
Num Peaks: 2
327.34	11
788.09998	1000

NAME: Phosphatidylcholine 17
PRECURSORMZ: 802.596743
PRECURSORTYPE: [M+CH3COO]-
FORMULA: C43H82NO8P
Ontology: Phosphatidylcholines
INCHIKEY: OQJXXHSQJJIDBN-QIPJBBGZNA-N
SMILES: CCCCCCCCCCCCCCCCC(=O)OCC(COP([O-])(=O)OCC[N+](C)(C)C)OC(=O)CC\C=C/C\C=C/CCCCCCCCCC
RETENTIONTIME: 
CCS: -1
IONMODE: Negative
INSTRUMENTTYPE: LC-ESI-ITFT
INSTRUMENT: 
COLLISIONENERGY: 30
Comment: registered in MassBank
Num Peaks: 3
279.13	7
756.14001	1000
771.14001	8

NAME: Phosphatidylcholine 17
PRECURSORMZ: 828.612393
PRECURSORTYPE: [M+CH3COO]-
FORMULA: C45H84NO8P
Ontology: Phosphatidylcholines
INCHIKEY: WONILIINQKCSNA-XXLZVXFVNA-N
SMILES: CCCCCCCCCCCCCCCCC(=O)OCC(COP([O-])(=O)OCC[N+](C)(C)C)OC(=O)CC\C=C/C\C=C/C\C=C/CCCCCCCCC
RETENTIONTIME: 
CCS: -1
IONMODE: Negative
INSTRUMENTTYPE: LC-ESI-ITFT
INSTRUMENT: 
COLLISIONENERGY: 30
Comment: registered in MassBank
Num Peaks: 11
283.14999	5
419.17999	28
507.09	5
591.44	5
769.58002	31
774.12	5
782.13	1000
782.85999	11
790.03998	7
796.26001	10
837.97998	7

NAME: Phosphatidylcholine 17
PRECURSORMZ: 826.596743
PRECURSORTYPE: [M+CH3COO]-
FORMULA: C45H82NO8P
Ontology: Phosphatidylcholines
INCHIKEY: YGNXCWOMJZJVBI-QEKDUOKRNA-N
SMILES: CCCCCCCCCCCCCCCCC(=O)OCC(COP([O-])(=O)OCC[N+](C)(C)C)OC(=O)CC\C=C/C\C=C/C\C=C/C\C=C/CCCCCC
RETENTIONTIME: 
CCS: -1
IONMODE: Negative
INSTRUMENTTYPE: LC-ESI-ITFT
INSTRUMENT: 
COLLISIONENERGY: 30
Comment: registered in MassBank
Num Peaks: 4
303.22	21
778.75	9
780.09998	1000
780.76001	10

NAME: Phosphatidylcholine 17
PRECURSORMZ: 824.581093
PRECURSORTYPE: [M+CH3COO]-
FORMULA: C45H80NO8P
Ontology: Phosphatidylcholines
INCHIKEY: QNXFYUSBFXCOSM-ZXKFMESCNA-N
SMILES: CCCCCCCCCCCCCCCCC(=O)OCC(COP([O-])(=O)OCC[N+](C)(C)C)OC(=O)CC\C=C/C\C=C/C\C=C/C\C=C/C\C=C/CCC
RETENTIONTIME: 
CCS: -1
IONMODE: Negative
INSTRUMENTTYPE: LC-ESI-ITFT
INSTRUMENT: 
COLLISIONENERGY: 30
Comment: registered in MassBank
Num Peaks: 9
268.85001	14
281.32001	68
284.85001	40
302.37	23
765.12	35
778.09003	1000
778.72998	72
792.01001	960
792.84003	47

NAME: Phosphatidylcholine 17
PRECURSORMZ: 850.596743
PRECURSORTYPE: [M+CH3COO]-
FORMULA: C47H82NO8P
Ontology: Phosphatidylcholines
INCHIKEY: KSRURLYJRNYEOH-CRVSLQDRNA-N
SMILES: CCCCCCCCCCCCCCCCC(=O)OCC(COP([O-])(=O)OCC[N+](C)(C)C)OC(=O)CC\C=C/C\C=C/C\C=C/C\C=C/C\C=C/C\C=C/CC
RETENTIONTIME: 
CCS: -1
IONMODE: Negative
INSTRUMENTTYPE: LC-ESI-ITFT
INSTRUMENT: 
COLLISIONENERGY: 30
Comment: registered in MassBank
Num Peaks: 5
306.09	13
741.78998	32
742.44	62
798.85999	34
804.14001	1000

NAME: Phosphatidylcholine 17
PRECURSORMZ: 800.581093
PRECURSORTYPE: [M+CH3COO]-
FORMULA: C43H80NO8P
Ontology: Phosphatidylcholines
INCHIKEY: FNRBLPPAKRRBCG-QGRKPBPINA-N
SMILES: CCCCCCCCCCCC\C=C/CCC(=O)OCC(COP([O-])(=O)OCC[N+](C)(C)C)OC(=O)CC\C=C/C\C=C/CCCCCCCCCC
RETENTIONTIME: 
CCS: -1
IONMODE: Negative
INSTRUMENTTYPE: LC-ESI-ITFT
INSTRUMENT: 
COLLISIONENERGY: 30
Comment: registered in MassBank
Num Peaks: 5
278.95999	10
740.15002	12
741.21002	9
754.13	1000
754.84998	9

NAME: Phosphatidylcholine 17
PRECURSORMZ: 848.581093
PRECURSORTYPE: [M+CH3COO]-
FORMULA: C47H80NO8P
Ontology: Phosphatidylcholines
INCHIKEY: ZOGZAROTKOYYRM-OOCWWCMUNA-N
SMILES: CCCCCCCCCCCC\C=C/CCC(=O)OCC(COP([O-])(=O)OCC[N+](C)(C)C)OC(=O)CC\C=C/C\C=C/C\C=C/C\C=C/C\C=C/C\C=C/CC
RETENTIONTIME: 
CCS: -1
IONMODE: Negative
INSTRUMENTTYPE: LC-ESI-ITFT
INSTRUMENT: 
COLLISIONENERGY: 30
Comment: registered in MassBank
Num Peaks: 1
802.26001	1000

NAME: Phosphatidylcholine 17
PRECURSORMZ: 798.565443
PRECURSORTYPE: [M+CH3COO]-
FORMULA: C43H78NO8P
Ontology: Phosphatidylcholines
INCHIKEY: GTDQVCDADITTFR-IXGWNOPWNA-N
SMILES: CCCCCCCCCC\C=C/C\C=C/CCC(=O)OC(COC(=O)CC\C=C/C\C=C/CCCCCCCCC)COP([O-])(=O)OCC[N+](C)(C)C
RETENTIONTIME: 
CCS: -1
IONMODE: Negative
INSTRUMENTTYPE: LC-ESI-ITFT
INSTRUMENT: 
COLLISIONENERGY: 30
Comment: registered in MassBank
Num Peaks: 9
255.03	15
347.01999	37
658.83002	26
728.46997	19
751.5	228
752.21997	1000
753.19	60
775.59998	37
776.35999	17

NAME: Phosphatidylcholine 18
PRECURSORMZ: 792.612393
PRECURSORTYPE: [M+CH3COO]-
FORMULA: C42H84NO8P
Ontology: Phosphatidylcholines
INCHIKEY: BYSIMVBIJVBVPA-UHFFFAOYNA-N
SMILES: CCCCCCCCCCCCCCCCCC(=O)OCC(COP([O-])(=O)OCC[N+](C)(C)C)OC(=O)CCCCCCCCCCCCCCC
RETENTIONTIME: 
CCS: -1
IONMODE: Negative
INSTRUMENTTYPE: LC-ESI-ITFT
INSTRUMENT: 
COLLISIONENERGY: 30
Comment: registered in MassBank
Num Peaks: 4
283.23001	5
329.10999	9
746.16998	1000
761.10999	8

NAME: Phosphatidylcholine 18
PRECURSORMZ: 818.628043
PRECURSORTYPE: [M+CH3COO]-
FORMULA: C44H86NO8P
Ontology: Phosphatidylcholines
INCHIKEY: OBRNLVIDOVBLPU-FPODKLOTNA-N
SMILES: CCCCCCCCCCCCCCCCCC(=O)OCC(COP([O-])(=O)OCC[N+](C)(C)C)OC(=O)CC\C=C/CCCCCCCCCCCCC
RETENTIONTIME: 
CCS: -1
IONMODE: Negative
INSTRUMENTTYPE: LC-ESI-ITFT
INSTRUMENT: 
COLLISIONENERGY: 30
Comment: registered in MassBank
Num Peaks: 3
281.25	10
283.38	5
772.22998	1000

NAME: Phosphatidylcholine 18
PRECURSORMZ: 816.612393
PRECURSORTYPE: [M+CH3COO]-
FORMULA: C44H84NO8P
Ontology: Phosphatidylcholines
INCHIKEY: BHAATSGDDOXMJD-FOXSRGEXNA-N
SMILES: CCCCCCCCCCCCCCCCCC(=O)OCC(COP([O-])(=O)OCC[N+](C)(C)C)OC(=O)CC\C=C/C\C=C/CCCCCCCCCC
RETENTIONTIME: 
CCS: -1
IONMODE: Negative
INSTRUMENTTYPE: LC-ESI-ITFT
INSTRUMENT: 
COLLISIONENERGY: 30
Comment: registered in MassBank
Num Peaks: 2
770.15002	1000
785.12	6

NAME: Phosphatidylcholine 18
PRECURSORMZ: 814.596743
PRECURSORTYPE: [M+CH3COO]-
FORMULA: C44H82NO8P
Ontology: Phosphatidylcholines
INCHIKEY: FAUTUPCMPPIYHO-UEZFOCAYNA-N
SMILES: CCCCCCCCCCCCCCCCCC(=O)OCC(COP([O-])(=O)OCC[N+](C)(C)C)OC(=O)CC\C=C/C\C=C/C\C=C/CCCCCCC
RETENTIONTIME: 
CCS: -1
IONMODE: Negative
INSTRUMENTTYPE: LC-ESI-ITFT
INSTRUMENT: 
COLLISIONENERGY: 30
Comment: registered in MassBank
Num Peaks: 3
768.17999	1000
774.34003	10
783.15997	13

NAME: Phosphatidylcholine 18
PRECURSORMZ: 844.643694
PRECURSORTYPE: [M+CH3COO]-
FORMULA: C46H88NO8P
Ontology: Phosphatidylcholines
INCHIKEY: QLAPQVPZKNRKSF-ZUOCNPMVNA-N
SMILES: CCCCCCCCCCCCCCCCCC(=O)OCC(COP([O-])(=O)OCC[N+](C)(C)C)OC(=O)CC\C=C/C\C=C/CCCCCCCCCCCC
RETENTIONTIME: 
CCS: -1
IONMODE: Negative
INSTRUMENTTYPE: LC-ESI-ITFT
INSTRUMENT: 
COLLISIONENERGY: 30
Comment: registered in MassBank
Num Peaks: 7
785.34998	62
795.27002	62
797.64001	37
798.29999	1000
811.96002	31
821.91998	31
822.56	68

NAME: Phosphatidylcholine 18
PRECURSORMZ: 842.628043
PRECURSORTYPE: [M+CH3COO]-
FORMULA: C46H86NO8P
Ontology: Phosphatidylcholines
INCHIKEY: JKGNHUXTJMEAQU-YDXMYUDNNA-N
SMILES: CCCCCCCCCCCCCCCCCC(=O)OCC(COP([O-])(=O)OCC[N+](C)(C)C)OC(=O)CC\C=C/C\C=C/C\C=C/CCCCCCCCC
RETENTIONTIME: 
CCS: -1
IONMODE: Negative
INSTRUMENTTYPE: LC-ESI-ITFT
INSTRUMENT: 
COLLISIONENERGY: 30
Comment: registered in MassBank
Num Peaks: 4
305.01999	9
795.62	122
796.25	1000
811.23999	9

NAME: Phosphatidylcholine 18
PRECURSORMZ: 840.612393
PRECURSORTYPE: [M+CH3COO]-
FORMULA: C46H84NO8P
Ontology: Phosphatidylcholines
INCHIKEY: FALSXTSFRXGEBP-KKHNUOCRNA-N
SMILES: CCCCCCCCCCCCCCCCCC(=O)OCC(COP([O-])(=O)OCC[N+](C)(C)C)OC(=O)CC\C=C/C\C=C/C\C=C/C\C=C/CCCCCC
RETENTIONTIME: 
CCS: -1
IONMODE: Negative
INSTRUMENTTYPE: LC-ESI-ITFT
INSTRUMENT: 
COLLISIONENERGY: 30
Comment: registered in MassBank
Num Peaks: 1
794.19	1000

NAME: Phosphatidylcholine 18
PRECURSORMZ: 838.596743
PRECURSORTYPE: [M+CH3COO]-
FORMULA: C46H82NO8P
Ontology: Phosphatidylcholines
INCHIKEY: QFBBGGXUDNWUMX-NBFUFYKZNA-N
SMILES: CCCCCCCCCCCCCCCCCC(=O)OCC(COP([O-])(=O)OCC[N+](C)(C)C)OC(=O)CC\C=C/C\C=C/C\C=C/C\C=C/C\C=C/CCC
RETENTIONTIME: 
CCS: -1
IONMODE: Negative
INSTRUMENTTYPE: LC-ESI-ITFT
INSTRUMENT: 
COLLISIONENERGY: 30
Comment: registered in MassBank
Num Peaks: 4
584.06	8
779.12	6
792.13	1000
807.20001	12

NAME: Phosphatidylcholine 18
PRECURSORMZ: 866.628043
PRECURSORTYPE: [M+CH3COO]-
FORMULA: C48H86NO8P
Ontology: Phosphatidylcholines
INCHIKEY: GLPAGCOJQYNMCC-QBFOOBQRNA-N
SMILES: CCCCCCCCCCCCCCCCCC(=O)OCC(COP([O-])(=O)OCC[N+](C)(C)C)OC(=O)CC\C=C/C\C=C/C\C=C/C\C=C/C\C=C/CCCCC
RETENTIONTIME: 
CCS: -1
IONMODE: Negative
INSTRUMENTTYPE: LC-ESI-ITFT
INSTRUMENT: 
COLLISIONENERGY: 30
Comment: registered in MassBank
Num Peaks: 11
329.14001	9
442.94	6
548.17999	26
569.77002	6
749.10999	8
754.17999	17
806.26001	10
814.78003	10
818.87	16
819.63	70
820.26001	1000

NAME: Phosphatidylcholine 18
PRECURSORMZ: 864.612393
PRECURSORTYPE: [M+CH3COO]-
FORMULA: C48H84NO8P
Ontology: Phosphatidylcholines
INCHIKEY: FAUYAENFVCNTAL-UFTZFNJNNA-N
SMILES: CCCCCCCCCCCCCCCCCC(=O)OCC(COP([O-])(=O)OCC[N+](C)(C)C)OC(=O)CC\C=C/C\C=C/C\C=C/C\C=C/C\C=C/C\C=C/CC
RETENTIONTIME: 
CCS: -1
IONMODE: Negative
INSTRUMENTTYPE: LC-ESI-ITFT
INSTRUMENT: 
COLLISIONENERGY: 30
Comment: registered in MassBank
Num Peaks: 2
818.07001	1000
818.79999	26

NAME: Phosphatidylcholine 18
PRECURSORMZ: 814.596743
PRECURSORTYPE: [M+CH3COO]-
FORMULA: C44H82NO8P
Ontology: Phosphatidylcholines
INCHIKEY: HZHAEVXGLQPJBM-KJZSVCAKNA-N
SMILES: CCCCCCCCCCCCC\C=C/CCC(=O)OCC(COP([O-])(=O)OCC[N+](C)(C)C)OC(=O)CC\C=C/C\C=C/CCCCCCCCCC
RETENTIONTIME: 
CCS: -1
IONMODE: Negative
INSTRUMENTTYPE: LC-ESI-ITFT
INSTRUMENT: 
COLLISIONENERGY: 30
Comment: registered in MassBank
Num Peaks: 4
279.17999	6
768.09998	1000
783.09998	6
792.04999	10

NAME: Phosphatidylcholine 18
PRECURSORMZ: 838.596743
PRECURSORTYPE: [M+CH3COO]-
FORMULA: C46H82NO8P
Ontology: Phosphatidylcholines
INCHIKEY: HYDKDXOLAXLJKA-ICTLDNOWNA-N
SMILES: CCCCCCCCCCCCC\C=C/CCC(=O)OCC(COP([O-])(=O)OCC[N+](C)(C)C)OC(=O)CC\C=C/C\C=C/C\C=C/C\C=C/CCCCCC
RETENTIONTIME: 
CCS: -1
IONMODE: Negative
INSTRUMENTTYPE: LC-ESI-ITFT
INSTRUMENT: 
COLLISIONENERGY: 30
Comment: registered in MassBank
Num Peaks: 5
536.5	14
774.13	14
778.71997	43
792.13	1000
848.02002	55

NAME: Phosphatidylcholine 18
PRECURSORMZ: 862.596743
PRECURSORTYPE: [M+CH3COO]-
FORMULA: C48H82NO8P
Ontology: Phosphatidylcholines
INCHIKEY: SXQSZXLPXRGKHG-SUMKQPSKNA-N
SMILES: CCCCCCCCCCCCC\C=C/CCC(=O)OCC(COP([O-])(=O)OCC[N+](C)(C)C)OC(=O)CC\C=C/C\C=C/C\C=C/C\C=C/C\C=C/C\C=C/CC
RETENTIONTIME: 
CCS: -1
IONMODE: Negative
INSTRUMENTTYPE: LC-ESI-ITFT
INSTRUMENT: 
COLLISIONENERGY: 30
Comment: registered in MassBank
Num Peaks: 2
816.15997	1000
830.98999	10

NAME: Phosphatidylcholine 18
PRECURSORMZ: 838.596743
PRECURSORTYPE: [M+CH3COO]-
FORMULA: C46H82NO8P
Ontology: Phosphatidylcholines
INCHIKEY: IIFIFYHDUBTVOC-YJECRCNZNA-N
SMILES: CCCCCCCCCC\C=C/C\C=C/CCC(=O)OCC(COP([O-])(=O)OCC[N+](C)(C)C)OC(=O)CC\C=C/C\C=C/C\C=C/CCCCCCCCC
RETENTIONTIME: 
CCS: -1
IONMODE: Negative
INSTRUMENTTYPE: LC-ESI-ITFT
INSTRUMENT: 
COLLISIONENERGY: 30
Comment: registered in MassBank
Num Peaks: 2
258.98001	71
792.15002	1000

NAME: Phosphatidylcholine 18
PRECURSORMZ: 834.565443
PRECURSORTYPE: [M+CH3COO]-
FORMULA: C46H78NO8P
Ontology: Phosphatidylcholines
INCHIKEY: XAYMJCDXSDRVCT-KHVPVUJCNA-N
SMILES: CCCCCCCCCC\C=C/C\C=C/CCC(=O)OCC(COP([O-])(=O)OCC[N+](C)(C)C)OC(=O)CC\C=C/C\C=C/C\C=C/C\C=C/C\C=C/CCC
RETENTIONTIME: 
CCS: -1
IONMODE: Negative
INSTRUMENTTYPE: LC-ESI-ITFT
INSTRUMENT: 
COLLISIONENERGY: 30
Comment: registered in MassBank
Num Peaks: 2
303.32001	7
788.09003	1000

NAME: Phosphatidylcholine 18
PRECURSORMZ: 810.565443
PRECURSORTYPE: [M+CH3COO]-
FORMULA: C44H78NO8P
Ontology: Phosphatidylcholines
INCHIKEY: JEJPTXPTKMRSCT-VNUOCOMJNA-N
SMILES: CCCCCCCCCC\C=C/C\C=C/CCC(=O)OC(COC(=O)CC\C=C/C\C=C/C\C=C/CCCCCCC)COP([O-])(=O)OCC[N+](C)(C)C
RETENTIONTIME: 
CCS: -1
IONMODE: Negative
INSTRUMENTTYPE: LC-ESI-ITFT
INSTRUMENT: 
COLLISIONENERGY: 30
Comment: registered in MassBank
Num Peaks: 5
277.22	6
501.95999	6
763.38	52
764.14001	1000
788.02002	94

NAME: Phosphatidylcholine 19
PRECURSORMZ: 832.643694
PRECURSORTYPE: [M+CH3COO]-
FORMULA: C45H88NO8P
Ontology: Phosphatidylcholines
INCHIKEY: QKEFIMCGHFOKRT-YJKCNMNRNA-N
SMILES: CCCCCCCCCCCCCCCCCCC(=O)OCC(COP([O-])(=O)OCC[N+](C)(C)C)OC(=O)CC\C=C/CCCCCCCCCCCCC
RETENTIONTIME: 
CCS: -1
IONMODE: Negative
INSTRUMENTTYPE: LC-ESI-ITFT
INSTRUMENT: 
COLLISIONENERGY: 30
Comment: registered in MassBank
Num Peaks: 7
311.22	12
419.03	12
770.64001	12
786.15002	1000
798.69	55
824.03998	31
825.31	31

NAME: Phosphatidylcholine 19
PRECURSORMZ: 830.628043
PRECURSORTYPE: [M+CH3COO]-
FORMULA: C45H86NO8P
Ontology: Phosphatidylcholines
INCHIKEY: BESSFRQTRGTUBA-XJKRCVSZNA-N
SMILES: CCCCCCCCCCCCCCCCCCC(=O)OCC(COP([O-])(=O)OCC[N+](C)(C)C)OC(=O)CC\C=C/C\C=C/CCCCCCCCCC
RETENTIONTIME: 
CCS: -1
IONMODE: Negative
INSTRUMENTTYPE: LC-ESI-ITFT
INSTRUMENT: 
COLLISIONENERGY: 30
Comment: registered in MassBank
Num Peaks: 6
279.03	5
297.32001	6
776.10999	5
784.17999	1000
784.84998	5
799.06	6

NAME: Phosphatidylcholine 19
PRECURSORMZ: 878.628043
PRECURSORTYPE: [M+CH3COO]-
FORMULA: C49H86NO8P
Ontology: Phosphatidylcholines
INCHIKEY: MCBZZOAHAMROOU-DSFOIJQZNA-N
SMILES: CCCCCCCCCCCCCCCCCCC(=O)OCC(COP([O-])(=O)OCC[N+](C)(C)C)OC(=O)CC\C=C/C\C=C/C\C=C/C\C=C/C\C=C/C\C=C/CC
RETENTIONTIME: 
CCS: -1
IONMODE: Negative
INSTRUMENTTYPE: LC-ESI-ITFT
INSTRUMENT: 
COLLISIONENERGY: 30
Comment: registered in MassBank
Num Peaks: 4
418.10999	12
831.5	12
832.14001	1000
869.89001	10

NAME: Phosphatidylcholine 19
PRECURSORMZ: 828.612393
PRECURSORTYPE: [M+CH3COO]-
FORMULA: C45H84NO8P
Ontology: Phosphatidylcholines
INCHIKEY: BLCTXUGKOYYBFA-DFWRNDSJNA-N
SMILES: CCCCCCCCCCCCCC\C=C/CCC(=O)OCC(COP([O-])(=O)OCC[N+](C)(C)C)OC(=O)CC\C=C/C\C=C/CCCCCCCCCC
RETENTIONTIME: 
CCS: -1
IONMODE: Negative
INSTRUMENTTYPE: LC-ESI-ITFT
INSTRUMENT: 
COLLISIONENERGY: 30
Comment: registered in MassBank
Num Peaks: 24
262.22	43
283.14999	416
284.17001	65
327.10001	120
418.62	95
419.26999	473
420.20001	98
437.37	54
462.92999	106
463.79999	79
506.42999	57
546.08002	1000
546.97998	71
572.29999	35
590.03003	549
591.15002	38
764.15997	35
768.95001	935
770.10999	410
774.19	46
780.53998	22
781.58002	144
782.21997	924
821.38	30

NAME: Phosphatidylcholine 20
PRECURSORMZ: 844.643694
PRECURSORTYPE: [M+CH3COO]-
FORMULA: C46H88NO8P
Ontology: Phosphatidylcholines
INCHIKEY: GUNFNSQQERLYDH-ZUOCNPMVNA-N
SMILES: CCCCCCCCCCCCCCCCCCCC(=O)OCC(COP([O-])(=O)OCC[N+](C)(C)C)OC(=O)CC\C=C/C\C=C/CCCCCCCCCC
RETENTIONTIME: 
CCS: -1
IONMODE: Negative
INSTRUMENTTYPE: LC-ESI-ITFT
INSTRUMENT: 
COLLISIONENERGY: 30
Comment: registered in MassBank
Num Peaks: 1
798.22998	1000

NAME: Phosphatidylcholine 20
PRECURSORMZ: 868.643694
PRECURSORTYPE: [M+CH3COO]-
FORMULA: C48H88NO8P
Ontology: Phosphatidylcholines
INCHIKEY: LKDQVYYANCMMNT-CTMZMWSNNA-N
SMILES: CCCCCCCCCCCCCCCCCCCC(=O)OCC(COP([O-])(=O)OCC[N+](C)(C)C)OC(=O)CC\C=C/C\C=C/C\C=C/C\C=C/CCCCCC
RETENTIONTIME: 
CCS: -1
IONMODE: Negative
INSTRUMENTTYPE: LC-ESI-ITFT
INSTRUMENT: 
COLLISIONENERGY: 30
Comment: registered in MassBank
Num Peaks: 2
809.40002	43
822.20001	1000

NAME: Phosphatidylcholine 20
PRECURSORMZ: 892.643694
PRECURSORTYPE: [M+CH3COO]-
FORMULA: C50H88NO8P
Ontology: Phosphatidylcholines
INCHIKEY: WAFWSBFKIPCFOF-ZOHKZEOUNA-N
SMILES: CCCCCCCCCCCCCCCCCCCC(=O)OCC(COP([O-])(=O)OCC[N+](C)(C)C)OC(=O)CC\C=C/C\C=C/C\C=C/C\C=C/C\C=C/C\C=C/CC
RETENTIONTIME: 
CCS: -1
IONMODE: Negative
INSTRUMENTTYPE: LC-ESI-ITFT
INSTRUMENT: 
COLLISIONENERGY: 30
Comment: registered in MassBank
Num Peaks: 3
455.88	43
794.21002	28
846.16998	1000

NAME: Phosphatidylcholine 20
PRECURSORMZ: 890.628043
PRECURSORTYPE: [M+CH3COO]-
FORMULA: C50H86NO8P
Ontology: Phosphatidylcholines
INCHIKEY: NDXZRODTPALTBU-HCJNTHTKNA-N
SMILES: CCCCCCCCCCCCCCC\C=C/CCC(=O)OCC(COP([O-])(=O)OCC[N+](C)(C)C)OC(=O)CC\C=C/C\C=C/C\C=C/C\C=C/C\C=C/C\C=C/CC
RETENTIONTIME: 
CCS: -1
IONMODE: Negative
INSTRUMENTTYPE: LC-ESI-ITFT
INSTRUMENT: 
COLLISIONENERGY: 30
Comment: registered in MassBank
Num Peaks: 3
844.16998	1000
857.76001	157
861.47998	354

NAME: Phosphatidylcholine 20
PRECURSORMZ: 888.612393
PRECURSORTYPE: [M+CH3COO]-
FORMULA: C50H84NO8P
Ontology: Phosphatidylcholines
INCHIKEY: IFGVQRXZWAJKEC-BXNVUMEENA-N
SMILES: CCCCCCCCCCCC\C=C/C\C=C/CCC(=O)OCC(COP([O-])(=O)OCC[N+](C)(C)C)OC(=O)CC\C=C/C\C=C/C\C=C/C\C=C/C\C=C/C\C=C/CC
RETENTIONTIME: 
CCS: -1
IONMODE: Negative
INSTRUMENTTYPE: LC-ESI-ITFT
INSTRUMENT: 
COLLISIONENERGY: 30
Comment: registered in MassBank
Num Peaks: 1
842.17999	1000

NAME: Phosphatidylcholine 22
PRECURSORMZ: 872.674994
PRECURSORTYPE: [M+CH3COO]-
FORMULA: C48H92NO8P
Ontology: Phosphatidylcholines
INCHIKEY: WRWYRAWKRKLJLU-VTFKHGFONA-N
SMILES: CCCCCCCCCCCCCCCCCCCCCC(=O)OCC(COP([O-])(=O)OCC[N+](C)(C)C)OC(=O)CC\C=C/C\C=C/CCCCCCCCCC
RETENTIONTIME: 
CCS: -1
IONMODE: Negative
INSTRUMENTTYPE: LC-ESI-ITFT
INSTRUMENT: 
COLLISIONENERGY: 30
Comment: registered in MassBank
Num Peaks: 4
636.40002	22
736.73999	41
825.63	32
826.23999	1000

NAME: Phosphatidylcholine alkenyl 16
PRECURSORMZ: 748.586179
PRECURSORTYPE: [M+CH3COO]-
FORMULA: C40H80NO7P
Ontology: 1-(1Z-alkenyl),2-acyl-glycerophosphocholines
INCHIKEY: PEWXKAOBUSBJLD-LVYIWIAJNA-N
SMILES: CCCCCCCCCCCCCCCC(=O)OC(CO\C=C\CCCCCCCCCCCCCC)COP([O-])(=O)OCC[N+](C)(C)C
RETENTIONTIME: 
CCS: -1
IONMODE: Negative
INSTRUMENTTYPE: LC-ESI-ITFT
INSTRUMENT: 
COLLISIONENERGY: 30
Comment: registered in MassBank
Num Peaks: 21
228.97	5
231.12	13
283.20001	67
284.14001	16
285.17001	96
286.22	16
327.17999	121
329.07999	1000
330.17999	108
403.31	7
446.17001	68
447.04001	8
447.94	14
464.12	431
465.19	59
466.17001	156
467.23001	9
661.79999	6
685.83002	8
702.19	234
712.78998	6

NAME: Phosphatidylcholine alkenyl 16
PRECURSORMZ: 796.586179
PRECURSORTYPE: [M+CH3COO]-
FORMULA: C44H80NO7P
Ontology: 1-(1Z-alkenyl),2-acyl-glycerophosphocholines
INCHIKEY: WPFUZBNWEKXHJI-TUJGGYRWNA-N
SMILES: CCCCCCCCCCCCCC\C=C\OCC(COP([O-])(=O)OCC[N+](C)(C)C)OC(=O)CC\C=C/C\C=C/C\C=C/C\C=C/CCCCCC
RETENTIONTIME: 
CCS: -1
IONMODE: Negative
INSTRUMENTTYPE: LC-ESI-ITFT
INSTRUMENT: 
COLLISIONENERGY: 30
Comment: registered in MassBank
Num Peaks: 8
281.13	9
302.85001	10
737.32001	6
742.15002	6
746.67999	7
750.09998	1000
765.45001	9
768.25	5

NAME: Phosphatidylcholine alkenyl 16
PRECURSORMZ: 820.586179
PRECURSORTYPE: [M+CH3COO]-
FORMULA: C46H80NO7P
Ontology: 1-(1Z-alkenyl),2-acyl-glycerophosphocholines
INCHIKEY: QICWUUGBNFIZAZ-OUHBEAGRNA-N
SMILES: CCCCCCCCCCCCCC\C=C\OCC(COP([O-])(=O)OCC[N+](C)(C)C)OC(=O)CC\C=C/C\C=C/C\C=C/C\C=C/C\C=C/C\C=C/CC
RETENTIONTIME: 
CCS: -1
IONMODE: Negative
INSTRUMENTTYPE: LC-ESI-ITFT
INSTRUMENT: 
COLLISIONENERGY: 30
Comment: registered in MassBank
Num Peaks: 3
585.90002	6
774.09998	1000
774.78003	6

NAME: Phosphatidylcholine alkenyl 18
PRECURSORMZ: 824.617479
PRECURSORTYPE: [M+CH3COO]-
FORMULA: C46H84NO7P
Ontology: 1-(1Z-alkenyl),2-acyl-glycerophosphocholines
INCHIKEY: HCYYHDMAKLYNDP-AYYWLCDQNA-N
SMILES: CCCCCCCCCCCCCCCC\C=C\OCC(COP([O-])(=O)OCC[N+](C)(C)C)OC(=O)CC\C=C/C\C=C/C\C=C/C\C=C/CCCCCC
RETENTIONTIME: 
CCS: -1
IONMODE: Negative
INSTRUMENTTYPE: LC-ESI-ITFT
INSTRUMENT: 
COLLISIONENERGY: 30
Comment: registered in MassBank
Num Peaks: 7
388.95999	17
589.63	34
643.65997	14
742.06	96
743.32001	17
778.16998	1000
778.85999	25

NAME: Phosphatidylcholine alkyl 16
PRECURSORMZ: 750.601829
PRECURSORTYPE: [M+CH3COO]-
FORMULA: C40H82NO7P
Ontology: 1-alkyl,2-acylglycero-3-phosphocholines
INCHIKEY: WOTHHEHCEYHCFE-UHFFFAOYNA-N
SMILES: CCCCCCCCCCCCCCCCOCC(COP([O-])(=O)OCC[N+](C)(C)C)OC(=O)CCCCCCCCCCCCCCC
RETENTIONTIME: 
CCS: -1
IONMODE: Negative
INSTRUMENTTYPE: LC-ESI-ITFT
INSTRUMENT: 
COLLISIONENERGY: 30
Comment: registered in MassBank
Num Peaks: 15
285.35999	23
323.20001	8
329.03	211
330.12	28
359.34	10
416.82999	8
436.31	8
446.42001	11
447.92999	14
466.34	117
467.45001	16
574.96002	6
679.38	13
704.28003	1000
718.37	15

NAME: Phosphatidylcholine alkyl 16
PRECURSORMZ: 774.601829
PRECURSORTYPE: [M+CH3COO]-
FORMULA: C42H82NO7P
Ontology: 1-alkyl,2-acylglycero-3-phosphocholines
INCHIKEY: CBJWWPFFZRSLMX-WGPKDLKGNA-N
SMILES: CCCCCCCCCCCCCCCCOCC(COP([O-])(=O)OCC[N+](C)(C)C)OC(=O)CC\C=C/C\C=C/CCCCCCCCCC
RETENTIONTIME: 
CCS: -1
IONMODE: Negative
INSTRUMENTTYPE: LC-ESI-ITFT
INSTRUMENT: 
COLLISIONENERGY: 30
Comment: registered in MassBank
Num Peaks: 4
297.03	9
339.06	17
728.23999	1000
729.26001	5

NAME: Phosphatidylcholine alkyl 16
PRECURSORMZ: 798.601829
PRECURSORTYPE: [M+CH3COO]-
FORMULA: C44H82NO7P
Ontology: 1-alkyl,2-acylglycero-3-phosphocholines
INCHIKEY: MHOAZZSMGQCHNX-GJWWTBRZNA-N
SMILES: CCCCCCCCCCCCCCCCOCC(COP([O-])(=O)OCC[N+](C)(C)C)OC(=O)CC\C=C/C\C=C/C\C=C/C\C=C/CCCCCC
RETENTIONTIME: 
CCS: -1
IONMODE: Negative
INSTRUMENTTYPE: LC-ESI-ITFT
INSTRUMENT: 
COLLISIONENERGY: 30
Comment: registered in MassBank
Num Peaks: 8
303.09	10
357.20999	8
728.21002	14
752.15002	1000
753.03998	25
765.83002	7
767.41998	9
806.28003	5

NAME: Phosphatidylcholine alkyl 16
PRECURSORMZ: 824.617479
PRECURSORTYPE: [M+CH3COO]-
FORMULA: C46H84NO7P
Ontology: 1-alkyl,2-acylglycero-3-phosphocholines
INCHIKEY: JMQLAFWVISATAG-PEUCRCJUNA-N
SMILES: CCCCCCCCCCCCCCCCOCC(COP([O-])(=O)OCC[N+](C)(C)C)OC(=O)CC\C=C/C\C=C/C\C=C/C\C=C/C\C=C/CCCCC
RETENTIONTIME: 
CCS: -1
IONMODE: Negative
INSTRUMENTTYPE: LC-ESI-ITFT
INSTRUMENT: 
COLLISIONENERGY: 30
Comment: registered in MassBank
Num Peaks: 4
303.95999	12
423.95999	6
542.67999	18
778.26001	1000

NAME: Phosphatidylcholine alkyl 16
PRECURSORMZ: 822.601829
PRECURSORTYPE: [M+CH3COO]-
FORMULA: C46H82NO7P
Ontology: 1-alkyl,2-acylglycero-3-phosphocholines
INCHIKEY: QQQQNYAHSSIZBU-XTQGPSINNA-N
SMILES: CCCCCCCCCCCCCCCCOCC(COP([O-])(=O)OCC[N+](C)(C)C)OC(=O)CC\C=C/C\C=C/C\C=C/C\C=C/C\C=C/C\C=C/CC
RETENTIONTIME: 
CCS: -1
IONMODE: Negative
INSTRUMENTTYPE: LC-ESI-ITFT
INSTRUMENT: 
COLLISIONENERGY: 30
Comment: registered in MassBank
Num Peaks: 8
327.09	12
458.54999	15
466.29001	9
735.72998	6
768.15997	30
776.17999	1000
790.39001	14
791.23999	6

NAME: Phosphatidylcholine alkyl 18
PRECURSORMZ: 778.633129
PRECURSORTYPE: [M+CH3COO]-
FORMULA: C42H86NO7P
Ontology: 1-alkyl,2-acylglycero-3-phosphocholines
INCHIKEY: GTFLTTXDLGEBAI-UHFFFAOYNA-N
SMILES: CCCCCCCCCCCCCCCCCCOCC(COP([O-])(=O)OCC[N+](C)(C)C)OC(=O)CCCCCCCCCCCCCCC
RETENTIONTIME: 
CCS: -1
IONMODE: Negative
INSTRUMENTTYPE: LC-ESI-ITFT
INSTRUMENT: 
COLLISIONENERGY: 30
Comment: registered in MassBank
Num Peaks: 11
331.20001	36
359.17999	109
360.23001	36
408.94	7
642.37	14
732.23999	1000
733.17999	39
746.56	20
747.39001	12
757.29999	31
762.97998	12

NAME: Phosphatidylcholine alkyl 18
PRECURSORMZ: 802.633129
PRECURSORTYPE: [M+CH3COO]-
FORMULA: C44H86NO7P
Ontology: 1-alkyl,2-acylglycero-3-phosphocholines
INCHIKEY: BXRBEIASHZFHSW-FOXSRGEXNA-N
SMILES: CCCCCCCCCCCCCCCCCCOCC(COP([O-])(=O)OCC[N+](C)(C)C)OC(=O)CC\C=C/C\C=C/CCCCCCCCCC
RETENTIONTIME: 
CCS: -1
IONMODE: Negative
INSTRUMENTTYPE: LC-ESI-ITFT
INSTRUMENT: 
COLLISIONENERGY: 30
Comment: registered in MassBank
Num Peaks: 13
279.23999	6
328.23001	18
329.32001	6
519.40002	6
520.46002	10
624.67999	16
665.21002	20
747.71002	24
756.15997	1000
757.10999	111
771.53003	11
772.38	6
773.14001	6

NAME: Phosphatidylcholine alkyl 18
PRECURSORMZ: 826.633129
PRECURSORTYPE: [M+CH3COO]-
FORMULA: C46H86NO7P
Ontology: 1-alkyl,2-acylglycero-3-phosphocholines
INCHIKEY: VEJXVXTVFCQWMP-VROGFSTJNA-N
SMILES: CCCCCCCCCCCCCCCCCCOCC(COP([O-])(=O)OCC[N+](C)(C)C)OC(=O)CC\C=C/C\C=C/C\C=C/C\C=C/CCCCCC
RETENTIONTIME: 
CCS: -1
IONMODE: Negative
INSTRUMENTTYPE: LC-ESI-ITFT
INSTRUMENT: 
COLLISIONENERGY: 30
Comment: registered in MassBank
Num Peaks: 8
305.28	14
648.58002	16
730.90997	27
772.33002	23
780.13	1000
780.77002	19
794.08002	19
797.03003	12

NAME: Phosphatidylcholine alkyl 18
PRECURSORMZ: 850.633129
PRECURSORTYPE: [M+CH3COO]-
FORMULA: C48H86NO7P
Ontology: 1-alkyl,2-acylglycero-3-phosphocholines
INCHIKEY: QBZALASVZLFAHF-RRHSVIFUNA-N
SMILES: CCCCCCCCCCCCCCCCCCOCC(COP([O-])(=O)OCC[N+](C)(C)C)OC(=O)CC\C=C/C\C=C/C\C=C/C\C=C/C\C=C/C\C=C/CC
RETENTIONTIME: 
CCS: -1
IONMODE: Negative
INSTRUMENTTYPE: LC-ESI-ITFT
INSTRUMENT: 
COLLISIONENERGY: 30
Comment: registered in MassBank
Num Peaks: 12
354.76999	123
436.91	123
501.81	43
557.21997	93
581.28998	93
764.54999	222
766.21002	37
783.21002	173
784.38	56
795.90002	31
804.15997	1000
820.09003	99

NAME: Phosphatidylcholine alkyl 18
PRECURSORMZ: 776.617479
PRECURSORTYPE: [M+CH3COO]-
FORMULA: C42H84NO7P
Ontology: 1-alkyl,2-acylglycero-3-phosphocholines
INCHIKEY: ITFYCOXGRQISEW-HYOGKJQXNA-N
SMILES: CCCCCCCCCCCCCCCC(=O)OC(COCCC\C=C/CCCCCCCCCCCCC)COP([O-])(=O)OCC[N+](C)(C)C
RETENTIONTIME: 
CCS: -1
IONMODE: Negative
INSTRUMENTTYPE: LC-ESI-ITFT
INSTRUMENT: 
COLLISIONENERGY: 30
Comment: registered in MassBank
Num Peaks: 7
255.14999	6
330.07001	6
658.78003	5
722.03998	6
727.84998	8
730.15997	1000
745.12	10

NAME: Phosphatidylcholine lyso 15
PRECURSORMZ: 512.335778
PRECURSORTYPE: [M+CH3COO]-
FORMULA: C23H48NO7P
Ontology: 2-acyl-sn-glycero-3-phosphocholines
INCHIKEY: AGHWJZIEMKQLQP-UHFFFAOYNA-N
SMILES: CCCCCCCCCCCCCCC(=O)OC(CO)COP([O-])(=O)OCC[N+](C)(C)C
RETENTIONTIME: 
CCS: -1
IONMODE: Negative
INSTRUMENTTYPE: LC-ESI-ITFT
INSTRUMENT: 
COLLISIONENERGY: 30
Comment: registered in MassBank
Num Peaks: 6
341.76001	7
442.45999	5
466.13	1000
478.13	7
480.13	20
482.97	5

NAME: Phosphatidylcholine lyso 16
PRECURSORMZ: 526.351428
PRECURSORTYPE: [M+CH3COO]-
FORMULA: C24H50NO7P
Ontology: 2-acyl-sn-glycero-3-phosphocholines
INCHIKEY: NEGQHKSYEYVFTD-UHFFFAOYNA-N
SMILES: CCCCCCCCCCCCCCCC(=O)OC(CO)COP([O-])(=O)OCC[N+](C)(C)C
RETENTIONTIME: 
CCS: -1
IONMODE: Negative
INSTRUMENTTYPE: LC-ESI-ITFT
INSTRUMENT: 
COLLISIONENERGY: 30
Comment: registered in MassBank
Num Peaks: 1
480.10001	1000

NAME: Phosphatidylcholine lyso 16
PRECURSORMZ: 524.335778
PRECURSORTYPE: [M+CH3COO]-
FORMULA: C24H48NO7P
Ontology: 2-acyl-sn-glycero-3-phosphocholines
INCHIKEY: GMEZONVWGDDWOJ-NXVVXOECNA-N
SMILES: CCCCCCCCCCC\C=C/CCC(=O)OC(CO)COP([O-])(=O)OCC[N+](C)(C)C
RETENTIONTIME: 
CCS: -1
IONMODE: Negative
INSTRUMENTTYPE: LC-ESI-ITFT
INSTRUMENT: 
COLLISIONENERGY: 30
Comment: registered in MassBank
Num Peaks: 3
326.92999	7
426.48001	6
478.12	1000

NAME: Phosphatidylcholine lyso 17
PRECURSORMZ: 540.367078
PRECURSORTYPE: [M+CH3COO]-
FORMULA: C25H52NO7P
Ontology: 2-acyl-sn-glycero-3-phosphocholines
INCHIKEY: ODFZXVWAVNPFPM-UHFFFAOYNA-N
SMILES: CCCCCCCCCCCCCCCCC(=O)OC(CO)COP([O-])(=O)OCC[N+](C)(C)C
RETENTIONTIME: 
CCS: -1
IONMODE: Negative
INSTRUMENTTYPE: LC-ESI-ITFT
INSTRUMENT: 
COLLISIONENERGY: 30
Comment: registered in MassBank
Num Peaks: 7
393.23001	7
462.88	30
480.79001	35
486.62	22
494.10001	1000
508.32001	9
536.14001	6

NAME: Phosphatidylcholine lyso 17
PRECURSORMZ: 538.351428
PRECURSORTYPE: [M+CH3COO]-
FORMULA: C25H50NO7P
Ontology: 2-acyl-sn-glycero-3-phosphocholines
INCHIKEY: WRNNGLADZYOSJO-MSUUIHNZNA-N
SMILES: CCCCCCCCCCCC\C=C/CCC(=O)OC(CO)COP([O-])(=O)OCC[N+](C)(C)C
RETENTIONTIME: 
CCS: -1
IONMODE: Negative
INSTRUMENTTYPE: LC-ESI-ITFT
INSTRUMENT: 
COLLISIONENERGY: 30
Comment: registered in MassBank
Num Peaks: 5
196.03999	79
455.01999	68
484.53	90
492.19	887
506.07001	1000

NAME: Phosphatidylcholine lyso 18
PRECURSORMZ: 554.382728
PRECURSORTYPE: [M+CH3COO]-
FORMULA: C26H54NO7P
Ontology: 2-acyl-sn-glycero-3-phosphocholines
INCHIKEY: IQGPMZRCLCCXAG-UHFFFAOYNA-N
SMILES: CCCCCCCCCCCCCCCCCC(=O)OC(CO)COP([O-])(=O)OCC[N+](C)(C)C
RETENTIONTIME: 
CCS: -1
IONMODE: Negative
INSTRUMENTTYPE: LC-ESI-ITFT
INSTRUMENT: 
COLLISIONENERGY: 30
Comment: registered in MassBank
Num Peaks: 1
508.01001	1000

NAME: Phosphatidylcholine lyso 18
PRECURSORMZ: 552.367078
PRECURSORTYPE: [M+CH3COO]-
FORMULA: C26H52NO7P
Ontology: 2-acyl-sn-glycero-3-phosphocholines
INCHIKEY: WZSWWJLIQCVBRG-ZCXUNETKNA-N
SMILES: CCCCCCCCCCCCC\C=C/CCC(=O)OC(CO)COP([O-])(=O)OCC[N+](C)(C)C
RETENTIONTIME: 
CCS: -1
IONMODE: Negative
INSTRUMENTTYPE: LC-ESI-ITFT
INSTRUMENT: 
COLLISIONENERGY: 30
Comment: registered in MassBank
Num Peaks: 2
281.13	6
506.12	1000

NAME: Phosphatidylcholine lyso 18
PRECURSORMZ: 550.351428
PRECURSORTYPE: [M+CH3COO]-
FORMULA: C26H50NO7P
Ontology: 2-acyl-sn-glycero-3-phosphocholines
INCHIKEY: HQNGWMLDFPEZSR-NFYLBXPENA-N
SMILES: CCCCCCCCCC\C=C/C\C=C/CCC(=O)OC(CO)COP([O-])(=O)OCC[N+](C)(C)C
RETENTIONTIME: 
CCS: -1
IONMODE: Negative
INSTRUMENTTYPE: LC-ESI-ITFT
INSTRUMENT: 
COLLISIONENERGY: 30
Comment: registered in MassBank
Num Peaks: 2
279.17999	7
503.98001	1000

NAME: Phosphatidylcholine lyso 18
PRECURSORMZ: 548.335778
PRECURSORTYPE: [M+CH3COO]-
FORMULA: C26H48NO7P
Ontology: 2-acyl-sn-glycero-3-phosphocholines
INCHIKEY: JPMIFOSJPGRLCB-IHDWIWDKNA-N
SMILES: CCCCCCC\C=C/C\C=C/C\C=C/CCC(=O)OC(CO)COP([O-])(=O)OCC[N+](C)(C)C
RETENTIONTIME: 
CCS: -1
IONMODE: Negative
INSTRUMENTTYPE: LC-ESI-ITFT
INSTRUMENT: 
COLLISIONENERGY: 30
Comment: registered in MassBank
Num Peaks: 9
433.79001	13
434.92001	8
477.62	10
478.23999	12
493.42999	13
494.14999	18
502.09	1000
515.88	12
516.78998	15

NAME: Phosphatidylcholine lyso 19
PRECURSORMZ: 568.398378
PRECURSORTYPE: [M+CH3COO]-
FORMULA: C27H56NO7P
Ontology: 2-acyl-sn-glycero-3-phosphocholines
INCHIKEY: FPTNXEGPLIELIU-UHFFFAOYNA-N
SMILES: CCCCCCCCCCCCCCCCCCC(=O)OC(CO)COP([O-])(=O)OCC[N+](C)(C)C
RETENTIONTIME: 
CCS: -1
IONMODE: Negative
INSTRUMENTTYPE: LC-ESI-ITFT
INSTRUMENT: 
COLLISIONENERGY: 30
Comment: registered in MassBank
Num Peaks: 6
404.70001	16
503.89999	13
509.17999	53
513.47998	13
522.07001	1000
522.70001	6

NAME: Phosphatidylcholine lyso 20
PRECURSORMZ: 582.414028
PRECURSORTYPE: [M+CH3COO]-
FORMULA: C28H58NO7P
Ontology: 2-acyl-sn-glycero-3-phosphocholines
INCHIKEY: WQBSSUPHAAAVSW-UHFFFAOYNA-N
SMILES: CCCCCCCCCCCCCCCCCCCC(=O)OC(CO)COP([O-])(=O)OCC[N+](C)(C)C
RETENTIONTIME: 
CCS: -1
IONMODE: Negative
INSTRUMENTTYPE: LC-ESI-ITFT
INSTRUMENT: 
COLLISIONENERGY: 30
Comment: registered in MassBank
Num Peaks: 2
311.17001	14
536.15997	1000

NAME: Phosphatidylcholine lyso 20
PRECURSORMZ: 580.398378
PRECURSORTYPE: [M+CH3COO]-
FORMULA: C28H56NO7P
Ontology: 2-acyl-sn-glycero-3-phosphocholines
INCHIKEY: IDRKESNUEGURSD-VXPUYCOJNA-N
SMILES: CCCCCCCCCCCCCCC\C=C/CCC(=O)OC(CO)COP([O-])(=O)OCC[N+](C)(C)C
RETENTIONTIME: 
CCS: -1
IONMODE: Negative
INSTRUMENTTYPE: LC-ESI-ITFT
INSTRUMENT: 
COLLISIONENERGY: 30
Comment: registered in MassBank
Num Peaks: 7
432.82001	7
444.44	6
466.06	9
480.16	6
525.77002	7
534.10999	1000
542.90997	19

NAME: Phosphatidylcholine lyso 20
PRECURSORMZ: 578.382728
PRECURSORTYPE: [M+CH3COO]-
FORMULA: C28H54NO7P
Ontology: 2-acyl-sn-glycero-3-phosphocholines
INCHIKEY: UYFMNJBGVSPBGJ-LTXDKZCQNA-N
SMILES: CCCCCCCCCCCC\C=C/C\C=C/CCC(=O)OC(CO)COP([O-])(=O)OCC[N+](C)(C)C
RETENTIONTIME: 
CCS: -1
IONMODE: Negative
INSTRUMENTTYPE: LC-ESI-ITFT
INSTRUMENT: 
COLLISIONENERGY: 30
Comment: registered in MassBank
Num Peaks: 13
410.10999	30
463.26001	39
478.91	11
493.06	6
501.70999	24
517.15997	24
518.78998	11
523.96997	32
532.14001	1000
533.87	14
535.26001	14
540.64001	9
545.98999	14

NAME: Phosphatidylcholine lyso 20
PRECURSORMZ: 576.367078
PRECURSORTYPE: [M+CH3COO]-
FORMULA: C28H52NO7P
Ontology: 2-acyl-sn-glycero-3-phosphocholines
INCHIKEY: BLWVEPQPFFTFIJ-BYBPBHJYNA-N
SMILES: CCCCCCCCC\C=C/C\C=C/C\C=C/CCC(=O)OC(CO)COP([O-])(=O)OCC[N+](C)(C)C
RETENTIONTIME: 
CCS: -1
IONMODE: Negative
INSTRUMENTTYPE: LC-ESI-ITFT
INSTRUMENT: 
COLLISIONENERGY: 30
Comment: registered in MassBank
Num Peaks: 3
530.06	1000
543.66998	6
544.81	7

NAME: Phosphatidylcholine lyso 20
PRECURSORMZ: 574.351428
PRECURSORTYPE: [M+CH3COO]-
FORMULA: C28H50NO7P
Ontology: 2-acyl-sn-glycero-3-phosphocholines
INCHIKEY: XHKVQFBZSMLFNL-AILJCPQKNA-N
SMILES: CCCCCC\C=C/C\C=C/C\C=C/C\C=C/CCC(=O)OC(CO)COP([O-])(=O)OCC[N+](C)(C)C
RETENTIONTIME: 
CCS: -1
IONMODE: Negative
INSTRUMENTTYPE: LC-ESI-ITFT
INSTRUMENT: 
COLLISIONENERGY: 30
Comment: registered in MassBank
Num Peaks: 3
303.14001	7
528.01001	1000
542.96997	6

NAME: Phosphatidylcholine lyso 20
PRECURSORMZ: 572.335778
PRECURSORTYPE: [M+CH3COO]-
FORMULA: C28H48NO7P
Ontology: 2-acyl-sn-glycero-3-phosphocholines
INCHIKEY: OYUDYTIZCLNYHF-NEUKSRIFNA-N
SMILES: CCC\C=C/C\C=C/C\C=C/C\C=C/C\C=C/CCC(=O)OC(CO)COP([O-])(=O)OCC[N+](C)(C)C
RETENTIONTIME: 
CCS: -1
IONMODE: Negative
INSTRUMENTTYPE: LC-ESI-ITFT
INSTRUMENT: 
COLLISIONENERGY: 30
Comment: registered in MassBank
Num Peaks: 11
313.89999	6
394.87	8
398.85001	6
457.70001	7
458.79001	8
502.01001	8
526.03998	1000
539.59003	9
540.98999	11
556.22998	15
582.21002	10

NAME: Phosphatidylcholine lyso 22
PRECURSORMZ: 610.445328
PRECURSORTYPE: [M+CH3COO]-
FORMULA: C30H62NO7P
Ontology: 2-acyl-sn-glycero-3-phosphocholines
INCHIKEY: NTLXEWYXJAAKIX-UHFFFAOYNA-N
SMILES: CCCCCCCCCCCCCCCCCCCCCC(=O)OC(CO)COP([O-])(=O)OCC[N+](C)(C)C
RETENTIONTIME: 
CCS: -1
IONMODE: Negative
INSTRUMENTTYPE: LC-ESI-ITFT
INSTRUMENT: 
COLLISIONENERGY: 30
Comment: registered in MassBank
Num Peaks: 5
433.85001	40
534.34998	21
564.17999	1000
564.96002	12
578.38	33

NAME: Phosphatidylcholine lyso 22
PRECURSORMZ: 602.382728
PRECURSORTYPE: [M+CH3COO]-
FORMULA: C30H54NO7P
Ontology: 2-acyl-sn-glycero-3-phosphocholines
INCHIKEY: HVUQIFGXSYUVOW-SYNYMFHXNA-N
SMILES: CCCCCCCC\C=C/C\C=C/C\C=C/C\C=C/CCC(=O)OC(CO)COP([O-])(=O)OCC[N+](C)(C)C
RETENTIONTIME: 
CCS: -1
IONMODE: Negative
INSTRUMENTTYPE: LC-ESI-ITFT
INSTRUMENT: 
COLLISIONENERGY: 30
Comment: registered in MassBank
Num Peaks: 4
484.29001	11
485.85999	44
533.20001	33
556.03998	1000

NAME: Phosphatidylcholine lyso 22
PRECURSORMZ: 598.351428
PRECURSORTYPE: [M+CH3COO]-
FORMULA: C30H50NO7P
Ontology: 2-acyl-sn-glycero-3-phosphocholines
INCHIKEY: FTLVGMFFHDRYDI-WSDBEMKQNA-N
SMILES: CC\C=C/C\C=C/C\C=C/C\C=C/C\C=C/C\C=C/CCC(=O)OC(CO)COP([O-])(=O)OCC[N+](C)(C)C
RETENTIONTIME: 
CCS: -1
IONMODE: Negative
INSTRUMENTTYPE: LC-ESI-ITFT
INSTRUMENT: 
COLLISIONENERGY: 30
Comment: registered in MassBank
Num Peaks: 1
551.95001	1000

NAME: Phosphatidylethanolamine 15
PRECURSORMZ: 724.492278
PRECURSORTYPE: [M-H]-
FORMULA: C40H72NO8P
Ontology: Phosphatidylethanolamines
INCHIKEY: LXBLQTXTKDXBMT-UTYDGVOLNA-N
SMILES: CCCCCCCCCCCCCCC(=O)OCC(COP(O)(=O)OCCN)OC(=O)CC\C=C/C\C=C/C\C=C/C\C=C/CCCCCC
RETENTIONTIME: 
CCS: -1
IONMODE: Negative
INSTRUMENTTYPE: LC-ESI-ITFT
INSTRUMENT: 
COLLISIONENERGY: 30
Comment: registered in MassBank
Num Peaks: 8
240.99001	161
259.20001	109
303.06	1000
304.25	140
421.20001	71
438.09	137
439.20001	25
482.17001	43

NAME: Phosphatidylethanolamine 15
PRECURSORMZ: 748.492278
PRECURSORTYPE: [M-H]-
FORMULA: C42H72NO8P
Ontology: Phosphatidylethanolamines
INCHIKEY: WIJRNOBSWIZHST-JTURFRPLNA-N
SMILES: CCCCCCCCCCCCCCC(=O)OCC(COP(O)(=O)OCCN)OC(=O)CC\C=C/C\C=C/C\C=C/C\C=C/C\C=C/C\C=C/CC
RETENTIONTIME: 
CCS: 383.7427226
IONMODE: Negative
INSTRUMENTTYPE: LC-ESI-ITFT
INSTRUMENT: 
COLLISIONENERGY: 30
Comment: registered in MassBank
Num Peaks: 11
241.12	494
242.05	36
283.12	612
283.98001	47
327.03	1000
328.26999	78
419.95999	17
433.94	31
437.98999	539
439.07999	42
730.22998	11

NAME: Phosphatidylethanolamine 16
PRECURSORMZ: 688.492278
PRECURSORTYPE: [M-H]-
FORMULA: C37H72NO8P
Ontology: Phosphatidylethanolamines
INCHIKEY: NJQOUKFMDSLWNH-LCUIJRPUNA-N
SMILES: CCCCCCCCCCCCCCCC(=O)OCC(COP(O)(=O)OCCN)OC(=O)CC\C=C/CCCCCCCCCCC
RETENTIONTIME: 
CCS: -1
IONMODE: Negative
INSTRUMENTTYPE: LC-ESI-ITFT
INSTRUMENT: 
COLLISIONENERGY: 30
Comment: registered in MassBank
Num Peaks: 14
253.03999	1000
253.95	20
255.03999	390
256.13	33
280.95001	8
282.17001	7
389.06	22
424.09	8
450.16	32
451.32999	11
452.14001	141
453.17001	13
598.89001	18
601.46002	8

NAME: Phosphatidylethanolamine 16
PRECURSORMZ: 716.523578
PRECURSORTYPE: [M-H]-
FORMULA: C39H76NO8P
Ontology: Phosphatidylethanolamines
INCHIKEY: RECBGBLFDMTQRS-SGEDCAFJNA-N
SMILES: CCCCCCCCCCCCCCCC(=O)OCC(COP(O)(=O)OCCN)OC(=O)CC\C=C/CCCCCCCCCCCCC
RETENTIONTIME: 
CCS: -1
IONMODE: Negative
INSTRUMENTTYPE: LC-ESI-ITFT
INSTRUMENT: 
COLLISIONENERGY: 30
Comment: registered in MassBank
Num Peaks: 9
255.11	286
256.12	10
281.06	1000
282.16	29
434.07999	10
452.14999	109
453.19	9
459.98001	5
478.17001	20

NAME: Phosphatidylethanolamine 16
PRECURSORMZ: 714.507928
PRECURSORTYPE: [M-H]-
FORMULA: C39H74NO8P
Ontology: Phosphatidylethanolamines
INCHIKEY: JXRDSKPCJNWQEG-BAOXYHDDNA-N
SMILES: CCCCCCCCCCCCCCCC(=O)OCC(COP(O)(=O)OCCN)OC(=O)CC\C=C/C\C=C/CCCCCCCCCC
RETENTIONTIME: 
CCS: -1
IONMODE: Negative
INSTRUMENTTYPE: LC-ESI-ITFT
INSTRUMENT: 
COLLISIONENERGY: 30
Comment: registered in MassBank
Num Peaks: 6
255.17	270
279.06	1000
434.20001	15
452.09	117
457.98001	11
475.88	12

NAME: Phosphatidylethanolamine 16
PRECURSORMZ: 712.492278
PRECURSORTYPE: [M-H]-
FORMULA: C39H72NO8P
Ontology: Phosphatidylethanolamines
INCHIKEY: BXKYCESYRFZXHJ-FFPWFUNSNA-N
SMILES: CCCCCCCCCCCCCCCC(=O)OCC(COP(O)(=O)OCCN)OC(=O)CC\C=C/C\C=C/C\C=C/CCCCCCC
RETENTIONTIME: 
CCS: -1
IONMODE: Negative
INSTRUMENTTYPE: LC-ESI-ITFT
INSTRUMENT: 
COLLISIONENERGY: 30
Comment: registered in MassBank
Num Peaks: 16
204.88	6
233.17	8
255.13	387
256.09	10
259.01999	11
277.07999	1000
278.20999	38
282.16	15
434.14001	12
452.10001	239
453.07999	25
454.13	6
474.07999	12
550.98999	6
623.84003	5
625.75	6

NAME: Phosphatidylethanolamine 16
PRECURSORMZ: 744.554879
PRECURSORTYPE: [M-H]-
FORMULA: C41H80NO8P
Ontology: Phosphatidylethanolamines
INCHIKEY: QRLWPEYQYHTNGC-HYOGKJQXNA-N
SMILES: CCCCCCCCCCCCCCC\C=C/CCC(=O)OC(COC(=O)CCCCCCCCCCCCCCC)COP(O)(=O)OCCN
RETENTIONTIME: 
CCS: -1
IONMODE: Negative
INSTRUMENTTYPE: LC-ESI-ITFT
INSTRUMENT: 
COLLISIONENERGY: 30
Comment: registered in MassBank
Num Peaks: 14
255.08	220
256.17999	17
281.17999	21
283.23001	11
290.72	6
309.10999	1000
310.23999	123
315.23001	10
415.91	5
434.03	8
452.17001	81
506.19	21
653.58002	7
680.65002	92

NAME: Phosphatidylethanolamine 16
PRECURSORMZ: 740.523578
PRECURSORTYPE: [M-H]-
FORMULA: C41H76NO8P
Ontology: Phosphatidylethanolamines
INCHIKEY: FOZMADPVSAYPHH-PNECARMWNA-N
SMILES: CCCCCCCCCCCCCCCC(=O)OCC(COP(O)(=O)OCCN)OC(=O)CC\C=C/C\C=C/C\C=C/CCCCCCCCC
RETENTIONTIME: 
CCS: -1
IONMODE: Negative
INSTRUMENTTYPE: LC-ESI-ITFT
INSTRUMENT: 
COLLISIONENERGY: 30
Comment: registered in MassBank
Num Peaks: 10
255.12	288
256.14001	24
279.09	58
281.09	13
305.04999	1000
306.19	86
434.01999	8
452.20001	142
483.98001	7
502.01001	18

NAME: Phosphatidylethanolamine 16
PRECURSORMZ: 738.507928
PRECURSORTYPE: [M-H]-
FORMULA: C41H74NO8P
Ontology: Phosphatidylethanolamines
INCHIKEY: ARFPLDYYIYCLNV-WRDNLCFKNA-N
SMILES: CCCCCCCCCCCCCCCC(=O)OCC(COP(O)(=O)OCCN)OC(=O)CC\C=C/C\C=C/C\C=C/C\C=C/CCCCCC
RETENTIONTIME: 
CCS: -1
IONMODE: Negative
INSTRUMENTTYPE: LC-ESI-ITFT
INSTRUMENT: 
COLLISIONENERGY: 30
Comment: registered in MassBank
Num Peaks: 12
255.12	345
256.22	9
259.16	70
260.20001	8
285.01001	10
303.07999	1000
304.20001	46
434.20001	9
452.07001	225
453.10001	14
482.01001	12
500.01001	15

NAME: Phosphatidylethanolamine 16
PRECURSORMZ: 736.492278
PRECURSORTYPE: [M-H]-
FORMULA: C41H72NO8P
Ontology: Phosphatidylethanolamines
INCHIKEY: QLFZCNOCZYRVAU-JPOVHVJANA-N
SMILES: CCCCCCCCCCCCCCCC(=O)OCC(COP(O)(=O)OCCN)OC(=O)CC\C=C/C\C=C/C\C=C/C\C=C/C\C=C/CCC
RETENTIONTIME: 
CCS: -1
IONMODE: Negative
INSTRUMENTTYPE: LC-ESI-ITFT
INSTRUMENT: 
COLLISIONENERGY: 30
Comment: registered in MassBank
Num Peaks: 12
254.99001	575
256.57001	118
257.17001	165
265.23999	5
282.95001	12
301.07001	1000
302.12	83
434.10001	36
452.06	429
453.12	26
479.94	19
497.89999	25

NAME: Phosphatidylethanolamine 16
PRECURSORMZ: 766.539229
PRECURSORTYPE: [M-H]-
FORMULA: C43H78NO8P
Ontology: Phosphatidylethanolamines
INCHIKEY: WRJMLLZQXDAGES-ASOJYNRJNA-N
SMILES: CCCCCCCCCCCCCCCC(=O)OCC(COP(O)(=O)OCCN)OC(=O)CC\C=C/C\C=C/C\C=C/C\C=C/CCCCCCCC
RETENTIONTIME: 
CCS: -1
IONMODE: Negative
INSTRUMENTTYPE: LC-ESI-ITFT
INSTRUMENT: 
COLLISIONENERGY: 30
Comment: registered in MassBank
Num Peaks: 27
254.99001	184
256.37	71
257.32001	20
281.20999	42
283.26001	47
284.06	24
287.10999	38
288.48001	14
302.35999	11
303.20001	125
305.20999	229
306.28	27
331.16	1000
332.20001	320
433.89999	30
452.01001	64
478.10001	42
478.94	50
480.25	13
499.73999	30
502.32999	13
528.20001	14
690.40997	14
691.84003	11
692.69	7
733.81	7
769.5	21

NAME: Phosphatidylethanolamine 16
PRECURSORMZ: 762.507928
PRECURSORTYPE: [M-H]-
FORMULA: C43H74NO8P
Ontology: Phosphatidylethanolamines
INCHIKEY: MPWUZHVZZKSTPV-LGFBOSHVNA-N
SMILES: CCCCCCCCCCCCCCCC(=O)OCC(COP(O)(=O)OCCN)OC(=O)CC\C=C/C\C=C/C\C=C/C\C=C/C\C=C/C\C=C/CC
RETENTIONTIME: 
CCS: 364.4650752
IONMODE: Negative
INSTRUMENTTYPE: LC-ESI-ITFT
INSTRUMENT: 
COLLISIONENERGY: 30
Comment: registered in MassBank
Num Peaks: 13
229.10001	17
249.08	6
255.07001	624
256.13	98
283.07001	508
284.20999	85
327.03	1000
328.17001	119
433.95001	25
452.13	386
453.16	49
506.03	21
523.96002	48

NAME: Phosphatidylethanolamine 16
PRECURSORMZ: 712.492278
PRECURSORTYPE: [M-H]-
FORMULA: C39H72NO8P
Ontology: Phosphatidylethanolamines
INCHIKEY: FRABUNWXDQTBFH-XTKKSKBQNA-N
SMILES: CCCCCCCCCCC\C=C/CCC(=O)OCC(COP(O)(=O)OCCN)OC(=O)CC\C=C/C\C=C/CCCCCCCCCC
RETENTIONTIME: 
CCS: -1
IONMODE: Negative
INSTRUMENTTYPE: LC-ESI-ITFT
INSTRUMENT: 
COLLISIONENERGY: 30
Comment: registered in MassBank
Num Peaks: 10
253.14999	296
254.2	48
279.07999	1000
280.17001	149
431.98001	13
433.13	13
450.14001	105
451.42999	37
458.28	13
476.13	28

NAME: Phosphatidylethanolamine 16
PRECURSORMZ: 736.492278
PRECURSORTYPE: [M-H]-
FORMULA: C41H72NO8P
Ontology: Phosphatidylethanolamines
INCHIKEY: TUAWQIYXFSBSNQ-RQDZWXAXNA-N
SMILES: CCCCCCCCCCC\C=C/CCC(=O)OCC(COP(O)(=O)OCCN)OC(=O)CC\C=C/C\C=C/C\C=C/C\C=C/CCCCCC
RETENTIONTIME: 
CCS: -1
IONMODE: Negative
INSTRUMENTTYPE: LC-ESI-ITFT
INSTRUMENT: 
COLLISIONENERGY: 30
Comment: registered in MassBank
Num Peaks: 14
253.06	415
254.14	22
259.19	147
259.85999	40
277.01001	25
278.98001	15
303.10001	1000
304.14999	98
450.10001	242
450.98999	7
482.28	26
500.16	19
641.15997	9
662.40997	37

NAME: Phosphatidylethanolamine 16
PRECURSORMZ: 734.476628
PRECURSORTYPE: [M-H]-
FORMULA: C41H70NO8P
Ontology: Phosphatidylethanolamines
INCHIKEY: ACLGJPXDLXCCME-YJWVUPOONA-N
SMILES: CCCCCCCCCCC\C=C/CCC(=O)OCC(COP(O)(=O)OCCN)OC(=O)CC\C=C/C\C=C/C\C=C/C\C=C/C\C=C/CCC
RETENTIONTIME: 
CCS: -1
IONMODE: Negative
INSTRUMENTTYPE: LC-ESI-ITFT
INSTRUMENT: 
COLLISIONENERGY: 30
Comment: registered in MassBank
Num Peaks: 13
253.08	826
257.10001	118
278.98001	99
301.13	1000
302.29001	75
303.26001	286
351.89999	43
433.23001	137
450.17999	106
498	87
649.23999	62
674.58002	31
681.87	62

NAME: Phosphatidylethanolamine 16
PRECURSORMZ: 760.492278
PRECURSORTYPE: [M-H]-
FORMULA: C43H72NO8P
Ontology: Phosphatidylethanolamines
INCHIKEY: ZJBSZOUPRJVSRB-SIEWZCRLNA-N
SMILES: CCCCCCCCCCC\C=C/CCC(=O)OCC(COP(O)(=O)OCCN)OC(=O)CC\C=C/C\C=C/C\C=C/C\C=C/C\C=C/C\C=C/CC
RETENTIONTIME: 
CCS: -1
IONMODE: Negative
INSTRUMENTTYPE: LC-ESI-ITFT
INSTRUMENT: 
COLLISIONENERGY: 30
Comment: registered in MassBank
Num Peaks: 24
229.2	40
253.07001	669
254.11	54
259.07001	6
277.07999	13
279.20001	43
283.14001	699
284.16	59
301.01999	33
303.20001	10
309.39001	11
327.06	1000
328.10999	179
432.14001	8
450.04999	536
451.04999	37
476.07001	13
476.88	12
504.20999	14
505.82001	18
524.15002	28
524.95001	6
707.88	6
716.45001	6

NAME: Phosphatidylethanolamine 17
PRECURSORMZ: 728.523578
PRECURSORTYPE: [M-H]-
FORMULA: C40H76NO8P
Ontology: Phosphatidylethanolamines
INCHIKEY: FGLSWIGNKJQROW-FTRFHSPVNA-N
SMILES: CCCCCCCCCCCCCCCCC(=O)OCC(COP(O)(=O)OCCN)OC(=O)CC\C=C/C\C=C/CCCCCCCCCC
RETENTIONTIME: 
CCS: -1
IONMODE: Negative
INSTRUMENTTYPE: LC-ESI-ITFT
INSTRUMENT: 
COLLISIONENERGY: 30
Comment: registered in MassBank
Num Peaks: 9
258.69	5
269.10999	373
270.01999	34
279.06	1000
280.10001	139
448.04999	8
466.16	174
467.04001	28
476.09	20

NAME: Phosphatidylethanolamine 17
PRECURSORMZ: 754.539229
PRECURSORTYPE: [M-H]-
FORMULA: C42H78NO8P
Ontology: Phosphatidylethanolamines
INCHIKEY: VDLZAIRAJICUJV-FMYBJREMNA-N
SMILES: CCCCCCCCCCCCCCCCC(=O)OCC(COP(O)(=O)OCCN)OC(=O)CC\C=C/C\C=C/C\C=C/CCCCCCCCC
RETENTIONTIME: 
CCS: -1
IONMODE: Negative
INSTRUMENTTYPE: LC-ESI-ITFT
INSTRUMENT: 
COLLISIONENERGY: 30
Comment: registered in MassBank
Num Peaks: 10
269.23001	299
269.89999	13
303.01999	24
305.14999	1000
306.20999	118
451.67999	33
466.04999	83
466.95001	15
501.97	17
671.33002	28

NAME: Phosphatidylethanolamine 17
PRECURSORMZ: 752.523578
PRECURSORTYPE: [M-H]-
FORMULA: C42H76NO8P
Ontology: Phosphatidylethanolamines
INCHIKEY: LUNHOOJLWJQRDB-VTJLAKARNA-N
SMILES: CCCCCCCCCCCCCCCCC(=O)OCC(COP(O)(=O)OCCN)OC(=O)CC\C=C/C\C=C/C\C=C/C\C=C/CCCCCC
RETENTIONTIME: 
CCS: -1
IONMODE: Negative
INSTRUMENTTYPE: LC-ESI-ITFT
INSTRUMENT: 
COLLISIONENERGY: 30
Comment: registered in MassBank
Num Peaks: 11
259.01001	63
260.17999	12
269.10999	381
270.20999	38
303.04001	1000
304.13	109
448.01001	18
466.13	277
467.10999	22
481.94	10
499.92999	13

NAME: Phosphatidylethanolamine 17
PRECURSORMZ: 776.523578
PRECURSORTYPE: [M-H]-
FORMULA: C44H76NO8P
Ontology: Phosphatidylethanolamines
INCHIKEY: WVGREBRFGJNLSB-KAFSZNKPNA-N
SMILES: CCCCCCCCCCCCCCCCC(=O)OCC(COP(O)(=O)OCCN)OC(=O)CC\C=C/C\C=C/C\C=C/C\C=C/C\C=C/C\C=C/CC
RETENTIONTIME: 
CCS: -1
IONMODE: Negative
INSTRUMENTTYPE: LC-ESI-ITFT
INSTRUMENT: 
COLLISIONENERGY: 30
Comment: registered in MassBank
Num Peaks: 23
226.89999	10
229.31	25
249	12
252.08	19
269.10999	796
270.10999	167
283.14001	736
284.19	148
315.20999	6
327.10001	1000
328.01001	121
345.04999	5
448.29999	29
463.14999	10
465.95999	602
467.16	131
505.94	31
507.10999	10
523.90997	32
712.89001	11
714.85999	17
717.59003	11
718.42999	11

NAME: Phosphatidylethanolamine 17
PRECURSORMZ: 726.507928
PRECURSORTYPE: [M-H]-
FORMULA: C40H74NO8P
Ontology: Phosphatidylethanolamines
INCHIKEY: NXIAGSLBMLOYBM-ONGBHLIUNA-N
SMILES: CCCCCCCCCCCC\C=C/CCC(=O)OCC(COP(O)(=O)OCCN)OC(=O)CC\C=C/C\C=C/CCCCCCCCCC
RETENTIONTIME: 
CCS: -1
IONMODE: Negative
INSTRUMENTTYPE: LC-ESI-ITFT
INSTRUMENT: 
COLLISIONENERGY: 30
Comment: registered in MassBank
Num Peaks: 8
255.08	40
267.23001	341
268.04001	12
276.95999	21
279.07999	1000
280.06	84
281.20999	72
464.14001	255

NAME: Phosphatidylethanolamine 17
PRECURSORMZ: 774.507928
PRECURSORTYPE: [M-H]-
FORMULA: C44H74NO8P
Ontology: Phosphatidylethanolamines
INCHIKEY: PKKFLKWXJRZTFJ-YZIPONAMNA-N
SMILES: CCCCCCCCCCCC\C=C/CCC(=O)OCC(COP(O)(=O)OCCN)OC(=O)CC\C=C/C\C=C/C\C=C/C\C=C/C\C=C/C\C=C/CC
RETENTIONTIME: 
CCS: -1
IONMODE: Negative
INSTRUMENTTYPE: LC-ESI-ITFT
INSTRUMENT: 
COLLISIONENERGY: 30
Comment: registered in MassBank
Num Peaks: 23
249.06	19
252.86	38
267.14001	831
268.28	97
283.04999	435
327.12	1000
328.04001	38
446.42001	40
464.04999	366
465.01999	95
478.29001	33
523.79999	26
524.91998	52
536.79999	14
611.92999	48
612.60999	36
622.95001	24
626.03003	48
627.07001	26
628.88	29
683.98999	43
685.82001	19
696.79999	24

NAME: Phosphatidylethanolamine 18
PRECURSORMZ: 718.539229
PRECURSORTYPE: [M-H]-
FORMULA: C39H78NO8P
Ontology: Phosphatidylethanolamines
INCHIKEY: JRTZGTYHEHCHTM-UHFFFAOYNA-N
SMILES: CCCCCCCCCCCCCCCCCC(=O)OCC(COP(O)(=O)OCCN)OC(=O)CCCCCCCCCCCCCCC
RETENTIONTIME: 
CCS: 342.469734
IONMODE: Negative
INSTRUMENTTYPE: LC-ESI-ITFT
INSTRUMENT: 
COLLISIONENERGY: 30
Comment: registered in MassBank
Num Peaks: 18
237.74001	36
255.06	1000
256.38	11
283.13	633
284.39001	64
408.97	32
434.57999	32
452.06	32
480	160
525.75	18
553.15002	18
554.59003	71
615.34998	78
620.16998	64
635.29999	306
636.48999	100
643.37	71
658.37	43

NAME: Phosphatidylethanolamine 18
PRECURSORMZ: 746.570529
PRECURSORTYPE: [M-H]-
FORMULA: C41H82NO8P
Ontology: Phosphatidylethanolamines
INCHIKEY: LVNGJLRDBYCPGB-UHFFFAOYNA-N
SMILES: CCCCCCCCCCCCCCCCCC(=O)OCC(COP(O)(=O)OCCN)OC(=O)CCCCCCCCCCCCCCCCC
RETENTIONTIME: 
CCS: 348.7175943
IONMODE: Negative
INSTRUMENTTYPE: LC-ESI-ITFT
INSTRUMENT: 
COLLISIONENERGY: 30
Comment: registered in MassBank
Num Peaks: 12
283.25	1000
284.22	378
433.48001	133
491.22	178
536.28003	244
545.31	156
566.44	178
581.48999	333
663.95001	867
681.92999	156
686.45001	111
710.10999	133

NAME: Phosphatidylethanolamine 18
PRECURSORMZ: 744.554879
PRECURSORTYPE: [M-H]-
FORMULA: C41H80NO8P
Ontology: Phosphatidylethanolamines
INCHIKEY: YNUVHPZRNQDFHS-HYOGKJQXNA-N
SMILES: CCCCCCCCCCCCCCCCCC(=O)OCC(COP(O)(=O)OCCN)OC(=O)CC\C=C/CCCCCCCCCCCCC
RETENTIONTIME: 
CCS: -1
IONMODE: Negative
INSTRUMENTTYPE: LC-ESI-ITFT
INSTRUMENT: 
COLLISIONENERGY: 30
Comment: registered in MassBank
Num Peaks: 8
281.12	1000
282.23999	60
283.19	330
284.20001	14
462.20001	12
478.04999	20
480.04001	152
481.14001	18

NAME: Phosphatidylethanolamine 18
PRECURSORMZ: 742.539229
PRECURSORTYPE: [M-H]-
FORMULA: C41H78NO8P
Ontology: Phosphatidylethanolamines
INCHIKEY: CJVLBVKIFVTUPS-JSCMVKKRNA-N
SMILES: CCCCCCCCCCCCCCCCCC(=O)OCC(COP(O)(=O)OCCN)OC(=O)CC\C=C/C\C=C/CCCCCCCCCC
RETENTIONTIME: 
CCS: -1
IONMODE: Negative
INSTRUMENTTYPE: LC-ESI-ITFT
INSTRUMENT: 
COLLISIONENERGY: 30
Comment: registered in MassBank
Num Peaks: 9
279.01999	1000
280.09	122
283.04999	327
284.12	56
458.07999	12
462.20999	16
476.14001	15
480.12	138
481.17999	19

NAME: Phosphatidylethanolamine 18
PRECURSORMZ: 740.523578
PRECURSORTYPE: [M-H]-
FORMULA: C41H76NO8P
Ontology: Phosphatidylethanolamines
INCHIKEY: LXDJYUCSACQJRW-FQQNHZGCNA-N
SMILES: CCCCCCCCCCCCCCCCCC(=O)OCC(COP(O)(=O)OCCN)OC(=O)CC\C=C/C\C=C/C\C=C/CCCCCCC
RETENTIONTIME: 
CCS: -1
IONMODE: Negative
INSTRUMENTTYPE: LC-ESI-ITFT
INSTRUMENT: 
COLLISIONENERGY: 30
Comment: registered in MassBank
Num Peaks: 21
233.13	12
255.03	112
256.07999	19
259.07001	8
277.12	1000
278.14001	107
279.17001	49
283.19	484
284.26999	30
304.98999	218
305.98001	30
452.07001	21
453.32999	23
474.34	13
477.94	21
480.26999	258
481.14999	12
503.09	8
600.60999	11
679.23999	6
681.56	13

NAME: Phosphatidylethanolamine 18
PRECURSORMZ: 772.586179
PRECURSORTYPE: [M-H]-
FORMULA: C43H84NO8P
Ontology: Phosphatidylethanolamines
INCHIKEY: HCYMNYLUWGMUCG-GCUVURNUNA-N
SMILES: CCCCCCCCCCCCCCCCCC(=O)OCC(COP(O)(=O)OCCN)OC(=O)CC\C=C/CCCCCCCCCCCCCCC
RETENTIONTIME: 
CCS: -1
IONMODE: Negative
INSTRUMENTTYPE: LC-ESI-ITFT
INSTRUMENT: 
COLLISIONENERGY: 30
Comment: registered in MassBank
Num Peaks: 10
283.20999	305
284.23999	57
309.09	1000
310.19	168
462.20999	7
480.17001	109
481.19	14
488	12
488.89999	7
506.28	10

NAME: Phosphatidylethanolamine 18
PRECURSORMZ: 768.554879
PRECURSORTYPE: [M-H]-
FORMULA: C43H80NO8P
Ontology: Phosphatidylethanolamines
INCHIKEY: BDESLISUEJTDHD-JCXYTCFZNA-N
SMILES: CCCCCCCCCCCCCCCCCC(=O)OCC(COP(O)(=O)OCCN)OC(=O)CC\C=C/C\C=C/C\C=C/CCCCCCCCC
RETENTIONTIME: 
CCS: -1
IONMODE: Negative
INSTRUMENTTYPE: LC-ESI-ITFT
INSTRUMENT: 
COLLISIONENERGY: 30
Comment: registered in MassBank
Num Peaks: 10
283.09	357
284.13	27
302.89999	6
305.04999	1000
306.10001	81
462.09	14
480.04999	164
480.85999	6
483.95999	5
502.09	13

NAME: Phosphatidylethanolamine 18
PRECURSORMZ: 766.539229
PRECURSORTYPE: [M-H]-
FORMULA: C43H78NO8P
Ontology: Phosphatidylethanolamines
INCHIKEY: VUDFSDNQOHMQTE-NQWSYULSNA-N
SMILES: CCCCCCCCCCCCCCCCCC(=O)OCC(COP(O)(=O)OCCN)OC(=O)CC\C=C/C\C=C/C\C=C/C\C=C/CCCCCC
RETENTIONTIME: 
CCS: -1
IONMODE: Negative
INSTRUMENTTYPE: LC-ESI-ITFT
INSTRUMENT: 
COLLISIONENERGY: 30
Comment: registered in MassBank
Num Peaks: 11
259.14001	68
260.04001	9
283.07999	438
284.22	68
303.07999	1000
304.20999	124
462.13	11
480.07999	248
481.10999	39
500.07001	18
501.23001	5

NAME: Phosphatidylethanolamine 18
PRECURSORMZ: 794.570529
PRECURSORTYPE: [M-H]-
FORMULA: C45H82NO8P
Ontology: Phosphatidylethanolamines
INCHIKEY: QDYAMUDPRJZWQB-BPSDUUPONA-N
SMILES: CCCCCCCCCCCCCCCCCC(=O)OCC(COP(O)(=O)OCCN)OC(=O)CC\C=C/C\C=C/C\C=C/C\C=C/CCCCCCCC
RETENTIONTIME: 
CCS: -1
IONMODE: Negative
INSTRUMENTTYPE: LC-ESI-ITFT
INSTRUMENT: 
COLLISIONENERGY: 30
Comment: registered in MassBank
Num Peaks: 13
259.17999	7
283.14001	409
284.19	42
287.20999	35
288.16	5
302.92999	8
331.09	1000
332.17001	133
480.07999	157
481.14999	12
527.79999	5
719.07001	5
730.79999	42

NAME: Phosphatidylethanolamine 18
PRECURSORMZ: 792.554879
PRECURSORTYPE: [M-H]-
FORMULA: C45H80NO8P
Ontology: Phosphatidylethanolamines
INCHIKEY: DPRXQVIZBLENFV-WZARRQHINA-N
SMILES: CCCCCCCCCCCCCCCCCC(=O)OCC(COP(O)(=O)OCCN)OC(=O)CC\C=C/C\C=C/C\C=C/C\C=C/C\C=C/CCCCC
RETENTIONTIME: 
CCS: 400.5178659
IONMODE: Negative
INSTRUMENTTYPE: LC-ESI-ITFT
INSTRUMENT: 
COLLISIONENERGY: 30
Comment: registered in MassBank
Num Peaks: 15
283.22	434
284.39001	99
285.17999	305
286.14999	20
310.92999	44
329.10001	1000
330.07999	155
480.09	299
481.17001	64
482.34	23
526.10999	7
649.60999	10
680.89001	15
710.87	30
718.39001	125

NAME: Phosphatidylethanolamine 18
PRECURSORMZ: 790.539229
PRECURSORTYPE: [M-H]-
FORMULA: C45H78NO8P
Ontology: Phosphatidylethanolamines
INCHIKEY: XYYHNDVKALDFHQ-HSBBONCLNA-N
SMILES: CCCCCCCCCCCCCCCCCC(=O)OCC(COP(O)(=O)OCCN)OC(=O)CC\C=C/C\C=C/C\C=C/C\C=C/C\C=C/C\C=C/CC
RETENTIONTIME: 
CCS: 396.325474
IONMODE: Negative
INSTRUMENTTYPE: LC-ESI-ITFT
INSTRUMENT: 
COLLISIONENERGY: 30
Comment: registered in MassBank
Num Peaks: 13
229.25999	8
249.03999	5
283.10001	1000
284.20001	82
326.98999	696
328.07999	74
462.10999	27
463.31	7
480.09	403
481.20999	44
505.92999	5
507.26001	7
523.88	31

NAME: Phosphatidylethanolamine 18
PRECURSORMZ: 740.523578
PRECURSORTYPE: [M-H]-
FORMULA: C41H76NO8P
Ontology: Phosphatidylethanolamines
INCHIKEY: SDQYMWWODQDLBO-XBCPOCNBNA-N
SMILES: CCCCCCCCCCCCC\C=C/CCC(=O)OCC(COP(O)(=O)OCCN)OC(=O)CC\C=C/C\C=C/CCCCCCCCCC
RETENTIONTIME: 
CCS: -1
IONMODE: Negative
INSTRUMENTTYPE: LC-ESI-ITFT
INSTRUMENT: 
COLLISIONENERGY: 30
Comment: registered in MassBank
Num Peaks: 9
279.04001	1000
280.14999	52
281.07001	393
282.01999	6
458.09	8
460.10999	12
476.14001	18
478.01001	136
479.10999	10

NAME: Phosphatidylethanolamine 18
PRECURSORMZ: 758.570529
PRECURSORTYPE: [M-H]-
FORMULA: C42H82NO8P
Ontology: Phosphatidylethanolamines
INCHIKEY: VDFCHVPNRGGNPX-HYOGKJQXNA-N
SMILES: CCCCCCCCCCCCCCCCCCC(=O)OC(COC(=O)CC\C=C/CCCCCCCCCCCCC)COP(O)(=O)OCCN
RETENTIONTIME: 
CCS: -1
IONMODE: Negative
INSTRUMENTTYPE: LC-ESI-ITFT
INSTRUMENT: 
COLLISIONENERGY: 30
Comment: registered in MassBank
Num Peaks: 2
281.32001	1000
476.01001	462

NAME: Phosphatidylethanolamine 18
PRECURSORMZ: 770.570529
PRECURSORTYPE: [M-H]-
FORMULA: C43H82NO8P
Ontology: Phosphatidylethanolamines
INCHIKEY: UVYKYAJJWJKGHK-SZDCHMHBNA-N
SMILES: CCCCCCCCCCCCCCC\C=C/CCC(=O)OC(COC(=O)CC\C=C/CCCCCCCCCCCCC)COP(O)(=O)OCCN
RETENTIONTIME: 
CCS: -1
IONMODE: Negative
INSTRUMENTTYPE: LC-ESI-ITFT
INSTRUMENT: 
COLLISIONENERGY: 30
Comment: registered in MassBank
Num Peaks: 11
281.20001	460
282.35001	94
309.16	1000
310.10999	171
478.07999	117
507.31	37
521.79999	17
621.04999	20
718.29999	57
722.33002	47
727.89001	17

NAME: Phosphatidylethanolamine 18
PRECURSORMZ: 768.554879
PRECURSORTYPE: [M-H]-
FORMULA: C43H80NO8P
Ontology: Phosphatidylethanolamines
INCHIKEY: IJPGDTSEDOEETE-QGRKPBPINA-N
SMILES: CCCCCCCCCCCCC\C=C/CCC(=O)OCC(COP(O)(=O)OCCN)OC(=O)CC\C=C/C\C=C/CCCCCCCCCCCC
RETENTIONTIME: 
CCS: -1
IONMODE: Negative
INSTRUMENTTYPE: LC-ESI-ITFT
INSTRUMENT: 
COLLISIONENERGY: 30
Comment: registered in MassBank
Num Peaks: 19
280.62	89
281.25	301
282.23001	21
283.29999	27
303.14999	13
307.16	1000
308.23001	70
309.12	90
310.09	12
457.82001	12
460.26999	9
478.06	146
481.42999	19
504.38	51
506.23999	48
559.91998	34
561.22998	5
720.39001	15
735.53998	16

NAME: Phosphatidylethanolamine 18
PRECURSORMZ: 764.523578
PRECURSORTYPE: [M-H]-
FORMULA: C43H76NO8P
Ontology: Phosphatidylethanolamines
INCHIKEY: QBVUKWXEFSHJOQ-MOYSMJPMNA-N
SMILES: CCCCCCCCCCCCC\C=C/CCC(=O)OCC(COP(O)(=O)OCCN)OC(=O)CC\C=C/C\C=C/C\C=C/C\C=C/CCCCCC
RETENTIONTIME: 
CCS: -1
IONMODE: Negative
INSTRUMENTTYPE: LC-ESI-ITFT
INSTRUMENT: 
COLLISIONENERGY: 30
Comment: registered in MassBank
Num Peaks: 13
259.12	80
259.92999	8
281.13	510
282.14999	52
285.03	8
303.12	1000
304.12	172
460.10999	20
461.23999	5
478.10999	286
479.06	49
481.89001	7
500.09	20

NAME: Phosphatidylethanolamine 18
PRECURSORMZ: 762.507928
PRECURSORTYPE: [M-H]-
FORMULA: C43H74NO8P
Ontology: Phosphatidylethanolamines
INCHIKEY: MQYQFMSHGWBKBV-XKMJRSRDNA-N
SMILES: CCCCCCCCCCCCC\C=C/CCC(=O)OCC(COP(O)(=O)OCCN)OC(=O)CC\C=C/C\C=C/C\C=C/C\C=C/C\C=C/CCC
RETENTIONTIME: 
CCS: -1
IONMODE: Negative
INSTRUMENTTYPE: LC-ESI-ITFT
INSTRUMENT: 
COLLISIONENERGY: 30
Comment: registered in MassBank
Num Peaks: 35
223.21001	5
240.23	8
253.13	5
255.06	26
256.10001	44
257.06	287
258.32999	41
259.17001	27
279.17001	70
281.04999	857
282.12	65
283.32999	12
301.04999	1000
302.04999	155
303.03	175
304.13	25
324.07999	10
325.41	7
326.13	6
329.14999	6
449.91	8
452.95001	27
453.72	7
458.01001	6
460.01001	26
461.32001	8
476.07001	54
478.06	534
479	53
480.10001	18
498.03	17
498.79999	25
523.10999	10
523.72998	6
742.96997	6

NAME: Phosphatidylethanolamine 18
PRECURSORMZ: 798.601829
PRECURSORTYPE: [M-H]-
FORMULA: C45H86NO8P
Ontology: Phosphatidylethanolamines
INCHIKEY: URZHPEMDTOWQOA-WANSBIPINA-N
SMILES: CCCCCCCCCCCCCCCCC\C=C/CCC(=O)OC(COC(=O)CC\C=C/CCCCCCCCCCCCC)COP(O)(=O)OCCN
RETENTIONTIME: 
CCS: -1
IONMODE: Negative
INSTRUMENTTYPE: LC-ESI-ITFT
INSTRUMENT: 
COLLISIONENERGY: 30
Comment: registered in MassBank
Num Peaks: 17
281.06	560
282.22	56
309.04001	47
310.38	38
337.12	1000
338.57999	179
365.14001	43
478.29001	60
517.38	43
534.15002	64
599.90002	21
630.34998	73
634.52002	43
641.52002	34
715.16998	184
737.16998	26
754.12	94

NAME: Phosphatidylethanolamine 18
PRECURSORMZ: 792.554879
PRECURSORTYPE: [M-H]-
FORMULA: C45H80NO8P
Ontology: Phosphatidylethanolamines
INCHIKEY: XBPHCFQOKKXKHJ-IVJZGABJNA-N
SMILES: CCCCCCCCCCCCC\C=C/CCC(=O)OCC(COP(O)(=O)OCCN)OC(=O)CC\C=C/C\C=C/C\C=C/C\C=C/CCCCCCCC
RETENTIONTIME: 
CCS: -1
IONMODE: Negative
INSTRUMENTTYPE: LC-ESI-ITFT
INSTRUMENT: 
COLLISIONENERGY: 30
Comment: registered in MassBank
Num Peaks: 24
281.07999	683
282.23001	55
283.42999	148
284.17999	59
287.09	46
301.29001	48
305.38	55
312.94	39
327.17001	59
328.12	32
330.04001	43
331.19	1000
332.23001	64
460.38	27
461.51999	39
478.28	176
481.17999	41
509.95001	18
528.40002	100
689.53003	23
714.72998	73
741.84003	55
742.5	32
743.39001	18

NAME: Phosphatidylethanolamine 18
PRECURSORMZ: 788.523578
PRECURSORTYPE: [M-H]-
FORMULA: C45H76NO8P
Ontology: Phosphatidylethanolamines
INCHIKEY: VPTWUJPVIKSANV-QRPORDCINA-N
SMILES: CCCCCCCCCCCCC\C=C/CCC(=O)OCC(COP(O)(=O)OCCN)OC(=O)CC\C=C/C\C=C/C\C=C/C\C=C/C\C=C/C\C=C/CC
RETENTIONTIME: 
CCS: -1
IONMODE: Negative
INSTRUMENTTYPE: LC-ESI-ITFT
INSTRUMENT: 
COLLISIONENERGY: 30
Comment: registered in MassBank
Num Peaks: 14
229.00999	11
249.13	10
281.09	979
282.42001	186
283.12	396
284.10999	75
309.14999	6
327.04999	1000
328.04001	201
460.01999	37
461.14001	5
478.03	560
479.13	89
524.01001	34

NAME: Phosphatidylethanolamine 18
PRECURSORMZ: 762.507928
PRECURSORTYPE: [M-H]-
FORMULA: C43H74NO8P
Ontology: Phosphatidylethanolamines
INCHIKEY: VTQZPEHDNCIYJA-IPVVXUKZNA-N
SMILES: CCCCCCCCCC\C=C/C\C=C/CCC(=O)OCC(COP(O)(=O)OCCN)OC(=O)CC\C=C/C\C=C/C\C=C/C\C=C/CCCCCC
RETENTIONTIME: 
CCS: -1
IONMODE: Negative
INSTRUMENTTYPE: LC-ESI-ITFT
INSTRUMENT: 
COLLISIONENERGY: 30
Comment: registered in MassBank
Num Peaks: 11
259.14001	45
279.13	393
280.17001	52
301.01001	7
303.10001	1000
304.10001	101
458.06	14
476.07999	192
477.23001	33
500.17999	8
687.85999	25

NAME: Phosphatidylethanolamine 18
PRECURSORMZ: 786.507928
PRECURSORTYPE: [M-H]-
FORMULA: C45H74NO8P
Ontology: Phosphatidylethanolamines
INCHIKEY: UWCJYOTVTHYMRF-XPMHQQHXNA-N
SMILES: CCCCCCCCCC\C=C/C\C=C/CCC(=O)OCC(COP(O)(=O)OCCN)OC(=O)CC\C=C/C\C=C/C\C=C/C\C=C/C\C=C/C\C=C/CC
RETENTIONTIME: 
CCS: -1
IONMODE: Negative
INSTRUMENTTYPE: LC-ESI-ITFT
INSTRUMENT: 
COLLISIONENERGY: 30
Comment: registered in MassBank
Num Peaks: 24
241.31	22
257.20001	139
258.22	14
259.22	67
260.10999	22
277.07999	251
277.95999	71
279.04001	598
283.26001	22
301.10999	1000
302.23999	113
303.12	457
304.12	65
420.17001	18
456.14999	8
457.98001	36
474.22	117
474.85001	34
476.12	453
477	12
498.14999	61
674.85999	14
695.96997	34
700.25	24

NAME: Phosphatidylethanolamine 18
PRECURSORMZ: 786.507928
PRECURSORTYPE: [M-H]-
FORMULA: C45H74NO8P
Ontology: Phosphatidylethanolamines
INCHIKEY: UWCJYOTVTHYMRF-XPMHQQHXNA-N
SMILES: CCCCCCCCCC\C=C/C\C=C/CCC(=O)OCC(COP(O)(=O)OCCN)OC(=O)CC\C=C/C\C=C/C\C=C/C\C=C/C\C=C/C\C=C/CC
RETENTIONTIME: 
CCS: -1
IONMODE: Negative
INSTRUMENTTYPE: LC-ESI-ITFT
INSTRUMENT: 
COLLISIONENERGY: 30
Comment: registered in MassBank
Num Peaks: 24
229.03999	43
249.02	24
279.07999	838
280.12	98
281.38	9
283.16	600
284.20999	62
301.19	7
303.09	114
304.25	14
309.32001	11
327.06	1000
328.10001	182
416.10999	8
458.06	30
462.92999	8
476.04001	518
477.04999	95
478.22	11
499.92999	31
500.78	12
506.07001	16
507.07999	9
524.02002	70

NAME: Phosphatidylethanolamine 18
PRECURSORMZ: 736.492278
PRECURSORTYPE: [M-H]-
FORMULA: C41H72NO8P
Ontology: Phosphatidylethanolamines
INCHIKEY: HIQJFUWUAGQURV-FOPRJHBCNA-N
SMILES: CCCCCCCCCC\C=C/C\C=C/CCC(=O)OC(COC(=O)CC\C=C/C\C=C/C\C=C/CCCCCCC)COP(O)(=O)OCCN
RETENTIONTIME: 
CCS: -1
IONMODE: Negative
INSTRUMENTTYPE: LC-ESI-ITFT
INSTRUMENT: 
COLLISIONENERGY: 30
Comment: registered in MassBank
Num Peaks: 16
253.3	9
277.16	531
278.22	61
279.14999	1000
280.12	159
284.14001	21
327.28	12
329.07001	15
388.98001	23
424.42001	34
458.07001	20
474.01999	128
475.28	66
526.73999	11
544.81	37
678.07001	15

NAME: Phosphatidylethanolamine 18
PRECURSORMZ: 784.492278
PRECURSORTYPE: [M-H]-
FORMULA: C45H72NO8P
Ontology: Phosphatidylethanolamines
INCHIKEY: QHBRBPVFJNFNGF-CMKTUIRZNA-N
SMILES: CCCCCCC\C=C/C\C=C/C\C=C/CCC(=O)OCC(COP(O)(=O)OCCN)OC(=O)CC\C=C/C\C=C/C\C=C/C\C=C/C\C=C/C\C=C/CC
RETENTIONTIME: 
CCS: -1
IONMODE: Negative
INSTRUMENTTYPE: LC-ESI-ITFT
INSTRUMENT: 
COLLISIONENERGY: 30
Comment: registered in MassBank
Num Peaks: 22
228.99001	89
259.22	42
277.16	584
278.09	21
283.14999	137
284.26001	68
301.13	105
302.85999	274
303.51999	26
304.20999	53
327.09	1000
328.44	42
456.09	84
474.10999	984
475.29999	42
497.94	42
500.09	137
585.17999	37
606.57001	42
679.54999	37
702.40997	74
723.03003	116

NAME: Phosphatidylethanolamine 19
PRECURSORMZ: 756.554879
PRECURSORTYPE: [M-H]-
FORMULA: C42H80NO8P
Ontology: Phosphatidylethanolamines
INCHIKEY: GTOGJRHPAQPWSR-WGPKDLKGNA-N
SMILES: CCCCCCCCCCCCCCCCCCC(=O)OCC(COP(O)(=O)OCCN)OC(=O)CC\C=C/C\C=C/CCCCCCCCCC
RETENTIONTIME: 
CCS: -1
IONMODE: Negative
INSTRUMENTTYPE: LC-ESI-ITFT
INSTRUMENT: 
COLLISIONENERGY: 30
Comment: registered in MassBank
Num Peaks: 10
260.84	6
279.01999	1000
280	135
281.28	10
297.17001	401
298.25	18
457.98999	26
494.04999	105
495.26001	30
509.87	7

NAME: Phosphatidylethanolamine 19
PRECURSORMZ: 782.570529
PRECURSORTYPE: [M-H]-
FORMULA: C44H82NO8P
Ontology: Phosphatidylethanolamines
INCHIKEY: WHRINFUMSAOXIM-UEZFOCAYNA-N
SMILES: CCCCCCCCCCCCCCCCCCC(=O)OCC(COP(O)(=O)OCCN)OC(=O)CC\C=C/C\C=C/C\C=C/CCCCCCCCC
RETENTIONTIME: 
CCS: -1
IONMODE: Negative
INSTRUMENTTYPE: LC-ESI-ITFT
INSTRUMENT: 
COLLISIONENERGY: 30
Comment: registered in MassBank
Num Peaks: 18
297.09	516
298.35001	75
304.98001	1000
306.28	170
325.13	33
476.34	75
494.22	297
502.07001	42
577.59998	20
606.12	46
695.06	29
696.34003	20
699.53998	26
709.60999	39
714.63	36
723.78003	16
725.71997	49
749.90997	29

NAME: Phosphatidylethanolamine 19
PRECURSORMZ: 780.554879
PRECURSORTYPE: [M-H]-
FORMULA: C44H80NO8P
Ontology: Phosphatidylethanolamines
INCHIKEY: GGEYNVXDNWJXIN-SLLFMANONA-N
SMILES: CCCCCCCCCCCCCCCCCCC(=O)OCC(COP(O)(=O)OCCN)OC(=O)CC\C=C/C\C=C/C\C=C/C\C=C/CCCCCC
RETENTIONTIME: 
CCS: -1
IONMODE: Negative
INSTRUMENTTYPE: LC-ESI-ITFT
INSTRUMENT: 
COLLISIONENERGY: 30
Comment: registered in MassBank
Num Peaks: 13
259.10001	76
260.23001	8
285.23001	7
297.10999	558
298.23999	69
303.01999	1000
304.13	125
476.17999	10
482.41	9
494.07001	288
495.06	38
500.16	16
730.16998	8

NAME: Phosphatidylethanolamine 19
PRECURSORMZ: 804.554879
PRECURSORTYPE: [M-H]-
FORMULA: C46H80NO8P
Ontology: Phosphatidylethanolamines
INCHIKEY: PITVJCPCBXGCHJ-MXQGKLILNA-N
SMILES: CCCCCCCCCCCCCCCCCCC(=O)OCC(COP(O)(=O)OCCN)OC(=O)CC\C=C/C\C=C/C\C=C/C\C=C/C\C=C/C\C=C/CC
RETENTIONTIME: 
CCS: -1
IONMODE: Negative
INSTRUMENTTYPE: LC-ESI-ITFT
INSTRUMENT: 
COLLISIONENERGY: 30
Comment: registered in MassBank
Num Peaks: 27
248.89	9
255.03999	9
280.31	13
283.10999	390
284.06	12
297.07999	747
298.14999	104
327.07001	1000
328.32999	66
357.35001	9
358.29999	6
383.92999	12
388.09	25
420.01001	16
463.07999	14
476.51001	40
489.95001	8
494.12	386
495.14999	117
525.02002	12
727.90002	13
729.25	36
729.98999	16
743.20001	38
744.09003	36
747.59003	6
804.98999	9

NAME: Phosphatidylethanolamine 20
PRECURSORMZ: 770.570529
PRECURSORTYPE: [M-H]-
FORMULA: C43H82NO8P
Ontology: Phosphatidylethanolamines
INCHIKEY: VWYTUCQACXRPSI-QIPJBBGZNA-N
SMILES: CCCCCCCCCCCCCCCCCCCC(=O)OCC(COP(O)(=O)OCCN)OC(=O)CC\C=C/C\C=C/CCCCCCCCCC
RETENTIONTIME: 
CCS: -1
IONMODE: Negative
INSTRUMENTTYPE: LC-ESI-ITFT
INSTRUMENT: 
COLLISIONENERGY: 30
Comment: registered in MassBank
Num Peaks: 12
279.06	1000
280.07999	78
307.25	5
311.17001	459
312.23001	49
414.70999	6
458.10999	11
475.89999	8
490.14001	13
491.10999	10
508.14999	173
509.13	20

NAME: Phosphatidylethanolamine 20
PRECURSORMZ: 796.586179
PRECURSORTYPE: [M-H]-
FORMULA: C45H84NO8P
Ontology: Phosphatidylethanolamines
INCHIKEY: FJLSFWWSNVGVIN-KWKIUDPJNA-N
SMILES: CCCCCCCCCCCCCCCCCCCC(=O)OCC(COP(O)(=O)OCCN)OC(=O)CC\C=C/C\C=C/C\C=C/CCCCCCCCC
RETENTIONTIME: 
CCS: -1
IONMODE: Negative
INSTRUMENTTYPE: LC-ESI-ITFT
INSTRUMENT: 
COLLISIONENERGY: 30
Comment: registered in MassBank
Num Peaks: 12
305.12	1000
306.20001	161
311.16	641
312.09	67
394.54999	24
508.14999	167
632.44	30
654.53003	15
709.17999	21
714.58002	52
731.64001	70
736.34998	33

NAME: Phosphatidylethanolamine 20
PRECURSORMZ: 794.570529
PRECURSORTYPE: [M-H]-
FORMULA: C45H82NO8P
Ontology: Phosphatidylethanolamines
INCHIKEY: NWMRMMRJNCGRTC-CDNBUOKMNA-N
SMILES: CCCCCCCCCCCCCCCCCCCC(=O)OCC(COP(O)(=O)OCCN)OC(=O)CC\C=C/C\C=C/C\C=C/C\C=C/CCCCCC
RETENTIONTIME: 
CCS: -1
IONMODE: Negative
INSTRUMENTTYPE: LC-ESI-ITFT
INSTRUMENT: 
COLLISIONENERGY: 30
Comment: registered in MassBank
Num Peaks: 12
259.10999	102
260.22	8
285.13	6
303.06	1000
304.10999	102
311.14001	596
312.20999	78
490.26999	17
500.12	9
508.03	314
509.03	46
730.67999	21

NAME: Phosphatidylethanolamine 20
PRECURSORMZ: 792.554879
PRECURSORTYPE: [M-H]-
FORMULA: C45H80NO8P
Ontology: Phosphatidylethanolamines
INCHIKEY: VNLXORDQXXPODA-WARBFJPKNA-N
SMILES: CCCCCCCCCCCCCCCCCCCC(=O)OCC(COP(O)(=O)OCCN)OC(=O)CC\C=C/C\C=C/C\C=C/C\C=C/C\C=C/CCC
RETENTIONTIME: 
CCS: -1
IONMODE: Negative
INSTRUMENTTYPE: LC-ESI-ITFT
INSTRUMENT: 
COLLISIONENERGY: 30
Comment: registered in MassBank
Num Peaks: 18
254.88	14
257.20999	277
277.07999	58
283.10999	32
301.09	558
302.13	183
311.17999	1000
312.14001	65
327.32999	50
480.22	104
481.29999	22
492.87	22
508.13	165
513.23999	14
692.58002	58
694.46997	76
718.17999	90
731.90002	40

NAME: Phosphatidylethanolamine 20
PRECURSORMZ: 818.570529
PRECURSORTYPE: [M-H]-
FORMULA: C47H82NO8P
Ontology: Phosphatidylethanolamines
INCHIKEY: WIFLVHIKWGINAQ-ZVJYVBFZNA-N
SMILES: CCCCCCCCCCCCCCCCCCCC(=O)OCC(COP(O)(=O)OCCN)OC(=O)CC\C=C/C\C=C/C\C=C/C\C=C/C\C=C/C\C=C/CC
RETENTIONTIME: 
CCS: 403.3188428
IONMODE: Negative
INSTRUMENTTYPE: LC-ESI-ITFT
INSTRUMENT: 
COLLISIONENERGY: 30
Comment: registered in MassBank
Num Peaks: 17
283.13	491
284.13	150
311.17001	1000
312.17999	148
327.07999	896
328.07001	123
490.16	19
506.10001	41
507.57999	58
508.23999	724
509.16	53
523.97998	17
613.02002	8
680.72998	8
733.97998	11
743.5	54
744.21002	86

NAME: Phosphatidylethanolamine 20
PRECURSORMZ: 816.554879
PRECURSORTYPE: [M-H]-
FORMULA: C47H80NO8P
Ontology: Phosphatidylethanolamines
INCHIKEY: BOUBNNHFOXUIOH-RHMKWMONNA-N
SMILES: CCCCCCCCCCCCCCC\C=C/CCC(=O)OCC(COP(O)(=O)OCCN)OC(=O)CC\C=C/C\C=C/C\C=C/C\C=C/C\C=C/C\C=C/CC
RETENTIONTIME: 
CCS: -1
IONMODE: Negative
INSTRUMENTTYPE: LC-ESI-ITFT
INSTRUMENT: 
COLLISIONENERGY: 30
Comment: registered in MassBank
Num Peaks: 14
255.28999	8
283.19	190
284.22	6
309.19	648
310.23001	61
327.10999	568
328.12	50
488.20001	28
506.06	417
507.25	53
508.23001	13
523.81	17
696.78998	17
742.17999	1000

NAME: Phosphatidylethanolamine 20
PRECURSORMZ: 814.539229
PRECURSORTYPE: [M-H]-
FORMULA: C47H78NO8P
Ontology: Phosphatidylethanolamines
INCHIKEY: BSGJBDYIUVDIRF-LPXIWEFZNA-N
SMILES: CCCCCCCCCCCC\C=C/C\C=C/CCC(=O)OCC(COP(O)(=O)OCCN)OC(=O)CC\C=C/C\C=C/C\C=C/C\C=C/C\C=C/C\C=C/CC
RETENTIONTIME: 
CCS: -1
IONMODE: Negative
INSTRUMENTTYPE: LC-ESI-ITFT
INSTRUMENT: 
COLLISIONENERGY: 30
Comment: registered in MassBank
Num Peaks: 16
281.38	14
283.23001	115
284.28	42
307.17001	871
308.25	94
327.09	1000
328.07999	154
375.69	21
486.25	38
504.20001	462
505.25	38
506.17001	38
523.97998	38
727.13	35
740.06	444
754.34003	45

NAME: Phosphatidylethanolamine 20
PRECURSORMZ: 788.523578
PRECURSORTYPE: [M-H]-
FORMULA: C45H76NO8P
Ontology: Phosphatidylethanolamines
INCHIKEY: KOORSVXMLRAPQP-YWHZSVKVNA-N
SMILES: CCCCCCCCC\C=C/C\C=C/C\C=C/CCC(=O)OCC(COP(O)(=O)OCCN)OC(=O)CC\C=C/C\C=C/C\C=C/C\C=C/CCCCCC
RETENTIONTIME: 
CCS: -1
IONMODE: Negative
INSTRUMENTTYPE: LC-ESI-ITFT
INSTRUMENT: 
COLLISIONENERGY: 30
Comment: registered in MassBank
Num Peaks: 28
255.3	37
260.60001	26
279.26999	73
281.03	89
300.95999	13
303.10999	1000
303.98999	170
305.10999	508
325.19	34
326.54999	45
329.41	21
422.82999	37
423.78	42
478.26001	47
484.19	26
502.01001	168
502.75	55
504.14001	47
505.10001	524
506.10001	298
507.37	13
658.87	13
680.56	105
685.45001	16
701.52002	45
705.83002	10
714.28003	529
729.28003	16

NAME: Phosphatidylethanolamine 20
PRECURSORMZ: 810.507928
PRECURSORTYPE: [M-H]-
FORMULA: C47H74NO8P
Ontology: Phosphatidylethanolamines
INCHIKEY: QYRBWBWQALDZGP-YARNEYDXNA-N
SMILES: CCCCCC\C=C/C\C=C/C\C=C/C\C=C/CCC(=O)OCC(COP(O)(=O)OCCN)OC(=O)CC\C=C/C\C=C/C\C=C/C\C=C/C\C=C/C\C=C/CC
RETENTIONTIME: 
CCS: -1
IONMODE: Negative
INSTRUMENTTYPE: LC-ESI-ITFT
INSTRUMENT: 
COLLISIONENERGY: 30
Comment: registered in MassBank
Num Peaks: 19
249.24001	17
259.12	84
259.95001	22
267.23001	16
268.98999	10
283.13	99
283.85999	7
286.25	12
303.09	1000
304.04001	32
327.14999	256
449.89001	12
482.17001	10
500.23001	94
500.95999	38
524.27002	144
525.15002	25
562.67999	10
723.01001	22

NAME: Phosphatidylethanolamine 22
PRECURSORMZ: 798.601829
PRECURSORTYPE: [M-H]-
FORMULA: C45H86NO8P
Ontology: Phosphatidylethanolamines
INCHIKEY: JTIHPLOLGGYHEZ-XJKRCVSZNA-N
SMILES: CCCCCCCCCCCCCCCCCCCCCC(=O)OCC(COP(O)(=O)OCCN)OC(=O)CC\C=C/C\C=C/CCCCCCCCCC
RETENTIONTIME: 
CCS: -1
IONMODE: Negative
INSTRUMENTTYPE: LC-ESI-ITFT
INSTRUMENT: 
COLLISIONENERGY: 30
Comment: registered in MassBank
Num Peaks: 16
279.14001	1000
280.17001	206
308.16	6
339.20001	571
340.28	236
368.42999	13
450.54001	13
458.35999	6
475.73999	26
476.48999	21
518.20001	18
536.14001	156
537.12	61
697.71002	19
715.92999	18
752.62	19

NAME: Phosphatidylethanolamine 22
PRECURSORMZ: 796.586179
PRECURSORTYPE: [M-H]-
FORMULA: C45H84NO8P
Ontology: Phosphatidylethanolamines
INCHIKEY: MKIWGOUJSUAXPP-DFWRNDSJNA-N
SMILES: CCCCCCCCCCCCCCCCC\C=C/CCC(=O)OCC(COP(O)(=O)OCCN)OC(=O)CC\C=C/C\C=C/CCCCCCCCCC
RETENTIONTIME: 
CCS: -1
IONMODE: Negative
INSTRUMENTTYPE: LC-ESI-ITFT
INSTRUMENT: 
COLLISIONENERGY: 30
Comment: registered in MassBank
Num Peaks: 11
278.89999	717
280.23999	104
283.31	76
309.28	28
311.45999	20
330.79999	24
337.13	1000
534.21997	68
706.60999	36
709.27002	80
735.47998	16

NAME: Phosphatidylethanolamine 22
PRECURSORMZ: 834.507928
PRECURSORTYPE: [M-H]-
FORMULA: C49H74NO8P
Ontology: Phosphatidylethanolamines
INCHIKEY: RBDNSJMXMWTPCS-GZSOIYOPNA-N
SMILES: CC\C=C/C\C=C/C\C=C/C\C=C/C\C=C/C\C=C/CCC(=O)OCC(COP(O)(=O)OCCN)OC(=O)CC\C=C/C\C=C/C\C=C/C\C=C/C\C=C/C\C=C/CC
RETENTIONTIME: 
CCS: 426.1375328
IONMODE: Negative
INSTRUMENTTYPE: LC-ESI-ITFT
INSTRUMENT: 
COLLISIONENERGY: 30
Comment: registered in MassBank
Num Peaks: 11
259.04999	13
283.14001	773
284.17999	95
284.84	22
327.14999	1000
328.10999	115
505.82001	93
524.01001	877
525.21002	121
747.07001	69
752.62	6

NAME: Phosphatidylethanolamine alkenyl 16
PRECURSORMZ: 724.528664
PRECURSORTYPE: [M-H]-
FORMULA: C41H76NO7P
Ontology: 1-(1Z-alkenyl),2-acylglycerophosphoethanolamines
INCHIKEY: QUEBLWWLERMNAP-RYYWRRNANA-N
SMILES: CCCCCCCCCCCCCC\C=C\OCC(COP(O)(=O)OCCN)OC(=O)CC\C=C/C\C=C/C\C=C/CCCCCCCCC
RETENTIONTIME: 
CCS: -1
IONMODE: Negative
INSTRUMENTTYPE: LC-ESI-ITFT
INSTRUMENT: 
COLLISIONENERGY: 30
Comment: registered in MassBank
Num Peaks: 11
303.76999	14
305.14001	1000
306.10001	86
375.01001	8
418.14999	48
418.88	12
436.22	142
437.26001	20
584	11
612.96997	6
652.34998	10

NAME: Phosphatidylethanolamine alkenyl 16
PRECURSORMZ: 722.513014
PRECURSORTYPE: [M-H]-
FORMULA: C41H74NO7P
Ontology: 1-(1Z-alkenyl),2-acylglycerophosphoethanolamines
INCHIKEY: QDRJMAHGAQYRIN-PKKQLAOCNA-N
SMILES: CCCCCCCCCCCCCC\C=C\OCC(COP(O)(=O)OCCN)OC(=O)CC\C=C/C\C=C/C\C=C/C\C=C/CCCCCC
RETENTIONTIME: 
CCS: -1
IONMODE: Negative
INSTRUMENTTYPE: LC-ESI-ITFT
INSTRUMENT: 
COLLISIONENERGY: 30
Comment: registered in MassBank
Num Peaks: 7
259.16	113
285.09	7
303.07001	1000
304.25	28
418.23001	58
436.07999	392
437.26999	13

NAME: Phosphatidylethanolamine alkenyl 16
PRECURSORMZ: 720.497364
PRECURSORTYPE: [M-H]-
FORMULA: C41H72NO7P
Ontology: 1-(1Z-alkenyl),2-acylglycerophosphoethanolamines
INCHIKEY: RPMVRPOBBVLOLS-HAQSCEBBNA-N
SMILES: CCCCCCCCCCCCCC\C=C\OCC(COP(O)(=O)OCCN)OC(=O)CC\C=C/C\C=C/C\C=C/C\C=C/C\C=C/CCC
RETENTIONTIME: 
CCS: -1
IONMODE: Negative
INSTRUMENTTYPE: LC-ESI-ITFT
INSTRUMENT: 
COLLISIONENERGY: 30
Comment: registered in MassBank
Num Peaks: 20
202.92999	7
205.08	17
240.17	17
255.60001	12
257.07001	287
258.39999	44
283.42001	23
301.16	1000
302.07001	65
303.57001	100
304.28	9
374.89001	20
415.91	12
418.07999	96
419.23001	20
436.10999	673
437.07001	63
480.03	9
486.95999	19
598.5	13

NAME: Phosphatidylethanolamine alkenyl 16
PRECURSORMZ: 750.544314
PRECURSORTYPE: [M-H]-
FORMULA: C43H78NO7P
Ontology: 1-(1Z-alkenyl),2-acylglycerophosphoethanolamines
INCHIKEY: RKVZUTPSIGLURV-BLAGHTKONA-N
SMILES: CCCCCCCCCCCCCC\C=C\OCC(COP(O)(=O)OCCN)OC(=O)CC\C=C/C\C=C/C\C=C/C\C=C/CCCCCCCC
RETENTIONTIME: 
CCS: -1
IONMODE: Negative
INSTRUMENTTYPE: LC-ESI-ITFT
INSTRUMENT: 
COLLISIONENERGY: 30
Comment: registered in MassBank
Num Peaks: 16
234.24001	9
239.03	14
287.29001	32
288.34	8
303.32999	32
328.89999	5
331.17999	1000
332.14001	210
332.79001	6
375.10001	14
418.22	50
419.39999	31
436.09	348
437.03	30
464.41	23
718.63	21

NAME: Phosphatidylethanolamine alkenyl 16
PRECURSORMZ: 748.528664
PRECURSORTYPE: [M-H]-
FORMULA: C43H76NO7P
Ontology: 1-(1Z-alkenyl),2-acylglycerophosphoethanolamines
INCHIKEY: IRRKKHCAJLHSJE-NBLHLOSHNA-N
SMILES: CCCCCCCCCCCCCC\C=C\OCC(COP(O)(=O)OCCN)OC(=O)CC\C=C/C\C=C/C\C=C/C\C=C/C\C=C/CCCCC
RETENTIONTIME: 
CCS: 371.0133016
IONMODE: Negative
INSTRUMENTTYPE: LC-ESI-ITFT
INSTRUMENT: 
COLLISIONENERGY: 30
Comment: registered in MassBank
Num Peaks: 18
231.00999	13
239.32001	8
283.10001	8
285.16	116
286.10001	16
301.14999	11
303.04999	21
311.19	6
326.98001	9
329.07999	1000
330.07001	163
418	72
419.54001	10
436.10999	399
437.09	36
438.04999	14
462.22	6
636.22998	6

NAME: Phosphatidylethanolamine alkenyl 18
PRECURSORMZ: 728.559964
PRECURSORTYPE: [M-H]-
FORMULA: C41H80NO7P
Ontology: 1-(1Z-alkenyl),2-acylglycerophosphoethanolamines
INCHIKEY: GJEZRMBBMQUCBS-NLBLVIAENA-N
SMILES: CCCCCCCCCCCCCCCC\C=C\OCC(COP(O)(=O)OCCN)OC(=O)CC\C=C/CCCCCCCCCCCCC
RETENTIONTIME: 
CCS: -1
IONMODE: Negative
INSTRUMENTTYPE: LC-ESI-ITFT
INSTRUMENT: 
COLLISIONENERGY: 30
Comment: registered in MassBank
Num Peaks: 9
281.14001	1000
282.20001	254
446.25	46
459.88	7
464.23001	166
465.17001	23
615.38	16
668.51001	13
670.56	16

NAME: Phosphatidylethanolamine alkenyl 18
PRECURSORMZ: 726.544314
PRECURSORTYPE: [M-H]-
FORMULA: C41H78NO7P
Ontology: 1-(1Z-alkenyl),2-acylglycerophosphoethanolamines
INCHIKEY: QBAQUPWJTLVJBD-CZAAGYDRNA-N
SMILES: CCCCCCCCCCCCCCCC\C=C\OCC(COP(O)(=O)OCCN)OC(=O)CC\C=C/C\C=C/CCCCCCCCCC
RETENTIONTIME: 
CCS: -1
IONMODE: Negative
INSTRUMENTTYPE: LC-ESI-ITFT
INSTRUMENT: 
COLLISIONENERGY: 30
Comment: registered in MassBank
Num Peaks: 10
279.19	1000
280.14999	102
446.14001	5
447.23001	20
464.14001	182
465.26999	6
488.78	5
520.91998	8
669.15002	8
694.41998	23

NAME: Phosphatidylethanolamine alkenyl 18
PRECURSORMZ: 726.544314
PRECURSORTYPE: [M-H]-
FORMULA: C41H78NO7P
Ontology: 1-(1Z-alkenyl),2-acylglycerophosphoethanolamines
INCHIKEY: QBAQUPWJTLVJBD-CZAAGYDRNA-N
SMILES: CCCCCCCCCCCCCCCC\C=C\OCC(COP(O)(=O)OCCN)OC(=O)CC\C=C/C\C=C/CCCCCCCCCC
RETENTIONTIME: 
CCS: -1
IONMODE: Negative
INSTRUMENTTYPE: LC-ESI-ITFT
INSTRUMENT: 
COLLISIONENERGY: 30
Comment: registered in MassBank
Num Peaks: 10
279.19	1000
280.14999	102
446.14001	5
447.23001	20
464.14001	182
465.26999	6
488.78	5
520.91998	8
669.15002	8
694.41998	23

NAME: Phosphatidylethanolamine alkenyl 20
PRECURSORMZ: 754.575614
PRECURSORTYPE: [M-H]-
FORMULA: C43H82NO7P
Ontology: 1-alkyl,2-acylglycerophosphoethanolamines
INCHIKEY: GPGJCRAIGHOCDQ-QGRKPBPINA-N
SMILES: CCCCCCCCCCCCCCC\C=C/CCCOCC(COP(O)(=O)OCCN)OC(=O)CC\C=C/C\C=C/CCCCCCCCCC
RETENTIONTIME: 
CCS: -1
IONMODE: Negative
INSTRUMENTTYPE: LC-ESI-ITFT
INSTRUMENT: 
COLLISIONENERGY: 30
Comment: registered in MassBank
Num Peaks: 9
279.20001	1000
280.28	93
307.09	10
390.79001	29
432.22	14
445.28	37
473.98001	23
492.20999	109
635.59003	10

NAME: Phosphatidylethanolamine alkenyl 20
PRECURSORMZ: 754.575614
PRECURSORTYPE: [M-H]-
FORMULA: C43H82NO7P
Ontology: 1-alkyl,2-acylglycerophosphoethanolamines
INCHIKEY: GPGJCRAIGHOCDQ-QGRKPBPINA-N
SMILES: CCCCCCCCCCCCCCC\C=C/CCCOCC(COP(O)(=O)OCCN)OC(=O)CC\C=C/C\C=C/CCCCCCCCCC
RETENTIONTIME: 
CCS: -1
IONMODE: Negative
INSTRUMENTTYPE: LC-ESI-ITFT
INSTRUMENT: 
COLLISIONENERGY: 30
Comment: registered in MassBank
Num Peaks: 9
279.20001	1000
280.28	93
307.09	10
390.79001	29
432.22	14
445.28	37
473.98001	23
492.20999	109
635.59003	10

NAME: Phosphatidylethanolamine alkenyl 18
PRECURSORMZ: 750.544314
PRECURSORTYPE: [M-H]-
FORMULA: C43H78NO7P
Ontology: 1-(1Z-alkenyl),2-acylglycerophosphoethanolamines
INCHIKEY: RZZGAMUARHRLJN-ZOWVHDLQNA-N
SMILES: CCCCCCCCCCCCCCCC\C=C\OCC(COP(O)(=O)OCCN)OC(=O)CC\C=C/C\C=C/C\C=C/C\C=C/CCCCCC
RETENTIONTIME: 
CCS: -1
IONMODE: Negative
INSTRUMENTTYPE: LC-ESI-ITFT
INSTRUMENT: 
COLLISIONENERGY: 30
Comment: registered in MassBank
Num Peaks: 9
259.14999	96
260.10999	9
267.01999	8
283.19	6
303.04999	1000
304.13	66
446.14999	81
464.17999	412
465.20999	41

NAME: Phosphatidylethanolamine alkenyl 18
PRECURSORMZ: 748.528664
PRECURSORTYPE: [M-H]-
FORMULA: C43H76NO7P
Ontology: 1-(1Z-alkenyl),2-acylglycerophosphoethanolamines
INCHIKEY: UZKXXUJVNWVEAA-GWWWPDGYNA-N
SMILES: CCCCCCCCCCCCCCCC\C=C\OCC(COP(O)(=O)OCCN)OC(=O)CC\C=C/C\C=C/C\C=C/C\C=C/C\C=C/CCC
RETENTIONTIME: 
CCS: -1
IONMODE: Negative
INSTRUMENTTYPE: LC-ESI-ITFT
INSTRUMENT: 
COLLISIONENERGY: 30
Comment: registered in MassBank
Num Peaks: 11
257.06	267
282.63	14
301.14001	1000
302	275
303.14001	107
462.09	53
464.13	615
465.03	118
481.67999	17
671.5	17
716.44	39

NAME: Phosphatidylethanolamine alkenyl 18
PRECURSORMZ: 778.575614
PRECURSORTYPE: [M-H]-
FORMULA: C45H82NO7P
Ontology: 1-(1Z-alkenyl),2-acylglycerophosphoethanolamines
INCHIKEY: GZMXKUALKXYCMM-XSEHFSNENA-N
SMILES: CCCCCCCCCCCCCCCC\C=C\OCC(COP(O)(=O)OCCN)OC(=O)CC\C=C/C\C=C/C\C=C/C\C=C/CCCCCCCC
RETENTIONTIME: 
CCS: -1
IONMODE: Negative
INSTRUMENTTYPE: LC-ESI-ITFT
INSTRUMENT: 
COLLISIONENERGY: 30
Comment: registered in MassBank
Num Peaks: 11
287.04999	22
288.22	29
331.07999	1000
332.13	254
446.20001	64
464.17999	385
465.20001	36
585.46002	8
697.34998	16
704.32001	8
717.94	7

NAME: Phosphatidylethanolamine alkenyl 18
PRECURSORMZ: 776.559964
PRECURSORTYPE: [M-H]-
FORMULA: C45H80NO7P
Ontology: 1-(1Z-alkenyl),2-acylglycerophosphoethanolamines
INCHIKEY: HHQFKPJXVYWLLJ-GLZZVABPNA-N
SMILES: CCCCCCCCCCCCCCCC\C=C\OCC(COP(O)(=O)OCCN)OC(=O)CC\C=C/C\C=C/C\C=C/C\C=C/C\C=C/CCCCC
RETENTIONTIME: 
CCS: 343.3167247
IONMODE: Negative
INSTRUMENTTYPE: LC-ESI-ITFT
INSTRUMENT: 
COLLISIONENERGY: 30
Comment: registered in MassBank
Num Peaks: 18
231.03	9
283.01001	55
284.54001	29
285.23999	83
286.07001	12
311.20999	19
327.04999	87
329.01001	1000
330.17999	168
446.19	38
448.10999	17
464.17001	409
465.12	67
466.23999	104
467.26999	33
701.62	5
702.27002	160
759.57001	6

NAME: Phosphatidylethanolamine alkenyl 18
PRECURSORMZ: 774.544314
PRECURSORTYPE: [M-H]-
FORMULA: C45H78NO7P
Ontology: 1-(1Z-alkenyl),2-acylglycerophosphoethanolamines
INCHIKEY: FIJFPUAJUDAZEY-NUANVQICNA-N
SMILES: CCCCCCCCCCCCCCCC\C=C\OCC(COP(O)(=O)OCCN)OC(=O)CC\C=C/C\C=C/C\C=C/C\C=C/C\C=C/C\C=C/CC
RETENTIONTIME: 
CCS: 346.2524854
IONMODE: Negative
INSTRUMENTTYPE: LC-ESI-ITFT
INSTRUMENT: 
COLLISIONENERGY: 30
Comment: registered in MassBank
Num Peaks: 15
229.07001	7
267.38	7
278.98001	6
281.01001	34
283.04999	582
284.17001	39
309.10001	6
327.04001	1000
328.16	77
403.17001	13
446.20999	202
447.32999	20
464.16	959
465.28	72
511.39001	7

NAME: Phosphatidylethanolamine alkenyl 18
PRECURSORMZ: 726.544314
PRECURSORTYPE: [M-H]-
FORMULA: C41H78NO7P
Ontology: 1-(1Z-alkenyl),2-acylglycerophosphoethanolamines
INCHIKEY: IEKMVBFEEDNXGT-WECHNZQXNA-N
SMILES: CCCCCCCCCCCCC\C=C/CCC(=O)OC(CO\C=C\C\C=C/CCCCCCCCCCCCC)COP(O)(=O)OCCN
RETENTIONTIME: 
CCS: -1
IONMODE: Negative
INSTRUMENTTYPE: LC-ESI-ITFT
INSTRUMENT: 
COLLISIONENERGY: 30
Comment: registered in MassBank
Num Peaks: 11
278.97	22
281.09	1000
282	66
307.01001	6
401.10001	12
443.89001	47
462.26001	146
463.26001	48
473.22	12
550.58002	17
662.71997	16

NAME: Phosphatidylethanolamine alkenyl 18
PRECURSORMZ: 748.528664
PRECURSORTYPE: [M-H]-
FORMULA: C43H76NO7P
Ontology: 1-(1Z-alkenyl),2-acylglycerophosphoethanolamines
INCHIKEY: YJPYELPDWSEQHM-KTUZNUCGNA-N
SMILES: CCCCCCCCCCCCC\C=C/C\C=C\OCC(COP(O)(=O)OCCN)OC(=O)CC\C=C/C\C=C/C\C=C/C\C=C/CCCCCC
RETENTIONTIME: 
CCS: -1
IONMODE: Negative
INSTRUMENTTYPE: LC-ESI-ITFT
INSTRUMENT: 
COLLISIONENERGY: 30
Comment: registered in MassBank
Num Peaks: 12
259.04001	106
260.23999	8
263.29999	10
285.12	19
303.06	1000
304.20001	83
328.07001	13
444.29999	8
444.98001	19
462.17999	439
463.20001	104
463.89001	8

NAME: Phosphatidylethanolamine alkenyl 18
PRECURSORMZ: 776.559964
PRECURSORTYPE: [M-H]-
FORMULA: C45H80NO7P
Ontology: 1-(1Z-alkenyl),2-acylglycerophosphoethanolamines
INCHIKEY: LLGDMLIODPBDGJ-IVEVXDSTNA-N
SMILES: CCCCCCCCCCCCC\C=C/C\C=C\OCC(COP(O)(=O)OCCN)OC(=O)CC\C=C/C\C=C/C\C=C/C\C=C/CCCCCCCC
RETENTIONTIME: 
CCS: -1
IONMODE: Negative
INSTRUMENTTYPE: LC-ESI-ITFT
INSTRUMENT: 
COLLISIONENERGY: 30
Comment: registered in MassBank
Num Peaks: 22
233.05	10
233.94	7
265.20001	20
269.29001	11
281.13	7
287.19	64
288.54001	14
331.23999	1000
332.31	183
333.42001	8
444.12	49
452.70001	6
461.32001	17
462.29001	286
463.28	25
509.94	17
693.31	14
694.94	7
702.09998	207
712.69	20
716.34998	80
717.58002	18

NAME: Phosphatidylethanolamine alkenyl 18
PRECURSORMZ: 774.544314
PRECURSORTYPE: [M-H]-
FORMULA: C45H78NO7P
Ontology: 1-(1Z-alkenyl),2-acylglycerophosphoethanolamines
INCHIKEY: BGXUVAFAQIKOQM-OYRSOWGGNA-N
SMILES: CCCCCCCCCCCCC\C=C/C\C=C\OCC(COP(O)(=O)OCCN)OC(=O)CC\C=C/C\C=C/C\C=C/C\C=C/C\C=C/CCCCC
RETENTIONTIME: 
CCS: -1
IONMODE: Negative
INSTRUMENTTYPE: LC-ESI-ITFT
INSTRUMENT: 
COLLISIONENERGY: 30
Comment: registered in MassBank
Num Peaks: 31
251.21001	5
255.00999	74
256.92999	8
265.32001	19
278.84	10
281.20001	38
283.28	11
285.17001	115
307.14001	399
308.17999	152
308.98999	14
327.20999	6
328.04001	12
329.04001	1000
330.23999	89
390.98999	78
444	65
461.13	11
462.23999	314
463.39999	31
464.66	9
465.29001	23
466.23001	28
482.98001	40
483.94	12
495.01001	17
518.28003	24
619.65002	12
700.09003	10
712.65997	8
714.69	17

NAME: Phosphatidylethanolamine alkenyl 18
PRECURSORMZ: 772.528664
PRECURSORTYPE: [M-H]-
FORMULA: C45H76NO7P
Ontology: 1-(1Z-alkenyl),2-acylglycerophosphoethanolamines
INCHIKEY: MEWSEYMCACAAEE-YLACOYRINA-N
SMILES: CCCCCCCCCCCCC\C=C/C\C=C\OCC(COP(O)(=O)OCCN)OC(=O)CC\C=C/C\C=C/C\C=C/C\C=C/C\C=C/C\C=C/CC
RETENTIONTIME: 
CCS: -1
IONMODE: Negative
INSTRUMENTTYPE: LC-ESI-ITFT
INSTRUMENT: 
COLLISIONENERGY: 30
Comment: registered in MassBank
Num Peaks: 15
229.06	15
249.12	26
250.09	9
266.14999	6
279.26001	6
281.04999	18
283.07001	535
284.10999	61
309.19	8
327.07999	1000
328.10999	157
444.25	126
445.29999	54
462.16	868
463.20001	181

NAME: Phosphatidylethanolamine alkenyl 18
PRECURSORMZ: 770.513014
PRECURSORTYPE: [M-H]-
FORMULA: C45H74NO7P
Ontology: 1-(1Z-alkenyl),2-acylglycerophosphoethanolamines
INCHIKEY: CQUWHUPPHYSSCA-QOAWOPSMNA-N
SMILES: CCCCCCCCCC\C=C/C\C=C/C\C=C\OCC(COP(O)(=O)OCCN)OC(=O)CC\C=C/C\C=C/C\C=C/C\C=C/C\C=C/C\C=C/CC
RETENTIONTIME: 
CCS: -1
IONMODE: Negative
INSTRUMENTTYPE: LC-ESI-ITFT
INSTRUMENT: 
COLLISIONENERGY: 30
Comment: registered in MassBank
Num Peaks: 19
255.00999	28
259.01999	51
279.34	46
283.17001	682
293.12	46
301.48001	32
303.04999	152
303.95999	28
327.10999	820
328.31	152
391.22	32
440.01001	37
441.98999	207
460.10001	1000
461.35999	249
484.28	134
488.98001	51
532.06	51
709.92999	78

NAME: Phosphatidylethanolamine alkenyl 20
PRECURSORMZ: 778.575614
PRECURSORTYPE: [M-H]-
FORMULA: C45H82NO7P
Ontology: 1-(1Z-alkenyl),2-acylglycerophosphoethanolamines
INCHIKEY: PZJZEOZHLWBYFI-MHNSSQRMNA-N
SMILES: CCCCCCCCCCCCCCCCCC\C=C\OCC(COP(O)(=O)OCCN)OC(=O)CC\C=C/C\C=C/C\C=C/C\C=C/CCCCCC
RETENTIONTIME: 
CCS: -1
IONMODE: Negative
INSTRUMENTTYPE: LC-ESI-ITFT
INSTRUMENT: 
COLLISIONENERGY: 30
Comment: registered in MassBank
Num Peaks: 13
259.16	100
260.07001	8
303.10001	1000
304.10001	60
465.5	11
474.20001	97
492.23001	440
493.34	67
540.32001	18
587.07001	16
636.08002	7
648.34998	14
652.90997	9

NAME: Phosphatidylethanolamine alkenyl 20
PRECURSORMZ: 802.575614
PRECURSORTYPE: [M-H]-
FORMULA: C47H82NO7P
Ontology: 1-(1Z-alkenyl),2-acylglycerophosphoethanolamines
INCHIKEY: GWWKPJFGKBNJDJ-DYEXTAMENA-N
SMILES: CCCCCCCCCCCCCCCCCC\C=C\OCC(COP(O)(=O)OCCN)OC(=O)CC\C=C/C\C=C/C\C=C/C\C=C/C\C=C/C\C=C/CC
RETENTIONTIME: 
CCS: -1
IONMODE: Negative
INSTRUMENTTYPE: LC-ESI-ITFT
INSTRUMENT: 
COLLISIONENERGY: 30
Comment: registered in MassBank
Num Peaks: 17
229.2	10
283.14001	558
284.16	42
295.20999	21
308.64001	17
327.10001	889
327.98001	121
447.31	6
474.41	93
475.42999	74
492.13	1000
493.13	126
506.19	7
638.29999	24
719.76001	8
720.38	16
766.28003	6

NAME: Phosphatidylethanolamine alkyl 16
PRECURSORMZ: 724.528664
PRECURSORTYPE: [M-H]-
FORMULA: C41H76NO7P
Ontology: 1-alkyl,2-acylglycerophosphoethanolamines
INCHIKEY: MAYZJBKZHVGHAB-HNBVIXCXNA-N
SMILES: CCCCCCCCCCCCCCCCOCC(COP(O)(=O)OCCN)OC(=O)CC\C=C/C\C=C/C\C=C/C\C=C/CCCCCC
RETENTIONTIME: 
CCS: -1
IONMODE: Negative
INSTRUMENTTYPE: LC-ESI-ITFT
INSTRUMENT: 
COLLISIONENERGY: 30
Comment: registered in MassBank
Num Peaks: 14
258.92001	67
279.17999	29
303.06	1000
304.10999	60
419.73001	38
420.39999	16
436.98999	11
438.23999	370
439.31	62
440.07999	20
493.81	11
542.06	34
637.69	24
683.72998	45

NAME: Phosphatidylethanolamine alkyl 18
PRECURSORMZ: 728.559964
PRECURSORTYPE: [M-H]-
FORMULA: C41H80NO7P
Ontology: 1-alkyl,2-acylglycerophosphoethanolamines
INCHIKEY: RFXWTAVLHHOPPS-JSCMVKKRNA-N
SMILES: CCCCCCCCCCCCCCCCCCOCC(COP(O)(=O)OCCN)OC(=O)CC\C=C/C\C=C/CCCCCCCCCC
RETENTIONTIME: 
CCS: -1
IONMODE: Negative
INSTRUMENTTYPE: LC-ESI-ITFT
INSTRUMENT: 
COLLISIONENERGY: 30
Comment: registered in MassBank
Num Peaks: 16
243.24001	14
274.67999	7
279.17999	1000
280.25	38
380.85999	9
405.07001	9
436.89999	9
447.91	10
449.12	7
466.17001	222
467.03	33
623.58002	29
641.78003	12
671.67999	19
692.72998	10
697.53003	10

NAME: Phosphatidylethanolamine alkyl 18
PRECURSORMZ: 728.559964
PRECURSORTYPE: [M-H]-
FORMULA: C41H80NO7P
Ontology: 1-alkyl,2-acylglycerophosphoethanolamines
INCHIKEY: RFXWTAVLHHOPPS-JSCMVKKRNA-N
SMILES: CCCCCCCCCCCCCCCCCCOCC(COP(O)(=O)OCCN)OC(=O)CC\C=C/C\C=C/CCCCCCCCCC
RETENTIONTIME: 
CCS: -1
IONMODE: Negative
INSTRUMENTTYPE: LC-ESI-ITFT
INSTRUMENT: 
COLLISIONENERGY: 30
Comment: registered in MassBank
Num Peaks: 16
243.24001	14
274.67999	7
279.17999	1000
280.25	38
380.85999	9
405.07001	9
436.89999	9
447.91	10
449.12	7
466.17001	222
467.03	33
623.58002	29
641.78003	12
671.67999	19
692.72998	10
697.53003	10

NAME: Phosphatidylethanolamine alkyl 20
PRECURSORMZ: 756.591264
PRECURSORTYPE: [M-H]-
FORMULA: C43H84NO7P
Ontology: 1-alkyl,2-acylglycerophosphoethanolamines
INCHIKEY: LJTFYNCGYVJVFV-QIPJBBGZNA-N
SMILES: CCCCCCCCCCCCCCCCCCCCOCC(COP(O)(=O)OCCN)OC(=O)CC\C=C/C\C=C/CCCCCCCCCC
RETENTIONTIME: 
CCS: -1
IONMODE: Negative
INSTRUMENTTYPE: LC-ESI-ITFT
INSTRUMENT: 
COLLISIONENERGY: 30
Comment: registered in MassBank
Num Peaks: 13
279.14001	1000
280.09	110
309.20001	5
396.98001	13
433.23001	16
476.51999	24
477.39999	18
494.26001	285
495.31	47
671.42999	9
674.20001	10
712.48999	6
723.96997	11

NAME: Phosphatidylethanolamine alkyl 20
PRECURSORMZ: 756.591264
PRECURSORTYPE: [M-H]-
FORMULA: C43H84NO7P
Ontology: 1-alkyl,2-acylglycerophosphoethanolamines
INCHIKEY: LJTFYNCGYVJVFV-QIPJBBGZNA-N
SMILES: CCCCCCCCCCCCCCCCCCCCOCC(COP(O)(=O)OCCN)OC(=O)CC\C=C/C\C=C/CCCCCCCCCC
RETENTIONTIME: 
CCS: -1
IONMODE: Negative
INSTRUMENTTYPE: LC-ESI-ITFT
INSTRUMENT: 
COLLISIONENERGY: 30
Comment: registered in MassBank
Num Peaks: 13
279.14001	1000
280.09	110
309.20001	5
396.98001	13
433.23001	16
476.51999	24
477.39999	18
494.26001	285
495.31	47
671.42999	9
674.20001	10
712.48999	6
723.96997	11

NAME: Phosphatidylethanolamine alkyl 18
PRECURSORMZ: 752.559964
PRECURSORTYPE: [M-H]-
FORMULA: C43H80NO7P
Ontology: 1-alkyl,2-acylglycerophosphoethanolamines
INCHIKEY: DTYWTGFWGGLGBS-NZPWPDRSNA-N
SMILES: CCCCCCCCCCCCCCCCCCOCC(COP(O)(=O)OCCN)OC(=O)CC\C=C/C\C=C/C\C=C/C\C=C/CCCCCC
RETENTIONTIME: 
CCS: -1
IONMODE: Negative
INSTRUMENTTYPE: LC-ESI-ITFT
INSTRUMENT: 
COLLISIONENERGY: 30
Comment: registered in MassBank
Num Peaks: 12
259.23001	145
303.09	1000
304.06	93
330.92001	17
448.14999	45
466.09	542
467.14001	71
472.10999	13
532.04999	22
669.34003	20
671.31	41
691.79999	30

NAME: Phosphatidylethanolamine alkyl 20
PRECURSORMZ: 780.591264
PRECURSORTYPE: [M-H]-
FORMULA: C45H84NO7P
Ontology: 1-alkyl,2-acylglycerophosphoethanolamines
INCHIKEY: BLFJXWVGBRMOTJ-CDNBUOKMNA-N
SMILES: CCCCCCCCCCCCCCCCCCCCOCC(COP(O)(=O)OCCN)OC(=O)CC\C=C/C\C=C/C\C=C/C\C=C/CCCCCC
RETENTIONTIME: 
CCS: -1
IONMODE: Negative
INSTRUMENTTYPE: LC-ESI-ITFT
INSTRUMENT: 
COLLISIONENERGY: 30
Comment: registered in MassBank
Num Peaks: 16
231.27	26
259.32001	28
267.14999	31
268.76001	18
303.06	1000
304.14001	82
333.09	28
334.29999	28
421.85001	18
446.10999	15
464.09	20
476.60999	18
494.35999	320
495.73001	23
505.34	36
699.40997	23

NAME: Phosphatidylethanolamine alkyl 20
PRECURSORMZ: 804.591264
PRECURSORTYPE: [M-H]-
FORMULA: C47H84NO7P
Ontology: 1-alkyl,2-acylglycerophosphoethanolamines
INCHIKEY: CQIPPLYYEQYRAX-JQIYMLLDNA-N
SMILES: CCCCCCCCCCCCCCCCCCCCOCC(COP(O)(=O)OCCN)OC(=O)CC\C=C/C\C=C/C\C=C/C\C=C/C\C=C/C\C=C/CC
RETENTIONTIME: 
CCS: -1
IONMODE: Negative
INSTRUMENTTYPE: LC-ESI-ITFT
INSTRUMENT: 
COLLISIONENERGY: 30
Comment: registered in MassBank
Num Peaks: 16
273.35999	37
283.12	245
284.04999	37
327.09	1000
327.95001	62
328.97	307
329.98001	25
476.51001	95
492.56	41
494.28	921
495.13	108
567.53998	66
640.40997	178
699.47998	46
723.53003	124
730.40997	228

NAME: Phosphatidylethanolamine lyso 16
PRECURSORMZ: 452.278263
PRECURSORTYPE: [M-H]-
FORMULA: C21H44NO7P
Ontology: 2-acyl-sn-glycero-3-phosphoethanolamines
INCHIKEY: CKPBBEOJHAPPBT-UHFFFAOYNA-N
SMILES: CCCCCCCCCCCCCCCC(=O)OC(CO)COP(O)(=O)OCCN
RETENTIONTIME: 
CCS: 251.8398466
IONMODE: Negative
INSTRUMENTTYPE: LC-ESI-ITFT
INSTRUMENT: 
COLLISIONENERGY: 30
Comment: registered in MassBank
Num Peaks: 3
195.92	28
213.94	16
255.09	1000

NAME: Phosphatidylethanolamine lyso 17
PRECURSORMZ: 466.293913
PRECURSORTYPE: [M-H]-
FORMULA: C22H46NO7P
Ontology: 2-acyl-sn-glycero-3-phosphoethanolamines
INCHIKEY: SZAICHDWEOHRLW-UHFFFAOYNA-N
SMILES: CCCCCCCCCCCCCCCCC(=O)OC(CO)COP(O)(=O)OCCN
RETENTIONTIME: 
CCS: -1
IONMODE: Negative
INSTRUMENTTYPE: LC-ESI-ITFT
INSTRUMENT: 
COLLISIONENERGY: 30
Comment: registered in MassBank
Num Peaks: 8
171.02	6
195.88	33
213.78999	22
269.10001	1000
270.07999	13
270.69	9
404.92999	7
445.79001	5

NAME: Phosphatidylethanolamine lyso 18
PRECURSORMZ: 480.309563
PRECURSORTYPE: [M-H]-
FORMULA: C23H48NO7P
Ontology: 2-acyl-sn-glycero-3-phosphoethanolamines
INCHIKEY: KIHAGWUUUHJRMS-UHFFFAOYNA-N
SMILES: CCCCCCCCCCCCCCCCCC(=O)OC(CO)COP(O)(=O)OCCN
RETENTIONTIME: 
CCS: 264.1964953
IONMODE: Negative
INSTRUMENTTYPE: LC-ESI-ITFT
INSTRUMENT: 
COLLISIONENERGY: 30
Comment: registered in MassBank
Num Peaks: 4
195.87	15
214.02	12
283.13	1000
418.95999	6

NAME: Phosphatidylethanolamine lyso 18
PRECURSORMZ: 478.293913
PRECURSORTYPE: [M-H]-
FORMULA: C23H46NO7P
Ontology: 2-acyl-sn-glycero-3-phosphoethanolamines
INCHIKEY: FEVAUEZKXSRQPS-PFONDFGANA-N
SMILES: CCCCCCCCCCCCC\C=C/CCC(=O)OC(CO)COP(O)(=O)OCCN
RETENTIONTIME: 
CCS: -1
IONMODE: Negative
INSTRUMENTTYPE: LC-ESI-ITFT
INSTRUMENT: 
COLLISIONENERGY: 30
Comment: registered in MassBank
Num Peaks: 10
195.92	13
213.91	12
281.13	1000
282.16	37
284.95001	9
303.10999	24
392.57001	7
417.73001	6
419.35001	12
426.72	9

NAME: Phosphatidylethanolamine lyso 18
PRECURSORMZ: 476.278263
PRECURSORTYPE: [M-H]-
FORMULA: C23H44NO7P
Ontology: 2-acyl-sn-glycero-3-phosphoethanolamines
INCHIKEY: DTTGTTCKWRAIFM-HDXUUTQWNA-N
SMILES: CCCCCCCCCC\C=C/C\C=C/CCC(=O)OC(CO)COP(O)(=O)OCCN
RETENTIONTIME: 
CCS: -1
IONMODE: Negative
INSTRUMENTTYPE: LC-ESI-ITFT
INSTRUMENT: 
COLLISIONENERGY: 30
Comment: registered in MassBank
Num Peaks: 2
213.96001	12
279.04999	1000

NAME: Phosphatidylethanolamine lyso 20
PRECURSORMZ: 508.340863
PRECURSORTYPE: [M-H]-
FORMULA: C25H52NO7P
Ontology: 2-acyl-sn-glycero-3-phosphoethanolamines
INCHIKEY: QEQAJJJSRGAOOG-UHFFFAOYNA-N
SMILES: CCCCCCCCCCCCCCCCCCCC(=O)OC(CO)COP(O)(=O)OCCN
RETENTIONTIME: 
CCS: 271.5245516
IONMODE: Negative
INSTRUMENTTYPE: LC-ESI-ITFT
INSTRUMENT: 
COLLISIONENERGY: 30
Comment: registered in MassBank
Num Peaks: 5
195.82001	8
214	11
311.14999	1000
312.23999	97
416.67001	10

NAME: Phosphatidylethanolamine lyso 20
PRECURSORMZ: 506.325213
PRECURSORTYPE: [M-H]-
FORMULA: C25H50NO7P
Ontology: 2-acyl-sn-glycero-3-phosphoethanolamines
INCHIKEY: URXPORXPKXWHEF-MSUUIHNZNA-N
SMILES: CCCCCCCCCCCCCCC\C=C/CCC(=O)OC(CO)COP(O)(=O)OCCN
RETENTIONTIME: 
CCS: -1
IONMODE: Negative
INSTRUMENTTYPE: LC-ESI-ITFT
INSTRUMENT: 
COLLISIONENERGY: 30
Comment: registered in MassBank
Num Peaks: 7
214.09	28
309.10999	1000
310.13	100
424.89001	23
432.73001	6
443.64001	7
445.62	5

NAME: Phosphatidylethanolamine lyso 20
PRECURSORMZ: 502.293913
PRECURSORTYPE: [M-H]-
FORMULA: C25H46NO7P
Ontology: 2-acyl-sn-glycero-3-phosphoethanolamines
INCHIKEY: BGJVXSMYONPLDN-NWFXIAEYNA-N
SMILES: CCCCCCCCC\C=C/C\C=C/C\C=C/CCC(=O)OC(CO)COP(O)(=O)OCCN
RETENTIONTIME: 
CCS: -1
IONMODE: Negative
INSTRUMENTTYPE: LC-ESI-ITFT
INSTRUMENT: 
COLLISIONENERGY: 30
Comment: registered in MassBank
Num Peaks: 12
213.82001	11
302.98001	7
305.10001	1000
306.28	73
321.85999	6
343.79001	7
359.57999	23
382.89001	12
417.32999	14
420.31	19
429.62	14
436.66	12

NAME: Phosphatidylethanolamine lyso 20
PRECURSORMZ: 500.278263
PRECURSORTYPE: [M-H]-
FORMULA: C25H44NO7P
Ontology: 2-acyl-sn-glycero-3-phosphoethanolamines
INCHIKEY: SOFGMCJQWLTKCE-ZKWNWVNENA-N
SMILES: CCCCCC\C=C/C\C=C/C\C=C/C\C=C/CCC(=O)OC(CO)COP(O)(=O)OCCN
RETENTIONTIME: 
CCS: -1
IONMODE: Negative
INSTRUMENTTYPE: LC-ESI-ITFT
INSTRUMENT: 
COLLISIONENERGY: 30
Comment: registered in MassBank
Num Peaks: 5
205.10001	13
213.92	35
258.95001	54
303	1000
304.03	6

NAME: Phosphatidylethanolamine lyso 20
PRECURSORMZ: 498.262613
PRECURSORTYPE: [M-H]-
FORMULA: C25H42NO7P
Ontology: 2-acyl-sn-glycero-3-phosphoethanolamines
INCHIKEY: UNILCTDPRMGSDM-JEBPEJKENA-N
SMILES: CCC\C=C/C\C=C/C\C=C/C\C=C/C\C=C/CCC(=O)OC(CO)COP(O)(=O)OCCN
RETENTIONTIME: 
CCS: -1
IONMODE: Negative
INSTRUMENTTYPE: LC-ESI-ITFT
INSTRUMENT: 
COLLISIONENERGY: 30
Comment: registered in MassBank
Num Peaks: 17
202.94	30
203.55	6
213.89999	63
222.94	21
257.12	250
283.04001	6
301.12	1000
302.09	50
318.92001	15
333.59	6
356.91	20
370.79001	6
409.34	9
415.78	23
416.85001	28
437.57999	9
438.35999	6

NAME: Phosphatidylethanolamine lyso 22
PRECURSORMZ: 524.278263
PRECURSORTYPE: [M-H]-
FORMULA: C27H44NO7P
Ontology: 2-acyl-sn-glycero-3-phosphoethanolamines
INCHIKEY: TWBVHOYVCUOMJY-KUBAVDMBNA-N
SMILES: CC\C=C/C\C=C/C\C=C/C\C=C/C\C=C/C\C=C/CCC(=O)OC(CO)COP(O)(=O)OCCN
RETENTIONTIME: 
CCS: 293.7164849
IONMODE: Negative
INSTRUMENTTYPE: LC-ESI-ITFT
INSTRUMENT: 
COLLISIONENERGY: 30
Comment: registered in MassBank
Num Peaks: 10
177	5
190.97	28
213.94	53
229	31
249.05	6
283.06	440
284.17999	6
309.04999	11
327.03	1000
327.92999	19

NAME: Phosphatidylethanolamine lyso alkenyl 16
PRECURSORMZ: 436.283348
PRECURSORTYPE: [M-H]-
FORMULA: C21H44NO6P
Ontology: Glycerophosphoethanolamines
INCHIKEY: LULXDGNUFGVYDS-BMRADRMJNA-N
SMILES: CCCCCCCCCCCCCC\C=C\OC(CO)COP(O)(=O)OCCN
RETENTIONTIME: 
CCS: -1
IONMODE: Negative
INSTRUMENTTYPE: LC-ESI-ITFT
INSTRUMENT: 
COLLISIONENERGY: 30
Comment: registered in MassBank
Num Peaks: 11
139.81	44
147.99001	20
152.77	20
186.81	13
195.94	1000
196.96001	40
239.17999	200
359.01999	18
375.16	582
376.22	40
416.76001	53

NAME: Phosphatidylethanolamine lyso alkenyl 18
PRECURSORMZ: 464.314648
PRECURSORTYPE: [M-H]-
FORMULA: C23H48NO6P
Ontology: Glycerophosphoethanolamines
INCHIKEY: RGAPGIRIYHJSJY-HTXNQAPBNA-N
SMILES: CCCCCCCCCCCCCCCC\C=C\OC(CO)COP(O)(=O)OCCN
RETENTIONTIME: 
CCS: -1
IONMODE: Negative
INSTRUMENTTYPE: LC-ESI-ITFT
INSTRUMENT: 
COLLISIONENERGY: 30
Comment: registered in MassBank
Num Peaks: 9
195.94	1000
196.82001	42
259.91	28
267.31	315
282.76999	19
375.12	28
382.01999	80
403.06	671
404.23001	89

NAME: Phosphatidylethanolamine lyso alkenyl 18
PRECURSORMZ: 464.314648
PRECURSORTYPE: [M-H]-
FORMULA: C23H48NO6P
Ontology: Glycerophosphoethanolamines
INCHIKEY: RGAPGIRIYHJSJY-HTXNQAPBNA-N
SMILES: CCCCCCCCCCCCCCCC\C=C\OC(CO)COP(O)(=O)OCCN
RETENTIONTIME: 
CCS: -1
IONMODE: Negative
INSTRUMENTTYPE: LC-ESI-ITFT
INSTRUMENT: 
COLLISIONENERGY: 30
Comment: registered in MassBank
Num Peaks: 9
195.94	1000
196.82001	42
259.91	28
267.31	315
282.76999	19
375.12	28
382.01999	80
403.06	671
404.23001	89

NAME: Phosphatidylglyceride 16
PRECURSORMZ: 747.518159
PRECURSORTYPE: [M-H]-
FORMULA: C40H77O10P
Ontology: Phosphatidylglycerols
INCHIKEY: JITAGSMRIUAUGR-SGEDCAFJNA-N
SMILES: CCCCCCCCCCCCCCCC(=O)OCC(COP(O)(=O)OCC(O)CO)OC(=O)CC\C=C/CCCCCCCCCCCCC
RETENTIONTIME: 
CCS: -1
IONMODE: Negative
INSTRUMENTTYPE: LC-ESI-ITFT
INSTRUMENT: 
COLLISIONENERGY: 30
Comment: registered in MassBank
Num Peaks: 24
255.03	380
256.06	75
281.07001	1000
282.12	100
283.06	167
284.04999	72
327.06	348
328.04001	133
329.01999	6
391.01999	138
391.97	33
417.10001	35
418.14999	79
419.22	19
436.12	285
437.23001	95
438.17001	17
465.07001	98
465.97	12
483.14999	100
484	5
491.04999	22
510.06	6
687.19	5

NAME: Phosphatidylglyceride 16
PRECURSORMZ: 745.502509
PRECURSORTYPE: [M-H]-
FORMULA: C40H75O10P
Ontology: Phosphatidylglycerols
INCHIKEY: SHHLVVJXLWXVNI-BAOXYHDDNA-N
SMILES: CCCCCCCCCCCCCCCC(=O)OCC(COP(O)(=O)OCC(O)CO)OC(=O)CC\C=C/C\C=C/CCCCCCCCCC
RETENTIONTIME: 
CCS: -1
IONMODE: Negative
INSTRUMENTTYPE: LC-ESI-ITFT
INSTRUMENT: 
COLLISIONENERGY: 30
Comment: registered in MassBank
Num Peaks: 22
255.12	472
256.06	33
279.01001	1000
280.23999	158
327.32999	9
391.04001	199
392.31	11
416.95999	16
465.01001	98
483.04001	137
484.23999	16
489.14001	61
490.14001	10
507.39001	11
540.34003	13
631.53998	6
653.76001	16
654.65997	10
656	11
657.81	18
671.46997	9
680.88	123

NAME: Phosphatidylglyceride 16
PRECURSORMZ: 773.533809
PRECURSORTYPE: [M-H]-
FORMULA: C42H79O10P
Ontology: Phosphatidylglycerols
INCHIKEY: BWROGLIMDHGHPP-JSCMVKKRNA-N
SMILES: CCCCCCCCCCCCCCCC(=O)OCC(COP(O)(=O)OCC(O)CO)OC(=O)CC\C=C/C\C=C/CCCCCCCCCCCC
RETENTIONTIME: 
CCS: -1
IONMODE: Negative
INSTRUMENTTYPE: LC-ESI-ITFT
INSTRUMENT: 
COLLISIONENERGY: 30
Comment: registered in MassBank
Num Peaks: 29
226.92999	10
255.11	546
256.14999	76
283.41	11
285.16	25
307.13	1000
308.22	147
326.97	74
329.16	146
391.03	111
392.19	7
403	7
443.10999	5
444.03	10
446.23001	23
462.39999	97
463.25	42
464.07999	18
465.10999	76
466.10999	14
483.16	70
517.82001	16
535.15997	15
628.79999	22
685.31	10
711.10999	5
713.98999	8
715.34998	7
729.88	12

NAME: Phosphatidylglyceride 18
PRECURSORMZ: 773.533809
PRECURSORTYPE: [M-H]-
FORMULA: C42H79O10P
Ontology: Phosphatidylglycerols
INCHIKEY: AOWDUWHTDPWHIC-JSCMVKKRNA-N
SMILES: CCCCCCCCCCCCCCCCCC(=O)OCC(COP(O)(=O)OCC(O)CO)OC(=O)CC\C=C/C\C=C/CCCCCCCCCC
RETENTIONTIME: 
CCS: -1
IONMODE: Negative
INSTRUMENTTYPE: LC-ESI-ITFT
INSTRUMENT: 
COLLISIONENERGY: 30
Comment: registered in MassBank
Num Peaks: 18
279.23001	1000
280.10999	198
281.5	15
283.16	628
284.14999	115
308.10001	34
329.06	34
415.07999	47
419.09	230
470.16	25
487.95999	25
491.78	17
493.39999	62
494.07001	8
511.25	203
512.20001	25
671.95001	34
699.19	12

NAME: Phosphatidylglyceride 18
PRECURSORMZ: 773.533809
PRECURSORTYPE: [M-H]-
FORMULA: C42H79O10P
Ontology: Phosphatidylglycerols
INCHIKEY: VCGWKVSKEWOYEM-ZUELCTOONA-N
SMILES: CCCCCCCCCCCCC\C=C/CCC(=O)OCC(COP(O)(=O)OCC(O)CO)OC(=O)CC\C=C/CCCCCCCCCCCCC
RETENTIONTIME: 
CCS: -1
IONMODE: Negative
INSTRUMENTTYPE: LC-ESI-ITFT
INSTRUMENT: 
COLLISIONENERGY: 30
Comment: registered in MassBank
Num Peaks: 23
266.73001	14
279.42001	15
281.03	1000
282.10001	129
325.19	6
327.32999	20
343.95001	11
402.82001	13
417.95999	16
418.81	14
464.17999	8
491.07001	21
491.84	10
492.70001	11
509.17001	57
510.35999	31
611.85999	8
624.59003	18
626.21997	47
669.64001	11
683.94	17
684.79999	11
709.22998	6

NAME: Phosphatidylglyceride 18
PRECURSORMZ: 771.518159
PRECURSORTYPE: [M-H]-
FORMULA: C42H77O10P
Ontology: Phosphatidylglycerols
INCHIKEY: YNBZQPMSTPSIJD-XBCPOCNBNA-N
SMILES: CCCCCCCCCCCCC\C=C/CCC(=O)OCC(COP(O)(=O)OCC(O)CO)OC(=O)CC\C=C/C\C=C/CCCCCCCCCC
RETENTIONTIME: 
CCS: -1
IONMODE: Negative
INSTRUMENTTYPE: LC-ESI-ITFT
INSTRUMENT: 
COLLISIONENERGY: 30
Comment: registered in MassBank
Num Peaks: 14
255.17999	26
279.10001	1000
280.45999	321
281.20999	841
282.26999	306
435.42001	37
489.20001	30
491.89001	44
509.17001	22
574.23999	85
625.03998	22
710.40997	30
711.31	48
721.10999	33

NAME: Phosphatidylglyceride 18
PRECURSORMZ: 795.518159
PRECURSORTYPE: [M-H]-
FORMULA: C44H77O10P
Ontology: Phosphatidylglycerols
INCHIKEY: ITIOHRDVKOPUBF-MOYSMJPMNA-N
SMILES: CCCCCCCCCCCCC\C=C/CCC(=O)OCC(COP(O)(=O)OCC(O)CO)OC(=O)CC\C=C/C\C=C/C\C=C/C\C=C/CCCCCC
RETENTIONTIME: 
CCS: -1
IONMODE: Negative
INSTRUMENTTYPE: LC-ESI-ITFT
INSTRUMENT: 
COLLISIONENERGY: 30
Comment: registered in MassBank
Num Peaks: 13
279.76001	67
281.19	562
282.26001	21
303.20001	1000
439.06	31
440.64001	57
513.01001	62
531.78998	36
690.41998	129
712.25	222
730.73999	722
737.28003	31
763.34998	36

NAME: Phosphatidylglyceride 18
PRECURSORMZ: 793.502509
PRECURSORTYPE: [M-H]-
FORMULA: C44H75O10P
Ontology: Phosphatidylglycerols
INCHIKEY: QBXWEUHSBYVVIQ-XKMJRSRDNA-N
SMILES: CCCCCCCCCCCCC\C=C/CCC(=O)OCC(COP(O)(=O)OCC(O)CO)OC(=O)CC\C=C/C\C=C/C\C=C/C\C=C/C\C=C/CCC
RETENTIONTIME: 
CCS: -1
IONMODE: Negative
INSTRUMENTTYPE: LC-ESI-ITFT
INSTRUMENT: 
COLLISIONENERGY: 30
Comment: registered in MassBank
Num Peaks: 11
257.20999	417
278.98999	312
281.04001	1000
283.31	146
301.12	833
301.76001	208
415.03	250
492.20001	83
529.28998	104
555.20001	83
560.31	188

NAME: Phosphatidylglyceride 18
PRECURSORMZ: 821.533809
PRECURSORTYPE: [M-H]-
FORMULA: C46H79O10P
Ontology: Phosphatidylglycerols
INCHIKEY: SDJOKCPHTLSGSK-RRIMUHHXNA-N
SMILES: CCCCCCCCCCCCC\C=C/CCC(=O)OCC(COP(O)(=O)OCC(O)CO)OC(=O)CC\C=C/C\C=C/C\C=C/C\C=C/C\C=C/CCCCC
RETENTIONTIME: 
CCS: -1
IONMODE: Negative
INSTRUMENTTYPE: LC-ESI-ITFT
INSTRUMENT: 
COLLISIONENERGY: 30
Comment: registered in MassBank
Num Peaks: 17
243.05	41
281.10999	1000
282.20999	30
283.23999	56
285.01999	67
329.17999	756
384.92999	70
417.28	15
509.35001	44
540.22998	74
644.59003	30
717.56	26
738.65997	22
761.04999	93
762.44	48
764.40002	48
777.59003	41

NAME: Phosphatidylglyceride 18
PRECURSORMZ: 819.518159
PRECURSORTYPE: [M-H]-
FORMULA: C46H77O10P
Ontology: Phosphatidylglycerols
INCHIKEY: VGGGUMPTGJTNFQ-QRPORDCINA-N
SMILES: CCCCCCCCCCCCC\C=C/CCC(=O)OCC(COP(O)(=O)OCC(O)CO)OC(=O)CC\C=C/C\C=C/C\C=C/C\C=C/C\C=C/C\C=C/CC
RETENTIONTIME: 
CCS: -1
IONMODE: Negative
INSTRUMENTTYPE: LC-ESI-ITFT
INSTRUMENT: 
COLLISIONENERGY: 30
Comment: registered in MassBank
Num Peaks: 21
281.14001	1000
282.13	170
283.17999	277
284.20999	126
294.97	35
325.45999	21
327.09	561
327.98001	126
417.17001	21
435.04999	10
452.20001	46
463.04999	33
509.29001	56
536.97998	23
554.96997	50
732.21002	25
735.13	60
745.44	62
759.04999	64
760.38	8
762.31	27

NAME: Phosphatidylglyceride 18
PRECURSORMZ: 769.502509
PRECURSORTYPE: [M-H]-
FORMULA: C42H75O10P
Ontology: Phosphatidylglycerols
INCHIKEY: WZACVMOHPZANSW-WRGXGLASNA-N
SMILES: CCCCCCCCCC\C=C/C\C=C/CCC(=O)OCC(COP(O)(=O)OCC(O)CO)OC(=O)CC\C=C/C\C=C/CCCCCCCCCC
RETENTIONTIME: 
CCS: -1
IONMODE: Negative
INSTRUMENTTYPE: LC-ESI-ITFT
INSTRUMENT: 
COLLISIONENERGY: 30
Comment: registered in MassBank
Num Peaks: 15
261.12	6
263.32001	6
279.10001	1000
280.16	117
305.29999	14
433.19	16
451.98001	9
489.06	61
490.16	28
491.47	15
506.95999	15
668.76001	12
687.41998	42
719.32001	19
769.96997	12

NAME: Phosphatidylglyceride 18
PRECURSORMZ: 793.502509
PRECURSORTYPE: [M-H]-
FORMULA: C44H75O10P
Ontology: Phosphatidylglycerols
INCHIKEY: YOXNNFKWZGKUBQ-IPVVXUKZNA-N
SMILES: CCCCCCCCCC\C=C/C\C=C/CCC(=O)OCC(COP(O)(=O)OCC(O)CO)OC(=O)CC\C=C/C\C=C/C\C=C/C\C=C/CCCCCC
RETENTIONTIME: 
CCS: -1
IONMODE: Negative
INSTRUMENTTYPE: LC-ESI-ITFT
INSTRUMENT: 
COLLISIONENERGY: 30
Comment: registered in MassBank
Num Peaks: 12
258.98001	32
279.17001	1000
280.19	105
303.09	888
304.48001	25
437.26001	25
489.34	29
506.92001	29
508	69
523.44	22
707.27002	22
773.29999	29

NAME: Phosphatidylglyceride 18
PRECURSORMZ: 817.502509
PRECURSORTYPE: [M-H]-
FORMULA: C46H75O10P
Ontology: Phosphatidylglycerols
INCHIKEY: QVDNNCVPBKNHNS-XPMHQQHXNA-N
SMILES: CCCCCCCCCC\C=C/C\C=C/CCC(=O)OCC(COP(O)(=O)OCC(O)CO)OC(=O)CC\C=C/C\C=C/C\C=C/C\C=C/C\C=C/C\C=C/CC
RETENTIONTIME: 
CCS: -1
IONMODE: Negative
INSTRUMENTTYPE: LC-ESI-ITFT
INSTRUMENT: 
COLLISIONENERGY: 30
Comment: registered in MassBank
Num Peaks: 23
256.91	9
279.12	1000
280.12	133
283.14999	250
284.04999	53
304.26999	15
326.94	639
327.89999	79
462.92001	48
480.95999	18
488.63	15
490.03	11
507.37	45
523.09998	6
537.10999	30
554.85999	60
556.19	5
639.63	5
671.44	15
718.41998	14
730.87	13
734.62	10
756	15

NAME: Phosphatidylglyceride 20
PRECURSORMZ: 843.518159
PRECURSORTYPE: [M-H]-
FORMULA: C48H77O10P
Ontology: Phosphatidylglycerols
INCHIKEY: QVNMBAKBHHJIRP-GKYWKYGONA-N
SMILES: CCCCCCCCC\C=C/C\C=C/C\C=C/CCC(=O)OCC(COP(O)(=O)OCC(O)CO)OC(=O)CC\C=C/C\C=C/C\C=C/C\C=C/C\C=C/C\C=C/CC
RETENTIONTIME: 
CCS: -1
IONMODE: Negative
INSTRUMENTTYPE: LC-ESI-ITFT
INSTRUMENT: 
COLLISIONENERGY: 30
Comment: registered in MassBank
Num Peaks: 10
283.26001	232
284.23001	134
303.07001	24
304.07001	24
305.23999	1000
306.07001	110
327.04001	476
328.14001	140
464.79001	55
533.20001	43

NAME: Phosphatidylglyceride 20
PRECURSORMZ: 841.502509
PRECURSORTYPE: [M-H]-
FORMULA: C48H75O10P
Ontology: Phosphatidylglycerols
INCHIKEY: WAHLPBOVXFIGAP-YARNEYDXNA-N
SMILES: CCCCCC\C=C/C\C=C/C\C=C/C\C=C/CCC(=O)OCC(COP(O)(=O)OCC(O)CO)OC(=O)CC\C=C/C\C=C/C\C=C/C\C=C/C\C=C/C\C=C/CC
RETENTIONTIME: 
CCS: -1
IONMODE: Negative
INSTRUMENTTYPE: LC-ESI-ITFT
INSTRUMENT: 
COLLISIONENERGY: 30
Comment: registered in MassBank
Num Peaks: 12
249.19	15
258.97	154
283.07999	448
303.03	1000
304.06	100
327.03	865
328.45999	54
462.79999	19
463.92999	39
530.89001	69
555.23999	120
759.21002	19

NAME: Phosphatidylglyceride 22
PRECURSORMZ: 869.533809
PRECURSORTYPE: [M-H]-
FORMULA: C50H79O10P
Ontology: Phosphatidylglycerols
INCHIKEY: NKQMVGLKBUHTCY-JKIJTENUNA-N
SMILES: CCCCCCCC\C=C/C\C=C/C\C=C/C\C=C/CCC(=O)OC(COC(=O)CC\C=C/C\C=C/C\C=C/C\C=C/C\C=C/C\C=C/CC)COP(O)(=O)OCC(O)CO
RETENTIONTIME: 
CCS: -1
IONMODE: Negative
INSTRUMENTTYPE: LC-ESI-ITFT
INSTRUMENT: 
COLLISIONENERGY: 30
Comment: registered in MassBank
Num Peaks: 4
283.5	92
329.23999	237
331.14999	1000
782.46002	171

NAME: Phosphatidylglyceride 22
PRECURSORMZ: 867.518159
PRECURSORTYPE: [M-H]-
FORMULA: C50H77O10P
Ontology: Phosphatidylglycerols
INCHIKEY: XHLZURIDNJOINR-WBRRUXEENA-N
SMILES: CCCCC\C=C/C\C=C/C\C=C/C\C=C/C\C=C/CCC(=O)OC(COC(=O)CC\C=C/C\C=C/C\C=C/C\C=C/C\C=C/C\C=C/CC)COP(O)(=O)OCC(O)CO
RETENTIONTIME: 
CCS: 432.3055905
IONMODE: Negative
INSTRUMENTTYPE: LC-ESI-ITFT
INSTRUMENT: 
COLLISIONENERGY: 30
Comment: registered in MassBank
Num Peaks: 7
283.04001	210
285.04001	219
327.04001	905
329.10999	1000
330.01999	57
825.52002	67
849.84003	162

NAME: Phosphatidylglyceride 22
PRECURSORMZ: 865.502509
PRECURSORTYPE: [M-H]-
FORMULA: C50H75O10P
Ontology: Phosphatidylglycerols
INCHIKEY: XACKZSRNTPEYBU-GZSOIYOPNA-N
SMILES: CC\C=C/C\C=C/C\C=C/C\C=C/C\C=C/C\C=C/CCC(=O)OCC(COP(O)(=O)OCC(O)CO)OC(=O)CC\C=C/C\C=C/C\C=C/C\C=C/C\C=C/C\C=C/CC
RETENTIONTIME: 
CCS: 424.3166899
IONMODE: Negative
INSTRUMENTTYPE: LC-ESI-ITFT
INSTRUMENT: 
COLLISIONENERGY: 30
Comment: registered in MassBank
Num Peaks: 16
281.04001	16
283.07001	477
284.17999	38
327.10001	1000
328.01001	185
462.95001	13
465.28	15
480.45999	15
536.96002	61
555.04999	180
556.15997	10
724.47998	23
780.64001	16
784.88	14
787.38	9
815.37	21

NAME: Phosphatidylinositol 16
PRECURSORMZ: 835.534203
PRECURSORTYPE: [M-H]-
FORMULA: C43H81O13P
Ontology: Phosphatidylinositols
INCHIKEY: IBBOEPTXNHPBRH-AFOMSZMQSA-N
SMILES: CCCCCCCCCCCCCCCC(=O)OCC(COP(O)(=O)O[C@H]1[C@H](O)[C@@H](O)[C@H](O)[C@@H](O)[C@H]1O)OC(=O)CC\C=C/CCCCCCCCCCCCC
RETENTIONTIME: 
CCS: -1
IONMODE: Negative
INSTRUMENTTYPE: LC-ESI-ITFT
INSTRUMENT: 
COLLISIONENERGY: 30
Comment: registered in MassBank
Num Peaks: 25
240.78999	279
242.02	61
254.97	474
255.97	67
281.19	359
282.13	54
296.87	154
390.97	724
391.82001	141
408.76999	32
417.14001	179
438.26001	19
465.26001	26
497.13	29
553.03003	1000
554.01001	83
571.14001	170
571.92999	45
578.95001	109
579.71997	22
597.34998	22
673.07001	77
743.56	32
748.09998	74
788.96002	32

NAME: Phosphatidylinositol 16
PRECURSORMZ: 833.518553
PRECURSORTYPE: [M-H]-
FORMULA: C43H79O13P
Ontology: Phosphatidylinositols
INCHIKEY: UKUWCMCEVNAMQA-DNPFOPPISA-N
SMILES: CCCCCCCCCCCCCCCC(=O)OCC(COP(O)(=O)O[C@H]1[C@H](O)[C@@H](O)[C@H](O)[C@@H](O)[C@H]1O)OC(=O)CC\C=C/C\C=C/CCCCCCCCCC
RETENTIONTIME: 
CCS: -1
IONMODE: Negative
INSTRUMENTTYPE: LC-ESI-ITFT
INSTRUMENT: 
COLLISIONENERGY: 30
Comment: registered in MassBank
Num Peaks: 27
240.88	251
241.81	9
255.06	552
256.10001	82
279.14001	228
280.20999	32
282.16	11
296.87	198
297.79001	18
314.91	32
315.89001	9
390.98001	682
391.98999	38
409.14001	27
414.98999	130
415.81	20
417.79999	9
553.10999	1000
554.02002	173
571	164
572.20001	47
577.09998	207
578.15002	64
595.04999	35
595.73999	5
671.31	20
746.03998	60

NAME: Phosphatidylinositol 16
PRECURSORMZ: 859.534203
PRECURSORTYPE: [M-H]-
FORMULA: C45H81O13P
Ontology: Phosphatidylinositols
INCHIKEY: TYVNWAWTRSCTFD-PSOMHJJNSA-N
SMILES: CCCCCCCCCCCCCCCC(=O)OCC(COP(O)(=O)O[C@H]1[C@H](O)[C@@H](O)[C@H](O)[C@@H](O)[C@H]1O)OC(=O)CC\C=C/C\C=C/C\C=C/CCCCCCCCC
RETENTIONTIME: 
CCS: -1
IONMODE: Negative
INSTRUMENTTYPE: LC-ESI-ITFT
INSTRUMENT: 
COLLISIONENERGY: 30
Comment: registered in MassBank
Num Peaks: 28
240.96001	57
255.11	386
256.35001	55
258.88	41
281.29999	29
296.75	155
305.20999	278
306.07001	45
314.88	12
391.09	532
408.88	11
440.94	52
442.07999	22
523.04999	14
553.15997	1000
554.17999	118
571.13	214
572.33002	23
578.95001	6
603.15002	144
604.15997	43
621.75	16
654.08002	19
697.12	6
741.42999	18
755.10999	39
772.15997	41
777.23999	6

NAME: Phosphatidylinositol 16
PRECURSORMZ: 857.518553
PRECURSORTYPE: [M-H]-
FORMULA: C45H79O13P
Ontology: Phosphatidylinositols
INCHIKEY: QAOYQEIOBPZFPB-VHZSRAIHSA-N
SMILES: CCCCCCCCCCCCCCCC(=O)OCC(COP(O)(=O)O[C@H]1[C@H](O)[C@@H](O)[C@H](O)[C@@H](O)[C@H]1O)OC(=O)CC\C=C/C\C=C/C\C=C/C\C=C/CCCCCC
RETENTIONTIME: 
CCS: -1
IONMODE: Negative
INSTRUMENTTYPE: LC-ESI-ITFT
INSTRUMENT: 
COLLISIONENERGY: 30
Comment: registered in MassBank
Num Peaks: 25
240.86	54
255.00999	409
256.14999	43
259.04001	38
296.98999	123
297.82001	16
303.09	212
304.07999	36
314.97	33
315.98999	8
390.95001	534
392.04999	100
408.95001	17
439.03	114
439.95999	9
479.04001	12
553.10999	1000
554.13	212
571.13	335
572.09998	53
601.12	197
602.06	37
619.33002	5
695.94	6
775.02002	10

NAME: Phosphatidylinositol 16
PRECURSORMZ: 855.502903
PRECURSORTYPE: [M-H]-
FORMULA: C45H77O13P
Ontology: Phosphatidylinositols
INCHIKEY: CTYGZBOFLKSVSJ-AYZKUARYSA-N
SMILES: CCCCCCCCCCCCCCCC(=O)OCC(COP(O)(=O)O[C@H]1[C@H](O)[C@@H](O)[C@H](O)[C@@H](O)[C@H]1O)OC(=O)CC\C=C/C\C=C/C\C=C/C\C=C/C\C=C/CCC
RETENTIONTIME: 
CCS: -1
IONMODE: Negative
INSTRUMENTTYPE: LC-ESI-ITFT
INSTRUMENT: 
COLLISIONENERGY: 30
Comment: registered in MassBank
Num Peaks: 27
240.92	93
255.07001	355
256.26999	46
257.35001	77
297.01001	148
298.07001	14
301.10001	66
315.16	46
391.14001	699
392.16	63
409.37	16
436.81	169
438.17999	22
463.12	19
531.78003	11
539.91998	25
553.29999	1000
554.15002	101
571.27002	221
572.28003	90
599.02002	260
600.15997	36
733.71002	44
765.29999	16
766.88	63
768.20001	68
769.39001	30

NAME: Phosphatidylinositol 16
PRECURSORMZ: 881.518553
PRECURSORTYPE: [M-H]-
FORMULA: C47H79O13P
Ontology: Phosphatidylinositols
INCHIKEY: FPHAZHKZJQOPBU-BXVYXOBNSA-N
SMILES: CCCCCCCCCCCCCCCC(=O)OCC(COP(O)(=O)O[C@H]1[C@H](O)[C@@H](O)[C@H](O)[C@@H](O)[C@H]1O)OC(=O)CC\C=C/C\C=C/C\C=C/C\C=C/C\C=C/C\C=C/CC
RETENTIONTIME: 
CCS: -1
IONMODE: Negative
INSTRUMENTTYPE: LC-ESI-ITFT
INSTRUMENT: 
COLLISIONENERGY: 30
Comment: registered in MassBank
Num Peaks: 26
255.02	345
256.04999	14
258.81	18
283.28	20
296.89001	91
314.88	26
327.23001	92
328.14999	32
390.98999	549
392.23001	9
409.09	20
463.14999	52
478.94	31
497.39001	8
553.14001	1000
554.04999	91
571.21002	392
571.97998	18
578.97998	65
597.12	17
625.07001	186
626.01001	12
643.27002	28
717.84998	22
794.15002	55
821.28998	9

NAME: Phosphatidylinositol 16
PRECURSORMZ: 831.502903
PRECURSORTYPE: [M-H]-
FORMULA: C43H77O13P
Ontology: Phosphatidylinositols
INCHIKEY: JHVZQBRAEVIBML-DVHZKANPSA-N
SMILES: CCCCCCCCCCC\C=C/CCC(=O)OCC(COP(O)(=O)O[C@H]1[C@H](O)[C@@H](O)[C@H](O)[C@@H](O)[C@H]1O)OC(=O)CC\C=C/C\C=C/CCCCCCCCCC
RETENTIONTIME: 
CCS: -1
IONMODE: Negative
INSTRUMENTTYPE: LC-ESI-ITFT
INSTRUMENT: 
COLLISIONENERGY: 30
Comment: registered in MassBank
Num Peaks: 23
241.10001	229
251.73	73
252.85001	177
279.14001	135
282.76001	42
296.84	167
297.91	208
374.48001	125
389.04001	604
415.22	375
551.10999	1000
552.12	188
569.09998	146
570.53998	135
577.22998	292
578.27002	167
670.54999	52
727.65997	146
744.90002	62
770.89001	62
800.14001	73
813.34998	42
830.71002	260

NAME: Phosphatidylinositol 17
PRECURSORMZ: 871.534203
PRECURSORTYPE: [M-H]-
FORMULA: C46H81O13P
Ontology: Phosphatidylinositols
INCHIKEY: DFLHJZQZIPIWSG-VAUUZOHPSA-N
SMILES: CCCCCCCCCCCCCCCCC(=O)OCC(COP(O)(=O)O[C@H]1[C@H](O)[C@@H](O)[C@H](O)[C@@H](O)[C@H]1O)OC(=O)CC\C=C/C\C=C/C\C=C/C\C=C/CCCCCC
RETENTIONTIME: 
CCS: -1
IONMODE: Negative
INSTRUMENTTYPE: LC-ESI-ITFT
INSTRUMENT: 
COLLISIONENERGY: 30
Comment: registered in MassBank
Num Peaks: 20
258.84	17
269.17999	519
270.14001	47
281.25	36
296.92001	76
303.10001	249
304.12	19
405.07999	479
405.79999	32
423.14001	13
439	189
565.79999	69
567.14001	789
568.12	126
585.07001	325
586.01001	38
601.02002	144
602.32001	35
788.13	129
789.15002	1000

NAME: Phosphatidylinositol 18
PRECURSORMZ: 861.549853
PRECURSORTYPE: [M-H]-
FORMULA: C45H83O13P
Ontology: Phosphatidylinositols
INCHIKEY: DJIHJMQVAWUMQB-GRNFJTJUSA-N
SMILES: CCCCCCCCCCCCCCCCCC(=O)OCC(COP(O)(=O)O[C@H]1[C@H](O)[C@@H](O)[C@H](O)[C@@H](O)[C@H]1O)OC(=O)CC\C=C/C\C=C/CCCCCCCCCC
RETENTIONTIME: 
CCS: -1
IONMODE: Negative
INSTRUMENTTYPE: LC-ESI-ITFT
INSTRUMENT: 
COLLISIONENERGY: 30
Comment: registered in MassBank
Num Peaks: 28
241.89999	11
258.95001	12
279.10001	171
280.10999	14
283.23001	792
284.16	97
296.85001	195
314.88	21
415.07001	68
416.04001	18
419.04001	651
420.13	100
437.20001	12
507.35001	9
512.09003	7
577.09998	120
578.03003	31
581.09003	1000
582.15997	149
594.84998	16
596.17999	9
599.14001	197
600.14001	27
698.45001	11
699.14001	9
740.21997	5
773.96997	14
800.38	6

NAME: Phosphatidylinositol 18
PRECURSORMZ: 887.565503
PRECURSORTYPE: [M-H]-
FORMULA: C47H85O13P
Ontology: Phosphatidylinositols
INCHIKEY: IVPVQEZYLVFIGH-FLPISHNPSA-N
SMILES: CCCCCCCCCCCCCCCCCC(=O)OCC(COP(O)(=O)O[C@H]1[C@H](O)[C@@H](O)[C@H](O)[C@@H](O)[C@H]1O)OC(=O)CC\C=C/C\C=C/C\C=C/CCCCCCCCC
RETENTIONTIME: 
CCS: -1
IONMODE: Negative
INSTRUMENTTYPE: LC-ESI-ITFT
INSTRUMENT: 
COLLISIONENERGY: 30
Comment: registered in MassBank
Num Peaks: 20
283.17999	852
284.12	55
296.85999	141
297.94	12
305.14001	336
306.20999	28
315.01999	45
418.98999	697
420.10001	72
437.04001	33
440.92999	80
442.04001	12
530.23999	6
581.09003	1000
582.19	119
599.17999	294
600.28998	25
603.17999	213
604.21997	16
621.15002	30

NAME: Phosphatidylinositol 18
PRECURSORMZ: 885.549853
PRECURSORTYPE: [M-H]-
FORMULA: C47H83O13P
Ontology: Phosphatidylinositols
INCHIKEY: QTBZDDLLDFZGQX-KVUJAYRISA-N
SMILES: CCCCCCCCCCCCCCCCCC(=O)OCC(COP(O)(=O)O[C@H]1[C@H](O)[C@@H](O)[C@H](O)[C@@H](O)[C@H]1O)OC(=O)CC\C=C/C\C=C/C\C=C/C\C=C/CCCCCC
RETENTIONTIME: 
CCS: -1
IONMODE: Negative
INSTRUMENTTYPE: LC-ESI-ITFT
INSTRUMENT: 
COLLISIONENERGY: 30
Comment: registered in MassBank
Num Peaks: 23
258.84	20
283.17001	747
284.12	99
296.89999	154
297.64001	7
303.07999	216
304.07999	19
314.94	30
419.07001	649
420.23001	83
437.17001	24
438.07999	10
438.95001	82
439.85001	20
581.13	1000
582.19	199
599.07001	222
600.39001	52
601.03003	172
601.96997	37
619.20001	18
619.87	10
787.21997	8

NAME: Phosphatidylinositol 18
PRECURSORMZ: 883.534203
PRECURSORTYPE: [M-H]-
FORMULA: C47H81O13P
Ontology: Phosphatidylinositols
INCHIKEY: CZXYESCYMAKGKD-BRWUPIELSA-N
SMILES: CCCCCCCCCCCCCCCCCC(=O)OCC(COP(O)(=O)O[C@H]1[C@H](O)[C@@H](O)[C@H](O)[C@@H](O)[C@H]1O)OC(=O)CC\C=C/C\C=C/C\C=C/C\C=C/C\C=C/CCC
RETENTIONTIME: 
CCS: -1
IONMODE: Negative
INSTRUMENTTYPE: LC-ESI-ITFT
INSTRUMENT: 
COLLISIONENERGY: 30
Comment: registered in MassBank
Num Peaks: 21
257.12	64
283.23001	791
284.20999	44
296.94	66
297.95001	67
301.12	67
302.25	34
417.01001	25
419.04001	696
420.37	49
436.79999	107
437.56	36
455.04001	13
579.88	10
581.13	1000
582	20
599.04999	263
600.15997	278
601.31	7
617.08002	31
791.21997	8

NAME: Phosphatidylinositol 18
PRECURSORMZ: 913.581153
PRECURSORTYPE: [M-H]-
FORMULA: C49H87O13P
Ontology: Phosphatidylinositols
INCHIKEY: LBMMQTGWTSTFIZ-WJEBLFDXSA-N
SMILES: CCCCCCCCCCCCCCCCCC(=O)OCC(COP(O)(=O)O[C@H]1[C@H](O)[C@@H](O)[C@H](O)[C@@H](O)[C@H]1O)OC(=O)CC\C=C/C\C=C/C\C=C/C\C=C/CCCCCCCC
RETENTIONTIME: 
CCS: -1
IONMODE: Negative
INSTRUMENTTYPE: LC-ESI-ITFT
INSTRUMENT: 
COLLISIONENERGY: 30
Comment: registered in MassBank
Num Peaks: 20
283.23001	506
297.07001	54
298.39001	56
331.17001	176
332.23999	69
418.56	74
419.20001	601
420.17999	115
437.12	33
466.82001	38
498.07999	23
581.09003	1000
582.21002	353
599.09003	389
599.90997	64
629.04999	243
630.03998	23
647.65002	18
751.28003	36
790.14001	23

NAME: Phosphatidylinositol 18
PRECURSORMZ: 911.565503
PRECURSORTYPE: [M-H]-
FORMULA: C49H85O13P
Ontology: Phosphatidylinositols
INCHIKEY: MQRZIONTIPBTLX-SGZUTDQTSA-N
SMILES: CCCCCCCCCCCCCCCCCC(=O)OCC(COP(O)(=O)O[C@H]1[C@H](O)[C@@H](O)[C@H](O)[C@@H](O)[C@H]1O)OC(=O)CC\C=C/C\C=C/C\C=C/C\C=C/C\C=C/CCCCC
RETENTIONTIME: 
CCS: 411.4828447
IONMODE: Negative
INSTRUMENTTYPE: LC-ESI-ITFT
INSTRUMENT: 
COLLISIONENERGY: 30
Comment: registered in MassBank
Num Peaks: 20
258.92001	41
283.17999	582
283.95999	21
285.35999	95
296.91	100
309.32999	13
329.23999	177
330.07001	46
419.04999	482
420.07001	51
445.19	10
465.04001	182
465.79001	15
564.87	13
581.03998	1000
581.97998	146
599	100
599.91998	44
627.07001	321
628.21002	64

NAME: Phosphatidylinositol 18
PRECURSORMZ: 909.549853
PRECURSORTYPE: [M-H]-
FORMULA: C49H83O13P
Ontology: Phosphatidylinositols
INCHIKEY: DJVOKHFQPGWUPK-CONVNOKZSA-N
SMILES: CCCCCCCCCCCCCCCCCC(=O)OCC(COP(O)(=O)O[C@H]1[C@H](O)[C@@H](O)[C@H](O)[C@@H](O)[C@H]1O)OC(=O)CC\C=C/C\C=C/C\C=C/C\C=C/C\C=C/C\C=C/CC
RETENTIONTIME: 
CCS: 418.8282198
IONMODE: Negative
INSTRUMENTTYPE: LC-ESI-ITFT
INSTRUMENT: 
COLLISIONENERGY: 30
Comment: registered in MassBank
Num Peaks: 21
283.07999	522
284.20001	73
297	128
315	28
327.12	140
419.01999	652
419.98001	64
437.12	49
447.31	11
463.01001	61
464	11
524.96002	17
581.12	1000
582.27002	185
599.20001	247
600.32001	7
625.09998	185
625.71002	13
643.19	7
747.03998	8
766.15002	6

NAME: Phosphatidylinositol 18
PRECURSORMZ: 859.534203
PRECURSORTYPE: [M-H]-
FORMULA: C45H81O13P
Ontology: Phosphatidylinositols
INCHIKEY: YWXCZYNZOLHDAW-RFSLHEDBSA-N
SMILES: CCCCCCCCCCCCC\C=C/CCC(=O)OCC(COP(O)(=O)O[C@H]1[C@H](O)[C@@H](O)[C@H](O)[C@@H](O)[C@H]1O)OC(=O)CC\C=C/C\C=C/CCCCCCCCCC
RETENTIONTIME: 
CCS: -1
IONMODE: Negative
INSTRUMENTTYPE: LC-ESI-ITFT
INSTRUMENT: 
COLLISIONENERGY: 30
Comment: registered in MassBank
Num Peaks: 35
240.84	20
255.31	16
258.82001	8
279.07001	186
280.09	18
281.10999	712
282.03	123
296.85999	121
297.95001	12
299.09	5
314.60999	8
315.23999	14
316.92001	10
391.16	19
393.19	17
415.19	108
417.03	637
418.04999	83
439.10999	14
443.04001	10
505.14999	8
523.12	6
553.38	11
554.10999	51
554.97998	24
572.66998	5
577.09998	166
578.94	1000
580.10999	229
597.12	106
598.03998	42
697.21002	8
698.20001	8
748.26001	8
769.39001	14

NAME: Phosphatidylinositol 18
PRECURSORMZ: 885.549853
PRECURSORTYPE: [M-H]-
FORMULA: C47H83O13P
Ontology: Phosphatidylinositols
INCHIKEY: LNVVBCYFPFTKCW-YKZCNZEKSA-N
SMILES: CCCCCCCCCCCCC\C=C/CCC(=O)OCC(COP(O)(=O)O[C@H]1[C@H](O)[C@@H](O)[C@H](O)[C@@H](O)[C@H]1O)OC(=O)CC\C=C/C\C=C/C\C=C/CCCCCCCCC
RETENTIONTIME: 
CCS: -1
IONMODE: Negative
INSTRUMENTTYPE: LC-ESI-ITFT
INSTRUMENT: 
COLLISIONENERGY: 30
Comment: registered in MassBank
Num Peaks: 23
281.14001	402
283	33
296.95001	339
303.87	66
305.22	106
307.06	50
315.17999	60
417.01001	741
418.17999	179
437.10001	13
441.28	40
448.76999	27
579.06	1000
579.96997	299
581.28003	27
597.15997	306
601.20001	37
603.04999	389
604.28003	53
621.48999	80
628.59998	17
712.19	20
797.40002	20

NAME: Phosphatidylinositol 18
PRECURSORMZ: 883.534203
PRECURSORTYPE: [M-H]-
FORMULA: C47H81O13P
Ontology: Phosphatidylinositols
INCHIKEY: PKDRPGXTELXGGN-RXMKVQODSA-N
SMILES: CCCCCCCCCCCCC\C=C/CCC(=O)OCC(COP(O)(=O)O[C@H]1[C@H](O)[C@@H](O)[C@H](O)[C@@H](O)[C@H]1O)OC(=O)CC\C=C/C\C=C/C\C=C/C\C=C/CCCCCC
RETENTIONTIME: 
CCS: -1
IONMODE: Negative
INSTRUMENTTYPE: LC-ESI-ITFT
INSTRUMENT: 
COLLISIONENERGY: 30
Comment: registered in MassBank
Num Peaks: 19
258.85001	25
281.09	507
282.07001	29
296.89999	149
303.16	243
304.19	22
314.95001	24
417.04001	638
418.01999	50
435.07999	47
438.92999	99
439.89999	14
579.03998	1000
580.14001	90
597.22998	233
598.40997	9
601	184
602.25	30
618.90997	7

NAME: Phosphatidylinositol 18
PRECURSORMZ: 907.534203
PRECURSORTYPE: [M-H]-
FORMULA: C49H81O13P
Ontology: Phosphatidylinositols
INCHIKEY: HJWMMUBGTHVMFN-VPCUEIIDSA-N
SMILES: CCCCCCCCCCCCC\C=C/CCC(=O)OCC(COP(O)(=O)O[C@H]1[C@H](O)[C@@H](O)[C@H](O)[C@@H](O)[C@H]1O)OC(=O)CC\C=C/C\C=C/C\C=C/C\C=C/C\C=C/C\C=C/CC
RETENTIONTIME: 
CCS: -1
IONMODE: Negative
INSTRUMENTTYPE: LC-ESI-ITFT
INSTRUMENT: 
COLLISIONENERGY: 30
Comment: registered in MassBank
Num Peaks: 21
259.07001	24
281.06	610
283.12	190
296.73999	385
327.20001	132
328.38	54
417.04001	941
417.98001	68
435.16	68
463.09	107
465.07001	15
579.15002	1000
580.21997	410
597.07001	263
598.13	122
622.20001	88
625.04999	249
643.96002	83
774.16998	68
820.04999	415
833.63	34

NAME: Phosphatidylinositol 19
PRECURSORMZ: 899.565503
PRECURSORTYPE: [M-H]-
FORMULA: C48H85O13P
Ontology: Phosphatidylinositols
INCHIKEY: GQWBKIUFQRXJRP-ZKYHKDPYSA-N
SMILES: CCCCCCCCCCCCCCCCCCC(=O)OCC(COP(O)(=O)O[C@H]1[C@H](O)[C@@H](O)[C@H](O)[C@@H](O)[C@H]1O)OC(=O)CC\C=C/C\C=C/C\C=C/C\C=C/CCCCCC
RETENTIONTIME: 
CCS: -1
IONMODE: Negative
INSTRUMENTTYPE: LC-ESI-ITFT
INSTRUMENT: 
COLLISIONENERGY: 30
Comment: registered in MassBank
Num Peaks: 19
259.09	36
297.04999	1000
298.20999	125
303.03	44
304.01999	15
315.01001	12
433.13	701
434.04001	90
439.23999	38
440.34	34
451.95999	9
595.16998	850
596.09003	101
601.06	343
602.29999	65
613.03003	189
619.07001	10
818.28998	34
842.22998	14

NAME: Phosphatidylinositol 20
PRECURSORMZ: 913.581153
PRECURSORTYPE: [M-H]-
FORMULA: C49H87O13P
Ontology: Phosphatidylinositols
INCHIKEY: NBBYCIYUCRZFFV-LLKVLBNOSA-N
SMILES: CCCCCCCCCCCCCCCCCCCC(=O)OCC(COP(O)(=O)O[C@H]1[C@H](O)[C@@H](O)[C@H](O)[C@@H](O)[C@H]1O)OC(=O)CC\C=C/C\C=C/C\C=C/C\C=C/CCCCCC
RETENTIONTIME: 
CCS: -1
IONMODE: Negative
INSTRUMENTTYPE: LC-ESI-ITFT
INSTRUMENT: 
COLLISIONENERGY: 30
Comment: registered in MassBank
Num Peaks: 23
258.91	12
265.34	9
283.25	6
296.91	80
303.07999	217
311.12	849
312.26001	156
314.70001	5
331.32001	11
439.07999	67
440.17999	22
447.10999	757
448.06	61
465.54999	15
601.13	91
602.27002	27
609.10999	1000
610.21997	182
619	31
627.10999	254
628.39001	31
831.70001	7
832.46997	11

NAME: Phosphatidylinositol alkyl 16
PRECURSORMZ: 865.523638
PRECURSORTYPE: [M-H]-
FORMULA: C47H79O12P
Ontology: 1-alkyl,2-acylglycerophosphoinositols
INCHIKEY: HJZVPFAZKUHWMN-ZRQCKBQHSA-N
SMILES: CCCCCCCCCCC\C=C/CCCOCC(COP(O)(=O)O[C@H]1[C@H](O)[C@@H](O)[C@H](O)[C@@H](O)[C@H]1O)OC(=O)CC\C=C/C\C=C/C\C=C/C\C=C/C\C=C/C\C=C/CC
RETENTIONTIME: 
CCS: -1
IONMODE: Negative
INSTRUMENTTYPE: LC-ESI-ITFT
INSTRUMENT: 
COLLISIONENERGY: 30
Comment: registered in MassBank
Num Peaks: 16
281.04001	16
283.07001	477
284.17999	38
327.10001	1000
328.01001	185
462.95001	13
465.28	15
480.45999	15
536.96002	61
555.04999	180
556.15997	10
724.47998	23
780.64001	16
784.88	14
787.38	9
815.37	21

NAME: Phosphatidylinositol lyso 16
PRECURSORMZ: 571.288887
PRECURSORTYPE: [M-H]-
FORMULA: C25H49O12P
Ontology: 2-acyl-sn-glycerol-3-phosphoinositols
INCHIKEY: NUDRHGDMWNFXMD-PYXWJOJKSA-N
SMILES: CCCCCCCCCCCCCCCC(=O)OC(CO)COP(O)(=O)O[C@H]1[C@H](O)[C@@H](O)[C@H](O)[C@@H](O)[C@H]1O
RETENTIONTIME: 
CCS: -1
IONMODE: Negative
INSTRUMENTTYPE: LC-ESI-ITFT
INSTRUMENT: 
COLLISIONENERGY: 30
Comment: registered in MassBank
Num Peaks: 19
240.77	365
254.98	1000
256.12	270
280.70001	32
314.98999	693
315.64001	16
365.91	69
391.04001	608
392.14999	233
406.73999	63
409.19	79
409.81	48
428.73001	101
488.45001	106
496.98999	26
498.14999	26
510.66	37
511.41	212
539.12	26

NAME: Phosphatidylinositol lyso 18
PRECURSORMZ: 599.320187
PRECURSORTYPE: [M-H]-
FORMULA: C27H53O12P
Ontology: 2-acyl-sn-glycerol-3-phosphoinositols
INCHIKEY: AGVRWBBFKKEVAX-WAPMBQLLSA-N
SMILES: CCCCCCCCCCCCCCCCCC(=O)OC(CO)COP(O)(=O)O[C@H]1[C@H](O)[C@@H](O)[C@H](O)[C@@H](O)[C@H]1O
RETENTIONTIME: 
CCS: 275.2004289
IONMODE: Negative
INSTRUMENTTYPE: LC-ESI-ITFT
INSTRUMENT: 
COLLISIONENERGY: 30
Comment: registered in MassBank
Num Peaks: 16
222.84	41
234.60001	12
240.86	337
241.92	15
283.17001	1000
284.12	112
302.85999	10
314.88	505
315.94	35
332.72	24
333.39999	10
419.10999	598
422.97	7
437.13	15
441.57999	10
555.21002	10

NAME: Phosphatidylserine 16
PRECURSORMZ: 782.497758
PRECURSORTYPE: [M-H]-
FORMULA: C42H74NO10P
Ontology: Phosphatidylserines
INCHIKEY: SPHVTAIQBHDJQC-WRDNLCFKNA-N
SMILES: CCCCCCCCCCCCCCCC(=O)OCC(COP(O)(=O)OCC(N)C(O)=O)OC(=O)CC\C=C/C\C=C/C\C=C/C\C=C/CCCCCC
RETENTIONTIME: 
CCS: -1
IONMODE: Negative
INSTRUMENTTYPE: LC-ESI-ITFT
INSTRUMENT: 
COLLISIONENERGY: 30
Comment: registered in MassBank
Num Peaks: 18
255.03999	19
281.10001	151
282.23001	73
302.70001	7
304.13	6
321.07999	1000
322.04999	124
391.07001	66
409.14001	11
419.20001	9
438.91	12
469.48001	7
478.14999	136
479.17001	24
518.21997	20
695.09998	326
696.15002	110
709.10999	13

NAME: Phosphatidylserine 16
PRECURSORMZ: 806.497758
PRECURSORTYPE: [M-H]-
FORMULA: C44H74NO10P
Ontology: Phosphatidylserines
INCHIKEY: PWBBJQOVCTWPIM-LGFBOSHVNA-N
SMILES: CCCCCCCCCCCCCCCC(=O)OCC(COP(O)(=O)OCC(N)C(O)=O)OC(=O)CC\C=C/C\C=C/C\C=C/C\C=C/C\C=C/C\C=C/CC
RETENTIONTIME: 
CCS: 392.052821
IONMODE: Negative
INSTRUMENTTYPE: LC-ESI-ITFT
INSTRUMENT: 
COLLISIONENERGY: 30
Comment: registered in MassBank
Num Peaks: 15
255.08	54
256.07001	16
284.28	6
327.04999	13
391.01001	217
392.12	33
409.10999	40
462.89999	34
464.06	6
495.64999	6
719.03998	1000
720.01001	333
724.17999	7
724.85999	6
745.84998	7

NAME: Phosphatidylserine 17
PRECURSORMZ: 796.513408
PRECURSORTYPE: [M-H]-
FORMULA: C43H76NO10P
Ontology: Phosphatidylserines
INCHIKEY: BPPNSMDUPJTVAF-VTJLAKARNA-N
SMILES: CCCCCCCCCCCCCCCCC(=O)OCC(COP(O)(=O)OCC(N)C(O)=O)OC(=O)CC\C=C/C\C=C/C\C=C/C\C=C/CCCCCC
RETENTIONTIME: 
CCS: -1
IONMODE: Negative
INSTRUMENTTYPE: LC-ESI-ITFT
INSTRUMENT: 
COLLISIONENERGY: 30
Comment: registered in MassBank
Num Peaks: 14
255.34	7
279.13	26
281.22	5
283.14001	18
303.12	32
405.23001	6
406.04001	8
423.14999	8
697.46997	5
709.15997	60
710.21997	32
714.08002	1000
715.25	97
731.78998	18

NAME: Phosphatidylserine 18
PRECURSORMZ: 788.544708
PRECURSORTYPE: [M-H]-
FORMULA: C42H80NO10P
Ontology: Phosphatidylserines
INCHIKEY: GPSKZJNTROFFOC-HYOGKJQXNA-N
SMILES: CCCCCCCCCCCCCCCCCC(=O)OCC(COP(O)(=O)OCC(N)C(O)=O)OC(=O)CC\C=C/CCCCCCCCCCCCC
RETENTIONTIME: 
CCS: -1
IONMODE: Negative
INSTRUMENTTYPE: LC-ESI-ITFT
INSTRUMENT: 
COLLISIONENERGY: 30
Comment: registered in MassBank
Num Peaks: 12
281.01999	12
281.67001	36
283.04999	71
417.09	20
417.95001	44
418.81	149
419.88	24
436.94	38
611.66998	22
680.78998	18
701.14001	1000
702.25	282

NAME: Phosphatidylserine 18
PRECURSORMZ: 786.529058
PRECURSORTYPE: [M-H]-
FORMULA: C42H78NO10P
Ontology: Phosphatidylserines
INCHIKEY: VMDCGUSYZOIAGZ-JSCMVKKRNA-N
SMILES: CCCCCCCCCCCCCCCCCC(=O)OCC(COP(O)(=O)OCC(N)C(O)=O)OC(=O)CC\C=C/C\C=C/CCCCCCCCCC
RETENTIONTIME: 
CCS: -1
IONMODE: Negative
INSTRUMENTTYPE: LC-ESI-ITFT
INSTRUMENT: 
COLLISIONENERGY: 30
Comment: registered in MassBank
Num Peaks: 19
279.17999	64
283.13	37
284.07001	18
296.70001	44
320.82999	47
349.23001	39
415.12	59
419.03	162
420.17999	25
433.98999	22
437.17001	39
463.79999	10
480.19	22
503.5	27
541.48999	27
681.79999	10
699.14001	1000
699.98999	240
786.63	34

NAME: Phosphatidylserine 18
PRECURSORMZ: 812.544708
PRECURSORTYPE: [M-H]-
FORMULA: C44H80NO10P
Ontology: Phosphatidylserines
INCHIKEY: JRRYKGRILWVSHS-JCXYTCFZNA-N
SMILES: CCCCCCCCCCCCCCCCCC(=O)OCC(COP(O)(=O)OCC(N)C(O)=O)OC(=O)CC\C=C/C\C=C/C\C=C/CCCCCCCCC
RETENTIONTIME: 
CCS: -1
IONMODE: Negative
INSTRUMENTTYPE: LC-ESI-ITFT
INSTRUMENT: 
COLLISIONENERGY: 30
Comment: registered in MassBank
Num Peaks: 22
281.44	40
283.13	223
304.89001	65
306.35999	18
307.06	12
331.19	16
349.13	1000
350.13	200
419.29001	76
420.23001	6
438.19	18
441.03	15
462.07999	26
467.5	7
480.03	56
545.75	18
578.46002	12
724.16998	70
725.21002	419
726.31	104
730.52002	10
752.28003	31

NAME: Phosphatidylserine 18
PRECURSORMZ: 810.529058
PRECURSORTYPE: [M-H]-
FORMULA: C44H78NO10P
Ontology: Phosphatidylserines
INCHIKEY: AENVCOSUVDLDFA-NQWSYULSNA-N
SMILES: CCCCCCCCCCCCCCCCCC(=O)OCC(COP(O)(=O)OCC(N)C(O)=O)OC(=O)CC\C=C/C\C=C/C\C=C/C\C=C/CCCCCC
RETENTIONTIME: 
CCS: -1
IONMODE: Negative
INSTRUMENTTYPE: LC-ESI-ITFT
INSTRUMENT: 
COLLISIONENERGY: 30
Comment: registered in MassBank
Num Peaks: 11
283.14001	66
284.17999	14
302.94	19
419.07001	191
420.03	33
437.04001	28
438.41	11
439.10001	33
439.92999	8
723.03998	1000
724.08002	281

NAME: Phosphatidylserine 18
PRECURSORMZ: 808.513408
PRECURSORTYPE: [M-H]-
FORMULA: C44H76NO10P
Ontology: Phosphatidylserines
INCHIKEY: OYCMFOXJRHYXHL-HDSNJYMDNA-N
SMILES: CCCCCCCCCCCCCCCCCC(=O)OCC(COP(O)(=O)OCC(N)C(O)=O)OC(=O)CC\C=C/C\C=C/C\C=C/C\C=C/C\C=C/CCC
RETENTIONTIME: 
CCS: -1
IONMODE: Negative
INSTRUMENTTYPE: LC-ESI-ITFT
INSTRUMENT: 
COLLISIONENERGY: 30
Comment: registered in MassBank
Num Peaks: 19
255.22	8
279.28	6
283.20999	87
301.26001	25
302.39001	24
305.06	14
349.37	6
390.92001	16
417.42999	8
419.10001	182
437.12	69
438.17999	28
480.14999	6
710.45001	11
720.15997	88
721.10999	1000
722.13	366
726.31	13
748.22998	6

NAME: Phosphatidylserine 18
PRECURSORMZ: 834.529058
PRECURSORTYPE: [M-H]-
FORMULA: C46H78NO10P
Ontology: Phosphatidylserines
INCHIKEY: LYYHRRPTEXPVOR-HSBBONCLNA-N
SMILES: CCCCCCCCCCCCCCCCCC(=O)OCC(COP(O)(=O)OCC(N)C(O)=O)OC(=O)CC\C=C/C\C=C/C\C=C/C\C=C/C\C=C/C\C=C/CC
RETENTIONTIME: 
CCS: 404.9164861
IONMODE: Negative
INSTRUMENTTYPE: LC-ESI-ITFT
INSTRUMENT: 
COLLISIONENERGY: 30
Comment: registered in MassBank
Num Peaks: 7
283.17001	68
419.04999	129
420.14001	6
437.12	29
462.95001	29
747.03998	1000
747.97998	28

NAME: Phosphatidylserine 19
PRECURSORMZ: 848.544708
PRECURSORTYPE: [M-H]-
FORMULA: C47H80NO10P
Ontology: Phosphatidylserines
INCHIKEY: KQUCBTRVYDUHMT-MXQGKLILNA-N
SMILES: CCCCCCCCCCCCCCCCCCC(=O)OCC(COP(O)(=O)OCC(N)C(O)=O)OC(=O)CC\C=C/C\C=C/C\C=C/C\C=C/C\C=C/C\C=C/CC
RETENTIONTIME: 
CCS: -1
IONMODE: Negative
INSTRUMENTTYPE: LC-ESI-ITFT
INSTRUMENT: 
COLLISIONENERGY: 30
Comment: registered in MassBank
Num Peaks: 13
297.14999	6
303.20999	28
562.26001	6
627.78998	6
644.78998	10
736.56	6
744.14001	9
747.22998	8
761.08002	51
761.91998	6
766.12	1000
767.12	18
774.23999	14

NAME: Phosphatidylserine 22
PRECURSORMZ: 878.497758
PRECURSORTYPE: [M-H]-
FORMULA: C50H74NO10P
Ontology: Phosphatidylserines
INCHIKEY: RJCZACBLQGCNCW-GZSOIYOPNA-N
SMILES: CC\C=C/C\C=C/C\C=C/C\C=C/C\C=C/C\C=C/CCC(=O)OCC(COP(O)(=O)OCC(N)C(O)=O)OC(=O)CC\C=C/C\C=C/C\C=C/C\C=C/C\C=C/C\C=C/CC
RETENTIONTIME: 
CCS: 379.0794439
IONMODE: Negative
INSTRUMENTTYPE: LC-ESI-ITFT
INSTRUMENT: 
COLLISIONENERGY: 30
Comment: registered in MassBank
Num Peaks: 7
327.20999	49
462.42001	72
463.06	15
557.22998	30
582.01001	30
760.08002	26
791.19	1000

NAME: Sphingomyelin d18
PRECURSORMZ: 735.602163
PRECURSORTYPE: [M+CH3COO]-
FORMULA: C39H81N2O6P
Ontology: Phosphosphingolipids
INCHIKEY: QHZIGNLCLJPLCU-AMAPPZPBSA-N
SMILES: CCCCCCCCCCCCCCC[C@H](O)[C@@H](COP([O-])(=O)OCC[N+](C)(C)C)N=C(O)CCCCCCCCCCCCCCC
RETENTIONTIME: 
CCS: -1
IONMODE: Negative
INSTRUMENTTYPE: LC-ESI-ITFT
INSTRUMENT: 
COLLISIONENERGY: 30
Comment: registered in MassBank
Num Peaks: 18
223.08	16
245.06	11
257.09	108
281.22	23
283.16	708
284.32001	8
301.14001	770
303.20999	8
304.19	8
327.34	7
328.45001	12
329.19	12
462.04999	17
480.04001	385
497.66	36
688.78003	23
689.40002	1000
704.07001	9

NAME: Sphingomyelin d18
PRECURSORMZ: 763.633463
PRECURSORTYPE: [M+CH3COO]-
FORMULA: C41H85N2O6P
Ontology: Phosphosphingolipids
INCHIKEY: JCELSEVNSMXGKA-PVXQIPPMSA-N
SMILES: CCCCCCCCCCCCCCCCCC(O)=N[C@H](COP([O-])(=O)OCC[N+](C)(C)C)[C@@H](O)CCCCCCCCCCCCCCC
RETENTIONTIME: 
CCS: -1
IONMODE: Negative
INSTRUMENTTYPE: LC-ESI-ITFT
INSTRUMENT: 
COLLISIONENERGY: 30
Comment: registered in MassBank
Num Peaks: 12
283.17001	18
284.14999	11
301.16	25
303.16	23
326.32999	11
329.10001	36
462.48001	20
481.10999	36
508.20999	34
675.41998	18
709.40997	68
717.34998	1000

NAME: Sphingomyelin d18
PRECURSORMZ: 791.664763
PRECURSORTYPE: [M+CH3COO]-
FORMULA: C43H89N2O6P
Ontology: Phosphosphingolipids
INCHIKEY: UGRZESKDAPEULH-HLFYWILQSA-N
SMILES: CCCCCCCCCCCCCCCCCCCC(O)=N[C@H](COP([O-])(=O)OCC[N+](C)(C)C)[C@@H](O)CCCCCCCCCCCCCCC
RETENTIONTIME: 
CCS: -1
IONMODE: Negative
INSTRUMENTTYPE: LC-ESI-ITFT
INSTRUMENT: 
COLLISIONENERGY: 30
Comment: registered in MassBank
Num Peaks: 10
450.76001	23
493.76999	14
645.09998	14
654.57001	29
673.84998	38
733.31	43
736.70001	23
738.44	43
745.44	1000
746.15002	43

NAME: Sphingomyelin d18
PRECURSORMZ: 819.696063
PRECURSORTYPE: [M+CH3COO]-
FORMULA: C45H93N2O6P
Ontology: Phosphosphingolipids
INCHIKEY: FONAXCRWZQFJHY-GWRSVMHXSA-N
SMILES: CCCCCCCCCCCCCCCCCCCCCC(O)=N[C@H](COP([O-])(=O)OCC[N+](C)(C)C)[C@@H](O)CCCCCCCCCCCCCCC
RETENTIONTIME: 
CCS: -1
IONMODE: Negative
INSTRUMENTTYPE: LC-ESI-ITFT
INSTRUMENT: 
COLLISIONENERGY: 30
Comment: registered in MassBank
Num Peaks: 8
367.03	7
432.87	24
647.39001	12
765.27002	19
771.64001	12
773.45001	1000
787.94	18
788.67999	7

NAME: Sphingomyelin d18
PRECURSORMZ: 833.711714
PRECURSORTYPE: [M+CH3COO]-
FORMULA: C46H95N2O6P
Ontology: Phosphosphingolipids
INCHIKEY: CRPAVAKPGRALOU-UVTBUIGASA-N
SMILES: CCCCCCCCCCCCCCCCCCCCCCC(O)=N[C@H](COP([O-])(=O)OCC[N+](C)(C)C)[C@@H](O)CCCCCCCCCCCCCCC
RETENTIONTIME: 
CCS: -1
IONMODE: Negative
INSTRUMENTTYPE: LC-ESI-ITFT
INSTRUMENT: 
COLLISIONENERGY: 30
Comment: registered in MassBank
Num Peaks: 5
421.34	79
447.23999	71
489.07999	33
775.31	112
787.37	1000

NAME: Sphingomyelin d18
PRECURSORMZ: 845.711714
PRECURSORTYPE: [M+CH3COO]-
FORMULA: C47H95N2O6P
Ontology: Phosphosphingolipids
INCHIKEY: UFBQIFQQHQOQTC-AKCDXHNVSA-N
SMILES: CCCCCCCCCCCCCCCCCCC\C=C/CCC(O)=N[C@H](COP([O-])(=O)OCC[N+](C)(C)C)[C@@H](O)CCCCCCCCCCCCCCC
RETENTIONTIME: 
CCS: -1
IONMODE: Negative
INSTRUMENTTYPE: LC-ESI-ITFT
INSTRUMENT: 
COLLISIONENERGY: 30
Comment: registered in MassBank
Num Peaks: 6
626.27002	45
783.28998	509
783.94	27
786.38	80
799.40997	1000
843.58002	36

NAME: Sphingomyelin d18
PRECURSORMZ: 733.586513
PRECURSORTYPE: [M+CH3COO]-
FORMULA: C39H79N2O6P
Ontology: Phosphosphingolipids
INCHIKEY: RWKUXQNLWDTSLO-KHDLYOHESA-N
SMILES: CCCCCCCCCCCCCCCC(O)=N[C@H](COP([O-])(=O)OCC[N+](C)(C)C)[C@@H](O)\C=C\CCCCCCCCCCCCC
RETENTIONTIME: 
CCS: -1
IONMODE: Negative
INSTRUMENTTYPE: LC-ESI-ITFT
INSTRUMENT: 
COLLISIONENERGY: 30
Comment: registered in MassBank
Num Peaks: 3
282.92001	6
327.09	7
687.28998	1000

NAME: Sphingomyelin d18
PRECURSORMZ: 747.602163
PRECURSORTYPE: [M+CH3COO]-
FORMULA: C40H81N2O6P
Ontology: Phosphosphingolipids
INCHIKEY: YMQZQHIESOAPQH-QSTWNKESSA-N
SMILES: CCCCCCCCCCCCCCCCC(O)=N[C@H](COP([O-])(=O)OCC[N+](C)(C)C)[C@@H](O)\C=C\CCCCCCCCCCCCC
RETENTIONTIME: 
CCS: -1
IONMODE: Negative
INSTRUMENTTYPE: LC-ESI-ITFT
INSTRUMENT: 
COLLISIONENERGY: 30
Comment: registered in MassBank
Num Peaks: 13
287.06	10
303.07001	20
328.95999	28
330.10001	19
462.04999	22
464.45001	17
517.58002	13
533.01001	15
626.82001	15
672.67999	16
701.35999	1000
715.69	19
729.91998	22

NAME: Sphingomyelin d18
PRECURSORMZ: 761.617813
PRECURSORTYPE: [M+CH3COO]-
FORMULA: C41H83N2O6P
Ontology: Phosphosphingolipids
INCHIKEY: LKQLRGMMMAHREN-GDBDMVKWSA-N
SMILES: CCCCCCCCCCCCCCCCCC(O)=N[C@H](COP([O-])(=O)OCC[N+](C)(C)C)[C@@H](O)\C=C\CCCCCCCCCCCCC
RETENTIONTIME: 
CCS: -1
IONMODE: Negative
INSTRUMENTTYPE: LC-ESI-ITFT
INSTRUMENT: 
COLLISIONENERGY: 30
Comment: registered in MassBank
Num Peaks: 4
282.98999	14
480.01999	7
715.37	1000
730.02002	6

NAME: Sphingomyelin d18
PRECURSORMZ: 775.633463
PRECURSORTYPE: [M+CH3COO]-
FORMULA: C42H85N2O6P
Ontology: Phosphosphingolipids
INCHIKEY: HAFQHLHNPJDAGB-NHBQNDNNSA-N
SMILES: CCCCCCCCCCCCCCCCCCC(O)=N[C@H](COP([O-])(=O)OCC[N+](C)(C)C)[C@@H](O)\C=C\CCCCCCCCCCCCC
RETENTIONTIME: 
CCS: -1
IONMODE: Negative
INSTRUMENTTYPE: LC-ESI-ITFT
INSTRUMENT: 
COLLISIONENERGY: 30
Comment: registered in MassBank
Num Peaks: 11
246.72	17
356.45001	52
444.45001	30
689.16998	30
721.19	17
721.97998	22
729.29999	1000
730.58002	24
735.66998	17
743.28998	46
770.65997	30

NAME: Sphingomyelin d18
PRECURSORMZ: 789.649113
PRECURSORTYPE: [M+CH3COO]-
FORMULA: C43H87N2O6P
Ontology: Phosphosphingolipids
INCHIKEY: AADLTHQNYQJHQV-XACAWUTQSA-N
SMILES: CCCCCCCCCCCCCCCCCCCC(O)=N[C@H](COP([O-])(=O)OCC[N+](C)(C)C)[C@@H](O)\C=C\CCCCCCCCCCCCC
RETENTIONTIME: 
CCS: -1
IONMODE: Negative
INSTRUMENTTYPE: LC-ESI-ITFT
INSTRUMENT: 
COLLISIONENERGY: 30
Comment: registered in MassBank
Num Peaks: 2
743.29999	1000
758.03003	5

NAME: Sphingomyelin d18
PRECURSORMZ: 803.664763
PRECURSORTYPE: [M+CH3COO]-
FORMULA: C44H89N2O6P
Ontology: Phosphosphingolipids
INCHIKEY: YXSZOBWVQJIWNE-LUJNSPTCSA-N
SMILES: CCCCCCCCCCCCCCCCCCCCC(O)=N[C@H](COP([O-])(=O)OCC[N+](C)(C)C)[C@@H](O)\C=C\CCCCCCCCCCCCC
RETENTIONTIME: 
CCS: -1
IONMODE: Negative
INSTRUMENTTYPE: LC-ESI-ITFT
INSTRUMENT: 
COLLISIONENERGY: 30
Comment: registered in MassBank
Num Peaks: 11
365.32001	6
748.23999	10
749.28003	15
749.96997	12
757.33002	1000
758.66998	18
771.84003	16
772.71002	5
773.52002	11
788.16998	11
810.53003	6

NAME: Sphingomyelin d18
PRECURSORMZ: 817.680413
PRECURSORTYPE: [M+CH3COO]-
FORMULA: C45H91N2O6P
Ontology: Phosphosphingolipids
INCHIKEY: FJJANLYCZUNFSE-QVMKKYBKSA-N
SMILES: CCCCCCCCCCCCCCCCCCCCCC(O)=N[C@H](COP([O-])(=O)OCC[N+](C)(C)C)[C@@H](O)\C=C\CCCCCCCCCCCCC
RETENTIONTIME: 
CCS: -1
IONMODE: Negative
INSTRUMENTTYPE: LC-ESI-ITFT
INSTRUMENT: 
COLLISIONENERGY: 30
Comment: registered in MassBank
Num Peaks: 1
771.34003	1000

NAME: Sphingomyelin d18
PRECURSORMZ: 815.664763
PRECURSORTYPE: [M+CH3COO]-
FORMULA: C45H89N2O6P
Ontology: Phosphosphingolipids
INCHIKEY: OLJJWQULRPCSST-QMQRQSDPSA-N
SMILES: CCCCCCCCCCCCCCCCC\C=C/CCC(O)=N[C@H](COP([O-])(=O)OCC[N+](C)(C)C)[C@@H](O)\C=C\CCCCCCCCCCCCC
RETENTIONTIME: 
CCS: -1
IONMODE: Negative
INSTRUMENTTYPE: LC-ESI-ITFT
INSTRUMENT: 
COLLISIONENERGY: 30
Comment: registered in MassBank
Num Peaks: 5
337.31	24
769.29999	1000
769.92999	5
783.34998	22
784.12	14

NAME: Sphingomyelin d18
PRECURSORMZ: 831.696063
PRECURSORTYPE: [M+CH3COO]-
FORMULA: C46H93N2O6P
Ontology: Phosphosphingolipids
INCHIKEY: SXZWBNWTCVLZJN-ZIHSGIAZSA-N
SMILES: CCCCCCCCCCCCCCCCCCCCCCC(O)=N[C@H](COP([O-])(=O)OCC[N+](C)(C)C)[C@@H](O)\C=C\CCCCCCCCCCCCC
RETENTIONTIME: 
CCS: -1
IONMODE: Negative
INSTRUMENTTYPE: LC-ESI-ITFT
INSTRUMENT: 
COLLISIONENERGY: 30
Comment: registered in MassBank
Num Peaks: 2
785.40997	1000
800.19	5

NAME: Sphingomyelin d18
PRECURSORMZ: 829.680413
PRECURSORTYPE: [M+CH3COO]-
FORMULA: C46H91N2O6P
Ontology: Phosphosphingolipids
INCHIKEY: DAOFAZSSTHCXTO-LTEWMCMPSA-N
SMILES: CCCCCCCCCCCCCCCCCC\C=C/CCC(O)=N[C@H](COP([O-])(=O)OCC[N+](C)(C)C)[C@@H](O)\C=C\CCCCCCCCCCCCC
RETENTIONTIME: 
CCS: -1
IONMODE: Negative
INSTRUMENTTYPE: LC-ESI-ITFT
INSTRUMENT: 
COLLISIONENERGY: 30
Comment: registered in MassBank
Num Peaks: 7
283.17001	12
760.09003	5
769.64001	24
783.31	1000
784	15
796.91998	9
797.98999	9

NAME: Sphingomyelin d18
PRECURSORMZ: 845.711714
PRECURSORTYPE: [M+CH3COO]-
FORMULA: C47H95N2O6P
Ontology: Phosphosphingolipids
INCHIKEY: QEDPUVGSSDPBMD-ZDGDQSOJSA-N
SMILES: CCCCCCCCCCCCCCCCCCCCCCCC(O)=N[C@H](COP([O-])(=O)OCC[N+](C)(C)C)[C@@H](O)\C=C\CCCCCCCCCCCCC
RETENTIONTIME: 
CCS: -1
IONMODE: Negative
INSTRUMENTTYPE: LC-ESI-ITFT
INSTRUMENT: 
COLLISIONENERGY: 30
Comment: registered in MassBank
Num Peaks: 1
799.39001	1000

NAME: Sphingomyelin d18
PRECURSORMZ: 843.696063
PRECURSORTYPE: [M+CH3COO]-
FORMULA: C47H93N2O6P
Ontology: Phosphosphingolipids
INCHIKEY: RKEMFFRZTRUUOF-UQSBNWTPSA-N
SMILES: CCCCCCCCCCCCCCCCCCC\C=C/CCC(O)=N[C@H](COP([O-])(=O)OCC[N+](C)(C)C)[C@@H](O)\C=C\CCCCCCCCCCCCC
RETENTIONTIME: 
CCS: -1
IONMODE: Negative
INSTRUMENTTYPE: LC-ESI-ITFT
INSTRUMENT: 
COLLISIONENERGY: 30
Comment: registered in MassBank
Num Peaks: 4
680.03003	6
695.46997	7
797.40002	1000
798.01001	19

NAME: Sphingomyelin d18
PRECURSORMZ: 731.570863
PRECURSORTYPE: [M+CH3COO]-
FORMULA: C39H77N2O6P
Ontology: Phosphosphingolipids
INCHIKEY: RYPRHPLEPBYJJE-SFDSNHFWSA-N
SMILES: CCCCCCCCCCCCCCCC(O)=N[C@H](COP([O-])(=O)OCC[N+](C)(C)C)[C@@H](O)\C=C\CC\C=C\CCCCCCCCC
RETENTIONTIME: 
CCS: -1
IONMODE: Negative
INSTRUMENTTYPE: LC-ESI-ITFT
INSTRUMENT: 
COLLISIONENERGY: 30
Comment: registered in MassBank
Num Peaks: 10
252.98	20
281.10999	19
299.07001	10
327.32999	49
450.60999	22
685.21002	1000
685.92999	9
686.58002	16
699.90002	13
759.09998	12

NAME: Sphingomyelin d18
PRECURSORMZ: 787.633463
PRECURSORTYPE: [M+CH3COO]-
FORMULA: C43H85N2O6P
Ontology: Phosphosphingolipids
INCHIKEY: RIQUZAZTFMJZDT-IOZXCLFOSA-N
SMILES: CCCCCCCCCCCCCCCCCCCC(O)=N[C@H](COP([O-])(=O)OCC[N+](C)(C)C)[C@@H](O)\C=C\CC\C=C\CCCCCCCCC
RETENTIONTIME: 
CCS: -1
IONMODE: Negative
INSTRUMENTTYPE: LC-ESI-ITFT
INSTRUMENT: 
COLLISIONENERGY: 30
Comment: registered in MassBank
Num Peaks: 2
474.69	10
741.41998	1000

NAME: Sphingomyelin d18
PRECURSORMZ: 815.664763
PRECURSORTYPE: [M+CH3COO]-
FORMULA: C45H89N2O6P
Ontology: Phosphosphingolipids
INCHIKEY: UCLWWTCDZKLHGY-HHQXBTLRSA-N
SMILES: CCCCCCCCCCCCCCCCCCCCCC(O)=N[C@H](COP([O-])(=O)OCC[N+](C)(C)C)[C@@H](O)\C=C\CC\C=C\CCCCCCCCC
RETENTIONTIME: 
CCS: -1
IONMODE: Negative
INSTRUMENTTYPE: LC-ESI-ITFT
INSTRUMENT: 
COLLISIONENERGY: 30
Comment: registered in MassBank
Num Peaks: 2
769.31	1000
785.40002	12

NAME: Sphingomyelin d18
PRECURSORMZ: 829.680413
PRECURSORTYPE: [M+CH3COO]-
FORMULA: C46H91N2O6P
Ontology: Phosphosphingolipids
INCHIKEY: PENYJGUXTJATDH-FKOSZORSSA-N
SMILES: CCCCCCCCCCCCCCCCCCCCCCC(O)=N[C@H](COP([O-])(=O)OCC[N+](C)(C)C)[C@@H](O)\C=C\CC\C=C\CCCCCCCCC
RETENTIONTIME: 
CCS: -1
IONMODE: Negative
INSTRUMENTTYPE: LC-ESI-ITFT
INSTRUMENT: 
COLLISIONENERGY: 30
Comment: registered in MassBank
Num Peaks: 9
283.12	12
309.28	35
743.89001	10
772.91998	9
775.78003	9
783.32001	1000
783.92999	6
797.20001	5
825.31	23

NAME: Phosphatidylcholine 14
PRECURSORMZ: 736.549793
PRECURSORTYPE: [M+CH3COO]-
FORMULA: C38H76NO8P
Ontology: Phosphatidylcholines
INCHIKEY: RFVFQQWKPSOBED-UHFFFAOYNA-N
SMILES: CCCCCCCCCCCCCCCC(=O)OC(COC(=O)CCCCCCCCCCCCC)COP([O-])(=O)OCC[N+](C)(C)C
RETENTIONTIME: 
CCS: -1
IONMODE: Negative
INSTRUMENTTYPE: LC-ESI-ITFT
INSTRUMENT: 
COLLISIONENERGY: 30
Comment: registered in MassBank
Num Peaks: 9
255.05	5
259.19	17
281.07001	76
282.10999	5
303.04001	137
304.17999	10
478.17999	48
690.04999	1000
704.82001	6

NAME: Phosphatidylcholine 14
PRECURSORMZ: 784.549793
PRECURSORTYPE: [M+CH3COO]-
FORMULA: C42H76NO8P
Ontology: Phosphatidylcholines
INCHIKEY: LTAXKUDPWVWJJR-VONYRGFMNA-N
SMILES: CCCCCCCCCCCCCC(=O)OCC(COP([O-])(=O)OCC[N+](C)(C)C)OC(=O)CC\C=C/C\C=C/C\C=C/C\C=C/CCCCCC
RETENTIONTIME: 
CCS: -1
IONMODE: Negative
INSTRUMENTTYPE: LC-ESI-ITFT
INSTRUMENT: 
COLLISIONENERGY: 30
Comment: registered in MassBank
Num Peaks: 6
249.92999	13
302.94	41
419.82999	34
633.54999	28
707.90997	23
738.03998	1000

NAME: Phosphatidylcholine 14
PRECURSORMZ: 820.643694
PRECURSORTYPE: [M+CH3COO]-
FORMULA: C44H88NO8P
Ontology: Phosphatidylcholines
INCHIKEY: KNQNJCODLDRFSM-UHFFFAOYNA-N
SMILES: CCCCCCCCCCCCCCCCCCCCCC(=O)OC(COC(=O)CCCCCCCCCCCCC)COP([O-])(=O)OCC[N+](C)(C)C
RETENTIONTIME: 
CCS: -1
IONMODE: Negative
INSTRUMENTTYPE: LC-ESI-ITFT
INSTRUMENT: 
COLLISIONENERGY: 30
Comment: registered in MassBank
Num Peaks: 11
368.87	5
620.10999	5
632.45001	14
704.13	5
771.23999	17
772.72998	30
773.64001	40
774.28003	191
779.94	5
812.16998	1000
813.06	79

NAME: Phosphatidylcholine 15
PRECURSORMZ: 798.565443
PRECURSORTYPE: [M+CH3COO]-
FORMULA: C43H78NO8P
Ontology: Phosphatidylcholines
INCHIKEY: CLOJCJSOXWBGTM-BSBLZQCJNA-N
SMILES: CCCCCCCCCCCCCCC(=O)OCC(COP([O-])(=O)OCC[N+](C)(C)C)OC(=O)CC\C=C/C\C=C/C\C=C/C\C=C/CCCCCC
RETENTIONTIME: 
CCS: -1
IONMODE: Negative
INSTRUMENTTYPE: LC-ESI-ITFT
INSTRUMENT: 
COLLISIONENERGY: 30
Comment: registered in MassBank
Num Peaks: 5
645.38	12
738.23999	28
744.32001	64
752.12	1000
775.67999	58

NAME: Phosphatidylcholine 16
PRECURSORMZ: 750.565443
PRECURSORTYPE: [M+CH3COO]-
FORMULA: C39H78NO8P
Ontology: Phosphatidylcholines
INCHIKEY: NPGWXTIWUUFYAB-UHFFFAOYNA-N
SMILES: CCCCCCCCCCCCCCCC(=O)OCC(COP([O-])(=O)OCC[N+](C)(C)C)OC(=O)CCCCCCCCCCCCCC
RETENTIONTIME: 
CCS: -1
IONMODE: Negative
INSTRUMENTTYPE: LC-ESI-ITFT
INSTRUMENT: 
COLLISIONENERGY: 30
Comment: registered in MassBank
Num Peaks: 9
269.23001	12
329.26001	11
330.04999	18
703.51001	52
704.14001	1000
704.88	7
718.62	8
719.59003	5
741.96002	6

NAME: Phosphatidylcholine 16
PRECURSORMZ: 764.581093
PRECURSORTYPE: [M+CH3COO]-
FORMULA: C40H80NO8P
Ontology: Phosphatidylcholines
INCHIKEY: KILNVBDSWZSGLL-UHFFFAOYNA-N
SMILES: CCCCCCCCCCCCCCCC(=O)OCC(COP([O-])(=O)OCC[N+](C)(C)C)OC(=O)CCCCCCCCCCCCCCC
RETENTIONTIME: 
CCS: -1
IONMODE: Negative
INSTRUMENTTYPE: LC-ESI-ITFT
INSTRUMENT: 
COLLISIONENERGY: 30
Comment: registered in MassBank
Num Peaks: 2
255.08	7
718.17999	1000

NAME: Phosphatidylcholine 16
PRECURSORMZ: 792.612393
PRECURSORTYPE: [M+CH3COO]-
FORMULA: C42H84NO8P
Ontology: Phosphatidylcholines
INCHIKEY: PZNPLUBHRSSFHT-UHFFFAOYNA-N
SMILES: CCCCCCCCCCCCCCCCCC(=O)OC(COC(=O)CCCCCCCCCCCCCCC)COP([O-])(=O)OCC[N+](C)(C)C
RETENTIONTIME: 
CCS: -1
IONMODE: Negative
INSTRUMENTTYPE: LC-ESI-ITFT
INSTRUMENT: 
COLLISIONENERGY: 30
Comment: registered in MassBank
Num Peaks: 4
283.14001	5
744.76001	6
746.09998	1000
747.13	23

NAME: Phosphatidylcholine 16
PRECURSORMZ: 790.596743
PRECURSORTYPE: [M+CH3COO]-
FORMULA: C42H82NO8P
Ontology: Phosphatidylcholines
INCHIKEY: QPHGOXQEXDWRIB-YCNYHXFENA-N
SMILES: CCCCCCCCCCCCCCCC(=O)OCC(COP([O-])(=O)OCC[N+](C)(C)C)OC(=O)CC\C=C/CCCCCCCCCCCCC
RETENTIONTIME: 
CCS: -1
IONMODE: Negative
INSTRUMENTTYPE: LC-ESI-ITFT
INSTRUMENT: 
COLLISIONENERGY: 30
Comment: registered in MassBank
Num Peaks: 4
281.22	8
744.17999	1000
744.85999	6
759.21002	5

NAME: Phosphatidylcholine 16
PRECURSORMZ: 788.581093
PRECURSORTYPE: [M+CH3COO]-
FORMULA: C42H80NO8P
Ontology: Phosphatidylcholines
INCHIKEY: PWJTWIQVMHNOLN-WGPKDLKGNA-N
SMILES: CCCCCCCCCCCCCCCC(=O)OCC(COP([O-])(=O)OCC[N+](C)(C)C)OC(=O)CC\C=C/C\C=C/CCCCCCCCCC
RETENTIONTIME: 
CCS: -1
IONMODE: Negative
INSTRUMENTTYPE: LC-ESI-ITFT
INSTRUMENT: 
COLLISIONENERGY: 30
Comment: registered in MassBank
Num Peaks: 3
279.19	8
742.12	1000
757.07001	9

NAME: Phosphatidylcholine 16
PRECURSORMZ: 786.565443
PRECURSORTYPE: [M+CH3COO]-
FORMULA: C42H78NO8P
Ontology: Phosphatidylcholines
INCHIKEY: LTFQLMSVQQIRBG-YOKRUPNWNA-N
SMILES: CCCCCCCCCCCCCCCC(=O)OCC(COP([O-])(=O)OCC[N+](C)(C)C)OC(=O)CC\C=C/C\C=C/C\C=C/CCCCCCC
RETENTIONTIME: 
CCS: -1
IONMODE: Negative
INSTRUMENTTYPE: LC-ESI-ITFT
INSTRUMENT: 
COLLISIONENERGY: 30
Comment: registered in MassBank
Num Peaks: 13
249.06	43
331.42999	22
352.82001	43
487.07999	56
504.39001	43
566.87	28
710.41998	15
714.21997	46
733.16998	65
740.21002	1000
764.07001	22
765.10999	53
795.33002	22

NAME: Phosphatidylcholine 16
PRECURSORMZ: 814.596743
PRECURSORTYPE: [M+CH3COO]-
FORMULA: C44H82NO8P
Ontology: Phosphatidylcholines
INCHIKEY: XWDUIGPTBYOBBP-BQYMPCJENA-N
SMILES: CCCCCCCCCCCCCCCC(=O)OCC(COP([O-])(=O)OCC[N+](C)(C)C)OC(=O)CC\C=C/C\C=C/C\C=C/CCCCCCCCC
RETENTIONTIME: 
CCS: -1
IONMODE: Negative
INSTRUMENTTYPE: LC-ESI-ITFT
INSTRUMENT: 
COLLISIONENERGY: 30
Comment: registered in MassBank
Num Peaks: 2
255.13	6
768.16998	1000

NAME: Phosphatidylcholine 16
PRECURSORMZ: 812.581093
PRECURSORTYPE: [M+CH3COO]-
FORMULA: C44H80NO8P
Ontology: Phosphatidylcholines
INCHIKEY: YRCYEVIWNSLKRF-RZUUUYDYNA-N
SMILES: CCCCCCCCCCCCCCCC(=O)OCC(COP([O-])(=O)OCC[N+](C)(C)C)OC(=O)CC\C=C/C\C=C/C\C=C/C\C=C/CCCCCC
RETENTIONTIME: 
CCS: -1
IONMODE: Negative
INSTRUMENTTYPE: LC-ESI-ITFT
INSTRUMENT: 
COLLISIONENERGY: 30
Comment: registered in MassBank
Num Peaks: 2
303.12	6
766.13	1000

NAME: Phosphatidylcholine 16
PRECURSORMZ: 810.565443
PRECURSORTYPE: [M+CH3COO]-
FORMULA: C44H78NO8P
Ontology: Phosphatidylcholines
INCHIKEY: RKFHFBWDNSYADY-SNIIIARXNA-N
SMILES: CCCCCCCCCCCCCCCC(=O)OCC(COP([O-])(=O)OCC[N+](C)(C)C)OC(=O)CC\C=C/C\C=C/C\C=C/C\C=C/C\C=C/CCC
RETENTIONTIME: 
CCS: -1
IONMODE: Negative
INSTRUMENTTYPE: LC-ESI-ITFT
INSTRUMENT: 
COLLISIONENERGY: 30
Comment: registered in MassBank
Num Peaks: 21
255.21001	6
257.07999	6
283.20999	656
284.26001	26
287.01999	25
325.38	6
327.10001	1000
328.14999	68
331.23001	858
332.23999	35
416.98999	9
454.37	17
505.67001	10
509.97	61
524	86
526.5	6
528.12	741
529.28003	75
750.20001	19
764.15997	526
781.25	30

NAME: Phosphatidylcholine 16
PRECURSORMZ: 840.612393
PRECURSORTYPE: [M+CH3COO]-
FORMULA: C46H84NO8P
Ontology: Phosphatidylcholines
INCHIKEY: WYNABTBZGUFBIR-NRVNBKNNNA-N
SMILES: CCCCCCCCCCCCCCCC(=O)OCC(COP([O-])(=O)OCC[N+](C)(C)C)OC(=O)CC\C=C/C\C=C/C\C=C/C\C=C/CCCCCCCC
RETENTIONTIME: 
CCS: -1
IONMODE: Negative
INSTRUMENTTYPE: LC-ESI-ITFT
INSTRUMENT: 
COLLISIONENERGY: 30
Comment: registered in MassBank
Num Peaks: 10
281.28	17
477.26001	34
543.94	37
585.96997	17
603.13	37
724.09003	41
748.12	24
794.27002	1000
809.14001	24
852.52002	24

NAME: Phosphatidylcholine 16
PRECURSORMZ: 838.596743
PRECURSORTYPE: [M+CH3COO]-
FORMULA: C46H82NO8P
Ontology: Phosphatidylcholines
INCHIKEY: MWXAIAMSOXOQJK-TZCDOOIHNA-N
SMILES: CCCCCCCCCCCCCCCC(=O)OCC(COP([O-])(=O)OCC[N+](C)(C)C)OC(=O)CC\C=C/C\C=C/C\C=C/C\C=C/C\C=C/CCCCC
RETENTIONTIME: 
CCS: -1
IONMODE: Negative
INSTRUMENTTYPE: LC-ESI-ITFT
INSTRUMENT: 
COLLISIONENERGY: 30
Comment: registered in MassBank
Num Peaks: 4
522.06	59
527.98999	176
791.98999	1000
792.67999	59

NAME: Phosphatidylcholine 16
PRECURSORMZ: 836.581093
PRECURSORTYPE: [M+CH3COO]-
FORMULA: C46H80NO8P
Ontology: Phosphatidylcholines
INCHIKEY: IESVDEZGAHUQJU-SYGPSSPWNA-N
SMILES: CCCCCCCCCCCCCCCC(=O)OCC(COP([O-])(=O)OCC[N+](C)(C)C)OC(=O)CC\C=C/C\C=C/C\C=C/C\C=C/C\C=C/C\C=C/CC
RETENTIONTIME: 
CCS: -1
IONMODE: Negative
INSTRUMENTTYPE: LC-ESI-ITFT
INSTRUMENT: 
COLLISIONENERGY: 30
Comment: registered in MassBank
Num Peaks: 3
327.14001	6
790.09003	1000
804.96997	6

NAME: Phosphatidylcholine 16
PRECURSORMZ: 788.581093
PRECURSORTYPE: [M+CH3COO]-
FORMULA: C42H80NO8P
Ontology: Phosphatidylcholines
INCHIKEY: QNRBHVUJSHOYGI-BRMDCIMDNA-N
SMILES: CCCCCCCCCCCCC\C=C/CCC(=O)OC(COC(=O)CC\C=C/CCCCCCCCCCC)COP([O-])(=O)OCC[N+](C)(C)C
RETENTIONTIME: 
CCS: -1
IONMODE: Negative
INSTRUMENTTYPE: LC-ESI-ITFT
INSTRUMENT: 
COLLISIONENERGY: 30
Comment: registered in MassBank
Num Peaks: 8
253.19	8
281.12	8
327.17001	5
742.12	1000
743.02002	6
757.09003	13
766.09998	478
767.10999	5

NAME: Phosphatidylcholine 16
PRECURSORMZ: 786.565443
PRECURSORTYPE: [M+CH3COO]-
FORMULA: C42H78NO8P
Ontology: Phosphatidylcholines
INCHIKEY: XSSJXFBQZLYYFK-TVGXXSNYNA-N
SMILES: CCCCCCCCCCC\C=C/CCC(=O)OCC(COP([O-])(=O)OCC[N+](C)(C)C)OC(=O)CC\C=C/C\C=C/CCCCCCCCCC
RETENTIONTIME: 
CCS: -1
IONMODE: Negative
INSTRUMENTTYPE: LC-ESI-ITFT
INSTRUMENT: 
COLLISIONENERGY: 30
Comment: registered in MassBank
Num Peaks: 17
279.31	15
283.13	62
284.54001	22
305.09	56
307.14999	25
327.04001	67
328.07999	59
369.34	21
470.67999	10
502.31	31
503.19	41
532.31	17
652.96997	28
740.07001	1000
740.94	27
764.21002	11
793.60999	13

NAME: Phosphatidylcholine 16
PRECURSORMZ: 810.565443
PRECURSORTYPE: [M+CH3COO]-
FORMULA: C44H78NO8P
Ontology: Phosphatidylcholines
INCHIKEY: QSBABJGBCMSZOL-RNVRRVRJNA-N
SMILES: CCCCCCCCCCC\C=C/CCC(=O)OCC(COP([O-])(=O)OCC[N+](C)(C)C)OC(=O)CC\C=C/C\C=C/C\C=C/C\C=C/CCCCCC
RETENTIONTIME: 
CCS: -1
IONMODE: Negative
INSTRUMENTTYPE: LC-ESI-ITFT
INSTRUMENT: 
COLLISIONENERGY: 30
Comment: registered in MassBank
Num Peaks: 5
253.27	21
730.78998	16
764.13	1000
779.06	25
794.92999	35

NAME: Phosphatidylcholine 16
PRECURSORMZ: 834.565443
PRECURSORTYPE: [M+CH3COO]-
FORMULA: C46H78NO8P
Ontology: Phosphatidylcholines
INCHIKEY: ALJYHFIRPGURAF-DACYDXBYNA-N
SMILES: CCCCCCCCCCC\C=C/CCC(=O)OCC(COP([O-])(=O)OCC[N+](C)(C)C)OC(=O)CC\C=C/C\C=C/C\C=C/C\C=C/C\C=C/C\C=C/CC
RETENTIONTIME: 
CCS: -1
IONMODE: Negative
INSTRUMENTTYPE: LC-ESI-ITFT
INSTRUMENT: 
COLLISIONENERGY: 30
Comment: registered in MassBank
Num Peaks: 7
438.42999	8
691.98999	11
772.03998	6
779.84998	18
788.15002	1000
801.96997	12
803.34003	6

NAME: Phosphatidylcholine 17
PRECURSORMZ: 802.596743
PRECURSORTYPE: [M+CH3COO]-
FORMULA: C43H82NO8P
Ontology: Phosphatidylcholines
INCHIKEY: OPXAZFYJOBVDTP-SZDCHMHBNA-N
SMILES: CCCCCCCCCCCCC\C=C/CCC(=O)OC(COC(=O)CC\C=C/CCCCCCCCCCCC)COP([O-])(=O)OCC[N+](C)(C)C
RETENTIONTIME: 
CCS: -1
IONMODE: Negative
INSTRUMENTTYPE: LC-ESI-ITFT
INSTRUMENT: 
COLLISIONENERGY: 30
Comment: registered in MassBank
Num Peaks: 9
303.20999	7
484.37	7
742.26001	8
748.09998	1000
749.10999	156
756.23999	182
769.22998	8
770.57001	6
811.81	6

NAME: Phosphatidylcholine 18
PRECURSORMZ: 818.628043
PRECURSORTYPE: [M+CH3COO]-
FORMULA: C44H86NO8P
Ontology: Phosphatidylcholines
INCHIKEY: OBRNLVIDOVBLPU-FPODKLOTNA-N
SMILES: CCCCCCCCCCCCCCCCCC(=O)OCC(COP([O-])(=O)OCC[N+](C)(C)C)OC(=O)CC\C=C/CCCCCCCCCCCCC
RETENTIONTIME: 
CCS: -1
IONMODE: Negative
INSTRUMENTTYPE: LC-ESI-ITFT
INSTRUMENT: 
COLLISIONENERGY: 30
Comment: registered in MassBank
Num Peaks: 2
281.16	6
772.15002	1000

NAME: Phosphatidylcholine 18
PRECURSORMZ: 816.612393
PRECURSORTYPE: [M+CH3COO]-
FORMULA: C44H84NO8P
Ontology: Phosphatidylcholines
INCHIKEY: BHAATSGDDOXMJD-FOXSRGEXNA-N
SMILES: CCCCCCCCCCCCCCCCCC(=O)OCC(COP([O-])(=O)OCC[N+](C)(C)C)OC(=O)CC\C=C/C\C=C/CCCCCCCCCC
RETENTIONTIME: 
CCS: -1
IONMODE: Negative
INSTRUMENTTYPE: LC-ESI-ITFT
INSTRUMENT: 
COLLISIONENERGY: 30
Comment: registered in MassBank
Num Peaks: 2
770.15997	1000
770.78003	12

NAME: Phosphatidylcholine 18
PRECURSORMZ: 848.674994
PRECURSORTYPE: [M+CH3COO]-
FORMULA: C46H92NO8P
Ontology: Phosphatidylcholines
INCHIKEY: ZNSGCWMTNLBFEQ-UHFFFAOYNA-N
SMILES: CCCCCCCCCCCCCCCCCCCC(=O)OC(COC(=O)CCCCCCCCCCCCCCCCC)COP([O-])(=O)OCC[N+](C)(C)C
RETENTIONTIME: 
CCS: -1
IONMODE: Negative
INSTRUMENTTYPE: LC-ESI-ITFT
INSTRUMENT: 
COLLISIONENERGY: 30
Comment: registered in MassBank
Num Peaks: 6
339.06	47
591.09998	163
794.59998	101
799.60999	93
802.17999	1000
840.04999	54

NAME: Phosphatidylcholine 18
PRECURSORMZ: 844.643694
PRECURSORTYPE: [M+CH3COO]-
FORMULA: C46H88NO8P
Ontology: Phosphatidylcholines
INCHIKEY: QLAPQVPZKNRKSF-ZUOCNPMVNA-N
SMILES: CCCCCCCCCCCCCCCCCC(=O)OCC(COP([O-])(=O)OCC[N+](C)(C)C)OC(=O)CC\C=C/C\C=C/CCCCCCCCCCCC
RETENTIONTIME: 
CCS: -1
IONMODE: Negative
INSTRUMENTTYPE: LC-ESI-ITFT
INSTRUMENT: 
COLLISIONENERGY: 30
Comment: registered in MassBank
Num Peaks: 8
294.85001	30
418.95999	97
510.81	42
526.31	42
711.16998	121
754.16998	67
796.04999	97
798.10999	1000

NAME: Phosphatidylcholine 18
PRECURSORMZ: 842.628043
PRECURSORTYPE: [M+CH3COO]-
FORMULA: C46H86NO8P
Ontology: Phosphatidylcholines
INCHIKEY: JKGNHUXTJMEAQU-YDXMYUDNNA-N
SMILES: CCCCCCCCCCCCCCCCCC(=O)OCC(COP([O-])(=O)OCC[N+](C)(C)C)OC(=O)CC\C=C/C\C=C/C\C=C/CCCCCCCCC
RETENTIONTIME: 
CCS: -1
IONMODE: Negative
INSTRUMENTTYPE: LC-ESI-ITFT
INSTRUMENT: 
COLLISIONENERGY: 30
Comment: registered in MassBank
Num Peaks: 7
282.63	69
305.37	27
544.22998	141
589.26001	38
796.15997	1000
796.85999	50
804.72998	27

NAME: Phosphatidylcholine 18
PRECURSORMZ: 840.612393
PRECURSORTYPE: [M+CH3COO]-
FORMULA: C46H84NO8P
Ontology: Phosphatidylcholines
INCHIKEY: FALSXTSFRXGEBP-KKHNUOCRNA-N
SMILES: CCCCCCCCCCCCCCCCCC(=O)OCC(COP([O-])(=O)OCC[N+](C)(C)C)OC(=O)CC\C=C/C\C=C/C\C=C/C\C=C/CCCCCC
RETENTIONTIME: 
CCS: -1
IONMODE: Negative
INSTRUMENTTYPE: LC-ESI-ITFT
INSTRUMENT: 
COLLISIONENERGY: 30
Comment: registered in MassBank
Num Peaks: 4
303.12	13
749.59003	6
794.15997	1000
808.01001	9

NAME: Phosphatidylcholine 18
PRECURSORMZ: 868.643694
PRECURSORTYPE: [M+CH3COO]-
FORMULA: C48H88NO8P
Ontology: Phosphatidylcholines
INCHIKEY: FNYFFQAOWZRPMR-TZYRSRCUNA-N
SMILES: CCCCCCCCCCCCCCCCCC(=O)OCC(COP([O-])(=O)OCC[N+](C)(C)C)OC(=O)CC\C=C/C\C=C/C\C=C/C\C=C/CCCCCCCC
RETENTIONTIME: 
CCS: -1
IONMODE: Negative
INSTRUMENTTYPE: LC-ESI-ITFT
INSTRUMENT: 
COLLISIONENERGY: 30
Comment: registered in MassBank
Num Peaks: 6
574.62	42
821.60999	120
822.25	1000
848.64001	48
859.64001	27
864.03003	21

NAME: Phosphatidylcholine 18
PRECURSORMZ: 864.612393
PRECURSORTYPE: [M+CH3COO]-
FORMULA: C48H84NO8P
Ontology: Phosphatidylcholines
INCHIKEY: FAUYAENFVCNTAL-UFTZFNJNNA-N
SMILES: CCCCCCCCCCCCCCCCCC(=O)OCC(COP([O-])(=O)OCC[N+](C)(C)C)OC(=O)CC\C=C/C\C=C/C\C=C/C\C=C/C\C=C/C\C=C/CC
RETENTIONTIME: 
CCS: -1
IONMODE: Negative
INSTRUMENTTYPE: LC-ESI-ITFT
INSTRUMENT: 
COLLISIONENERGY: 30
Comment: registered in MassBank
Num Peaks: 2
508.37	6
818.13	1000

NAME: Phosphatidylcholine 18
PRECURSORMZ: 816.612393
PRECURSORTYPE: [M+CH3COO]-
FORMULA: C44H84NO8P
Ontology: Phosphatidylcholines
INCHIKEY: CTNCUXPCGXYRIB-UOALMSBLNA-N
SMILES: CCCCCCCCCCCCC\C=C/CCC(=O)OCC(COP([O-])(=O)OCC[N+](C)(C)C)OC(=O)CC\C=C/CCCCCCCCCCCCC
RETENTIONTIME: 
CCS: -1
IONMODE: Negative
INSTRUMENTTYPE: LC-ESI-ITFT
INSTRUMENT: 
COLLISIONENERGY: 30
Comment: registered in MassBank
Num Peaks: 3
281.20001	12
770.10999	1000
785.06	6

NAME: Phosphatidylcholine 18
PRECURSORMZ: 814.596743
PRECURSORTYPE: [M+CH3COO]-
FORMULA: C44H82NO8P
Ontology: Phosphatidylcholines
INCHIKEY: HZHAEVXGLQPJBM-KJZSVCAKNA-N
SMILES: CCCCCCCCCCCCC\C=C/CCC(=O)OCC(COP([O-])(=O)OCC[N+](C)(C)C)OC(=O)CC\C=C/C\C=C/CCCCCCCCCC
RETENTIONTIME: 
CCS: -1
IONMODE: Negative
INSTRUMENTTYPE: LC-ESI-ITFT
INSTRUMENT: 
COLLISIONENERGY: 30
Comment: registered in MassBank
Num Peaks: 3
279.16	6
768.21997	1000
792.14001	10

NAME: Phosphatidylcholine 18
PRECURSORMZ: 838.596743
PRECURSORTYPE: [M+CH3COO]-
FORMULA: C46H82NO8P
Ontology: Phosphatidylcholines
INCHIKEY: HYDKDXOLAXLJKA-ICTLDNOWNA-N
SMILES: CCCCCCCCCCCCC\C=C/CCC(=O)OCC(COP([O-])(=O)OCC[N+](C)(C)C)OC(=O)CC\C=C/C\C=C/C\C=C/C\C=C/CCCCCC
RETENTIONTIME: 
CCS: -1
IONMODE: Negative
INSTRUMENTTYPE: LC-ESI-ITFT
INSTRUMENT: 
COLLISIONENERGY: 30
Comment: registered in MassBank
Num Peaks: 3
791.5	60
792.13	1000
804.32001	7

NAME: Phosphatidylcholine 18
PRECURSORMZ: 874.690644
PRECURSORTYPE: [M+CH3COO]-
FORMULA: C48H94NO8P
Ontology: Phosphatidylcholines
INCHIKEY: RNTSLIRAJXVPLB-ZSWXBHCYNA-N
SMILES: CCCCCCCCCCCCCCCCCCCCCC(=O)OC(COC(=O)CC\C=C/CCCCCCCCCCCCC)COP([O-])(=O)OCC[N+](C)(C)C
RETENTIONTIME: 
CCS: -1
IONMODE: Negative
INSTRUMENTTYPE: LC-ESI-ITFT
INSTRUMENT: 
COLLISIONENERGY: 30
Comment: registered in MassBank
Num Peaks: 6
339.26999	9
621.10999	12
814.81	11
820.09998	6
828.21002	1000
866.39001	11

NAME: Phosphatidylcholine 18
PRECURSORMZ: 862.596743
PRECURSORTYPE: [M+CH3COO]-
FORMULA: C48H82NO8P
Ontology: Phosphatidylcholines
INCHIKEY: SXQSZXLPXRGKHG-SUMKQPSKNA-N
SMILES: CCCCCCCCCCCCC\C=C/CCC(=O)OCC(COP([O-])(=O)OCC[N+](C)(C)C)OC(=O)CC\C=C/C\C=C/C\C=C/C\C=C/C\C=C/C\C=C/CC
RETENTIONTIME: 
CCS: -1
IONMODE: Negative
INSTRUMENTTYPE: LC-ESI-ITFT
INSTRUMENT: 
COLLISIONENERGY: 30
Comment: registered in MassBank
Num Peaks: 5
283.06	12
297.04001	9
586.84003	11
815.51001	152
816.17999	1000

NAME: Phosphatidylcholine 18
PRECURSORMZ: 902.721944
PRECURSORTYPE: [M+CH3COO]-
FORMULA: C50H98NO8P
Ontology: Phosphatidylcholines
INCHIKEY: LGOGTXKSCSWTOW-WASYMBJWNA-N
SMILES: CCCCCCCCCCCCCCCCCCCCCCCC(=O)OC(COC(=O)CC\C=C/CCCCCCCCCCCCC)COP([O-])(=O)OCC[N+](C)(C)C
RETENTIONTIME: 
CCS: -1
IONMODE: Negative
INSTRUMENTTYPE: LC-ESI-ITFT
INSTRUMENT: 
COLLISIONENERGY: 30
Comment: registered in MassBank
Num Peaks: 4
281.32999	9
552.91998	7
856.33002	1000
871.51001	13

NAME: Phosphatidylcholine 18
PRECURSORMZ: 812.581093
PRECURSORTYPE: [M+CH3COO]-
FORMULA: C44H80NO8P
Ontology: Phosphatidylcholines
INCHIKEY: OLFQKGHJXVWQBX-CTKUXNRFNA-N
SMILES: CCCCCCCCCC\C=C/C\C=C/CCC(=O)OCC(COP([O-])(=O)OCC[N+](C)(C)C)OC(=O)CC\C=C/C\C=C/CCCCCCCCCC
RETENTIONTIME: 
CCS: -1
IONMODE: Negative
INSTRUMENTTYPE: LC-ESI-ITFT
INSTRUMENT: 
COLLISIONENERGY: 30
Comment: registered in MassBank
Num Peaks: 3
377.25	39
765.45001	112
766.16998	1000

NAME: Phosphatidylcholine 20
PRECURSORMZ: 846.659344
PRECURSORTYPE: [M+CH3COO]-
FORMULA: C46H90NO8P
Ontology: Phosphatidylcholines
INCHIKEY: MIVBFINNAAGALQ-OAPYJULQNA-N
SMILES: CCCCCCCCCCCCCCCCCCCC(=O)OCC(COP([O-])(=O)OCC[N+](C)(C)C)OC(=O)CC\C=C/CCCCCCCCCCCCC
RETENTIONTIME: 
CCS: -1
IONMODE: Negative
INSTRUMENTTYPE: LC-ESI-ITFT
INSTRUMENT: 
COLLISIONENERGY: 30
Comment: registered in MassBank
Num Peaks: 6
670.96997	5
763.03003	28
798.14001	47
800.16998	1000
837.60999	21
838.35999	47

NAME: Phosphatidylcholine 20
PRECURSORMZ: 890.628043
PRECURSORTYPE: [M+CH3COO]-
FORMULA: C50H86NO8P
Ontology: Phosphatidylcholines
INCHIKEY: NDXZRODTPALTBU-HCJNTHTKNA-N
SMILES: CCCCCCCCCCCCCCC\C=C/CCC(=O)OCC(COP([O-])(=O)OCC[N+](C)(C)C)OC(=O)CC\C=C/C\C=C/C\C=C/C\C=C/C\C=C/C\C=C/CC
RETENTIONTIME: 
CCS: -1
IONMODE: Negative
INSTRUMENTTYPE: LC-ESI-ITFT
INSTRUMENT: 
COLLISIONENERGY: 30
Comment: registered in MassBank
Num Peaks: 5
741.76001	36
834.17999	73
844.03998	1000
861.37	23
887.28998	20

NAME: Phosphatidylcholine 22
PRECURSORMZ: 896.674994
PRECURSORTYPE: [M+CH3COO]-
FORMULA: C50H92NO8P
Ontology: Phosphatidylcholines
INCHIKEY: MVKGIDJBIAVJJM-XNZXZZGANA-N
SMILES: CCCCCCCCCCCCCCCCCCCCCC(=O)OCC(COP([O-])(=O)OCC[N+](C)(C)C)OC(=O)CC\C=C/C\C=C/C\C=C/C\C=C/CCCCCC
RETENTIONTIME: 
CCS: -1
IONMODE: Negative
INSTRUMENTTYPE: LC-ESI-ITFT
INSTRUMENT: 
COLLISIONENERGY: 30
Comment: registered in MassBank
Num Peaks: 8
431.81	43
444.48999	40
504.26999	43
792.91998	73
842.22998	240
850.12	1000
864.28998	10
888.22998	77

NAME: Phosphatidylcholine alkenyl 16
PRECURSORMZ: 748.586179
PRECURSORTYPE: [M+CH3COO]-
FORMULA: C40H80NO7P
Ontology: 1-(1Z-alkenyl),2-acyl-glycerophosphocholines
INCHIKEY: PEWXKAOBUSBJLD-LVYIWIAJNA-N
SMILES: CCCCCCCCCCCCCCCC(=O)OC(CO\C=C\CCCCCCCCCCCCCC)COP([O-])(=O)OCC[N+](C)(C)C
RETENTIONTIME: 
CCS: -1
IONMODE: Negative
INSTRUMENTTYPE: LC-ESI-ITFT
INSTRUMENT: 
COLLISIONENERGY: 30
Comment: registered in MassBank
Num Peaks: 27
229.03999	17
249.00999	13
255.03	9
283.06	499
284.04999	57
285.10001	109
286.04999	12
308.84	9
327.07001	778
328.13	169
329.10999	933
330.13	69
332.14999	6
403.35001	18
405.14001	8
406.09	9
435.98999	5
444.06	6
446.17999	64
447.16	24
448.16	99
449.32999	17
464.14999	481
466.14999	1000
467.25	133
687.90997	5
702.09003	789

NAME: Phosphatidylcholine alkenyl 16
PRECURSORMZ: 774.601829
PRECURSORTYPE: [M+CH3COO]-
FORMULA: C42H82NO7P
Ontology: 1-(1Z-alkenyl),2-acyl-glycerophosphocholines
INCHIKEY: BKVSUCOFPMXRFF-ZTIAWKCXNA-N
SMILES: CCCCCCCCCCCCCC\C=C\OCC(COP([O-])(=O)OCC[N+](C)(C)C)OC(=O)CC\C=C/CCCCCCCCCCCCC
RETENTIONTIME: 
CCS: -1
IONMODE: Negative
INSTRUMENTTYPE: LC-ESI-ITFT
INSTRUMENT: 
COLLISIONENERGY: 30
Comment: registered in MassBank
Num Peaks: 8
281.17999	10
307.25	7
464.07999	6
490.07001	6
662.75	15
722.46002	10
728.14001	1000
729.01001	13

NAME: Phosphatidylcholine alkenyl 16
PRECURSORMZ: 796.586179
PRECURSORTYPE: [M+CH3COO]-
FORMULA: C44H80NO7P
Ontology: 1-(1Z-alkenyl),2-acyl-glycerophosphocholines
INCHIKEY: WPFUZBNWEKXHJI-TUJGGYRWNA-N
SMILES: CCCCCCCCCCCCCC\C=C\OCC(COP([O-])(=O)OCC[N+](C)(C)C)OC(=O)CC\C=C/C\C=C/C\C=C/C\C=C/CCCCCC
RETENTIONTIME: 
CCS: -1
IONMODE: Negative
INSTRUMENTTYPE: LC-ESI-ITFT
INSTRUMENT: 
COLLISIONENERGY: 30
Comment: registered in MassBank
Num Peaks: 11
416.89999	12
498.91	6
505.34	8
559.77002	16
714.09998	7
742.09998	9
750.15002	1000
751.54999	15
761.31	16
763.66998	8
780.77002	25

NAME: Phosphatidylcholine alkenyl 18
PRECURSORMZ: 802.633129
PRECURSORTYPE: [M+CH3COO]-
FORMULA: C44H86NO7P
Ontology: 1-(1Z-alkenyl),2-acyl-glycerophosphocholines
INCHIKEY: NCPPDZAFHCBJRZ-JRNRGEASNA-N
SMILES: CCCCCCCCCCCCCCCC\C=C\OCC(COP([O-])(=O)OCC[N+](C)(C)C)OC(=O)CC\C=C/CCCCCCCCCCCCC
RETENTIONTIME: 
CCS: -1
IONMODE: Negative
INSTRUMENTTYPE: LC-ESI-ITFT
INSTRUMENT: 
COLLISIONENERGY: 30
Comment: registered in MassBank
Num Peaks: 12
692.47998	6
718.10999	63
718.98999	10
743.27002	21
747.56	8
756.15002	1000
757.33002	24
770.21002	9
779.15002	9
785.98999	7
787.01001	7
787.65002	21

NAME: Phosphatidylcholine alkyl 16
PRECURSORMZ: 750.601829
PRECURSORTYPE: [M+CH3COO]-
FORMULA: C40H82NO7P
Ontology: 1-alkyl,2-acylglycero-3-phosphocholines
INCHIKEY: WOTHHEHCEYHCFE-UHFFFAOYNA-N
SMILES: CCCCCCCCCCCCCCCCOCC(COP([O-])(=O)OCC[N+](C)(C)C)OC(=O)CCCCCCCCCCCCCCC
RETENTIONTIME: 
CCS: -1
IONMODE: Negative
INSTRUMENTTYPE: LC-ESI-ITFT
INSTRUMENT: 
COLLISIONENERGY: 30
Comment: registered in MassBank
Num Peaks: 14
255.00999	9
285.32001	12
286.14999	7
329.10001	37
330.06	30
333.20001	7
334.17999	6
358.98001	29
436.04001	5
464.25	8
465.35001	13
466.29001	7
704.13	1000
704.90997	9

NAME: Phosphatidylcholine alkyl 16
PRECURSORMZ: 776.617479
PRECURSORTYPE: [M+CH3COO]-
FORMULA: C42H84NO7P
Ontology: 1-alkyl,2-acylglycero-3-phosphocholines
INCHIKEY: KFLBTRVMABAQOU-YCNYHXFENA-N
SMILES: CCCCCCCCCCCCCCCCOCC(COP([O-])(=O)OCC[N+](C)(C)C)OC(=O)CC\C=C/CCCCCCCCCCCCC
RETENTIONTIME: 
CCS: -1
IONMODE: Negative
INSTRUMENTTYPE: LC-ESI-ITFT
INSTRUMENT: 
COLLISIONENERGY: 30
Comment: registered in MassBank
Num Peaks: 3
330.10999	6
730.20001	1000
745.15997	6

NAME: Phosphatidylcholine alkyl 16
PRECURSORMZ: 804.648779
PRECURSORTYPE: [M+CH3COO]-
FORMULA: C44H88NO7P
Ontology: 1-alkyl,2-acylglycero-3-phosphocholines
INCHIKEY: ZWYHSOBLODWFSU-FPODKLOTNA-N
SMILES: CCCCCCCCCCCCCCCCOCC(COP([O-])(=O)OCC[N+](C)(C)C)OC(=O)CC\C=C/CCCCCCCCCCCCCCC
RETENTIONTIME: 
CCS: -1
IONMODE: Negative
INSTRUMENTTYPE: LC-ESI-ITFT
INSTRUMENT: 
COLLISIONENERGY: 30
Comment: registered in MassBank
Num Peaks: 10
280.76999	11
383.39999	11
522.09998	36
656.51001	14
745.15997	35
757.10999	20
758.31	1000
772.59998	15
787.40997	20
790.20001	11

NAME: Phosphatidylcholine alkyl 16
PRECURSORMZ: 798.601829
PRECURSORTYPE: [M+CH3COO]-
FORMULA: C44H82NO7P
Ontology: 1-alkyl,2-acylglycero-3-phosphocholines
INCHIKEY: MHOAZZSMGQCHNX-GJWWTBRZNA-N
SMILES: CCCCCCCCCCCCCCCCOCC(COP([O-])(=O)OCC[N+](C)(C)C)OC(=O)CC\C=C/C\C=C/C\C=C/C\C=C/CCCCCC
RETENTIONTIME: 
CCS: -1
IONMODE: Negative
INSTRUMENTTYPE: LC-ESI-ITFT
INSTRUMENT: 
COLLISIONENERGY: 30
Comment: registered in MassBank
Num Peaks: 13
281.06	16
303.20001	16
418.35999	14
466.17999	15
474.98001	7
563.15002	14
721.77002	16
752.16998	1000
752.92999	25
753.59003	18
762.70001	7
768.23999	8
789.70001	23

NAME: Phosphatidylcholine alkyl 16
PRECURSORMZ: 802.633129
PRECURSORTYPE: [M+CH3COO]-
FORMULA: C44H86NO7P
Ontology: 1-alkyl,2-acylglycero-3-phosphocholines
INCHIKEY: DFWVDDDXFIDKMC-UOALMSBLNA-N
SMILES: CCCCCCCCCCCCCCC\C=C/CCC(=O)OC(COCCC\C=C/CCCCCCCCCCC)COP([O-])(=O)OCC[N+](C)(C)C
RETENTIONTIME: 
CCS: -1
IONMODE: Negative
INSTRUMENTTYPE: LC-ESI-ITFT
INSTRUMENT: 
COLLISIONENERGY: 30
Comment: registered in MassBank
Num Peaks: 13
280.98001	22
309.89999	15
337.70001	5
570.25	6
705.87	6
745.64001	9
753.95001	10
756.20001	1000
757.12	22
771.28998	38
773.64001	21
793.92999	10
795.59003	28

NAME: Phosphatidylcholine alkyl 18
PRECURSORMZ: 778.633129
PRECURSORTYPE: [M+CH3COO]-
FORMULA: C42H86NO7P
Ontology: 1-alkyl,2-acylglycero-3-phosphocholines
INCHIKEY: GTFLTTXDLGEBAI-UHFFFAOYNA-N
SMILES: CCCCCCCCCCCCCCCCCCOCC(COP([O-])(=O)OCC[N+](C)(C)C)OC(=O)CCCCCCCCCCCCCCC
RETENTIONTIME: 
CCS: -1
IONMODE: Negative
INSTRUMENTTYPE: LC-ESI-ITFT
INSTRUMENT: 
COLLISIONENERGY: 30
Comment: registered in MassBank
Num Peaks: 10
255.14	7
314.95999	6
329.07001	6
359.10001	740
360.13	127
446.16	23
464.23001	137
465.32001	33
731.56	47
732.16998	1000

NAME: Phosphatidylcholine alkyl 18
PRECURSORMZ: 804.648779
PRECURSORTYPE: [M+CH3COO]-
FORMULA: C44H88NO7P
Ontology: 1-alkyl,2-acylglycero-3-phosphocholines
INCHIKEY: NQZXFMSISYRTSE-FPODKLOTNA-N
SMILES: CCCCCCCCCCCCCCCCCCOCC(COP([O-])(=O)OCC[N+](C)(C)C)OC(=O)CC\C=C/CCCCCCCCCCCCC
RETENTIONTIME: 
CCS: -1
IONMODE: Negative
INSTRUMENTTYPE: LC-ESI-ITFT
INSTRUMENT: 
COLLISIONENERGY: 30
Comment: registered in MassBank
Num Peaks: 10
293.35001	35
359.28	37
394.29001	49
581.87	30
744.90002	69
745.89001	54
750.56	15
754.47998	12
758.23999	1000
797.31	57

NAME: Phosphatidylcholine alkyl 18
PRECURSORMZ: 776.617479
PRECURSORTYPE: [M+CH3COO]-
FORMULA: C42H84NO7P
Ontology: 1-alkyl,2-acylglycero-3-phosphocholines
INCHIKEY: ITFYCOXGRQISEW-HYOGKJQXNA-N
SMILES: CCCCCCCCCCCCCCCC(=O)OC(COCCC\C=C/CCCCCCCCCCCCC)COP([O-])(=O)OCC[N+](C)(C)C
RETENTIONTIME: 
CCS: -1
IONMODE: Negative
INSTRUMENTTYPE: LC-ESI-ITFT
INSTRUMENT: 
COLLISIONENERGY: 30
Comment: registered in MassBank
Num Peaks: 1
730.19	1000

NAME: Phosphatidylcholine alkyl 18
PRECURSORMZ: 774.601829
PRECURSORTYPE: [M+CH3COO]-
FORMULA: C42H82NO7P
Ontology: 1-alkyl,2-acylglycero-3-phosphocholines
INCHIKEY: UWMIPWPMIBUVJV-JSCMVKKRNA-N
SMILES: CCCCCCCCCCCCCCCC(=O)OC(COCCC\C=C/C\C=C/CCCCCCCCCC)COP([O-])(=O)OCC[N+](C)(C)C
RETENTIONTIME: 
CCS: -1
IONMODE: Negative
INSTRUMENTTYPE: LC-ESI-ITFT
INSTRUMENT: 
COLLISIONENERGY: 30
Comment: registered in MassBank
Num Peaks: 9
253.08	130
492.88	481
662.45001	93
701.21997	315
728.51001	1000
742.21997	630
744.89001	167
751.81	259
762.40002	130

NAME: Phosphatidylcholine lyso 14
PRECURSORMZ: 498.320128
PRECURSORTYPE: [M+CH3COO]-
FORMULA: C22H46NO7P
Ontology: 2-acyl-sn-glycero-3-phosphocholines
INCHIKEY: IGZPHNNYPPAPLA-UHFFFAOYNA-N
SMILES: CCCCCCCCCCCCCC(=O)OC(CO)COP([O-])(=O)OCC[N+](C)(C)C
RETENTIONTIME: 
CCS: -1
IONMODE: Negative
INSTRUMENTTYPE: LC-ESI-ITFT
INSTRUMENT: 
COLLISIONENERGY: 30
Comment: registered in MassBank
Num Peaks: 17
191.17	13
192.16	9
195.87	5
249.96001	6
283.20999	34
284.19	23
285.10001	49
300.94	5
302.89001	9
327.09	31
328.14001	71
329.09	216
330.26001	24
345.01999	7
452.04001	1000
466.12	13
467.14001	7

NAME: Phosphatidylcholine lyso 16
PRECURSORMZ: 526.351428
PRECURSORTYPE: [M+CH3COO]-
FORMULA: C24H50NO7P
Ontology: 2-acyl-sn-glycero-3-phosphocholines
INCHIKEY: NEGQHKSYEYVFTD-UHFFFAOYNA-N
SMILES: CCCCCCCCCCCCCCCC(=O)OC(CO)COP([O-])(=O)OCC[N+](C)(C)C
RETENTIONTIME: 
CCS: -1
IONMODE: Negative
INSTRUMENTTYPE: LC-ESI-ITFT
INSTRUMENT: 
COLLISIONENERGY: 30
Comment: registered in MassBank
Num Peaks: 1
480.03	1000

NAME: Phosphatidylcholine lyso 16
PRECURSORMZ: 524.335778
PRECURSORTYPE: [M+CH3COO]-
FORMULA: C24H48NO7P
Ontology: 2-acyl-sn-glycero-3-phosphocholines
INCHIKEY: GMEZONVWGDDWOJ-NXVVXOECNA-N
SMILES: CCCCCCCCCCC\C=C/CCC(=O)OC(CO)COP([O-])(=O)OCC[N+](C)(C)C
RETENTIONTIME: 
CCS: -1
IONMODE: Negative
INSTRUMENTTYPE: LC-ESI-ITFT
INSTRUMENT: 
COLLISIONENERGY: 30
Comment: registered in MassBank
Num Peaks: 11
255.22	6
313.09	18
453.73001	10
469.81	17
470.45001	10
477.98999	1000
478.67999	7
484.14001	13
491.84	21
497.88	22
528.15997	6

NAME: Phosphatidylcholine lyso 17
PRECURSORMZ: 540.367078
PRECURSORTYPE: [M+CH3COO]-
FORMULA: C25H52NO7P
Ontology: 2-acyl-sn-glycero-3-phosphocholines
INCHIKEY: ODFZXVWAVNPFPM-UHFFFAOYNA-N
SMILES: CCCCCCCCCCCCCCCCC(=O)OC(CO)COP([O-])(=O)OCC[N+](C)(C)C
RETENTIONTIME: 
CCS: -1
IONMODE: Negative
INSTRUMENTTYPE: LC-ESI-ITFT
INSTRUMENT: 
COLLISIONENERGY: 30
Comment: registered in MassBank
Num Peaks: 13
226.97	18
271.98001	14
362.01999	21
464.09	17
465.81	17
477.38	9
481.04001	99
494.17999	1000
508.60001	43
509.35001	26
524.81	14
528.07001	12
535.91998	18

NAME: Phosphatidylcholine lyso 18
PRECURSORMZ: 554.382728
PRECURSORTYPE: [M+CH3COO]-
FORMULA: C26H54NO7P
Ontology: 2-acyl-sn-glycero-3-phosphocholines
INCHIKEY: IQGPMZRCLCCXAG-UHFFFAOYNA-N
SMILES: CCCCCCCCCCCCCCCCCC(=O)OC(CO)COP([O-])(=O)OCC[N+](C)(C)C
RETENTIONTIME: 
CCS: -1
IONMODE: Negative
INSTRUMENTTYPE: LC-ESI-ITFT
INSTRUMENT: 
COLLISIONENERGY: 30
Comment: registered in MassBank
Num Peaks: 2
508.10001	1000
523.15997	6

NAME: Phosphatidylcholine lyso 18
PRECURSORMZ: 552.367078
PRECURSORTYPE: [M+CH3COO]-
FORMULA: C26H52NO7P
Ontology: 2-acyl-sn-glycero-3-phosphocholines
INCHIKEY: WZSWWJLIQCVBRG-ZCXUNETKNA-N
SMILES: CCCCCCCCCCCCC\C=C/CCC(=O)OC(CO)COP([O-])(=O)OCC[N+](C)(C)C
RETENTIONTIME: 
CCS: -1
IONMODE: Negative
INSTRUMENTTYPE: LC-ESI-ITFT
INSTRUMENT: 
COLLISIONENERGY: 30
Comment: registered in MassBank
Num Peaks: 3
281.16	11
505.97	1000
548.10999	6

NAME: Phosphatidylcholine lyso 18
PRECURSORMZ: 550.351428
PRECURSORTYPE: [M+CH3COO]-
FORMULA: C26H50NO7P
Ontology: 2-acyl-sn-glycero-3-phosphocholines
INCHIKEY: HQNGWMLDFPEZSR-NFYLBXPENA-N
SMILES: CCCCCCCCCC\C=C/C\C=C/CCC(=O)OC(CO)COP([O-])(=O)OCC[N+](C)(C)C
RETENTIONTIME: 
CCS: -1
IONMODE: Negative
INSTRUMENTTYPE: LC-ESI-ITFT
INSTRUMENT: 
COLLISIONENERGY: 30
Comment: registered in MassBank
Num Peaks: 9
279.34	38
281.44	19
316.26001	13
401.95999	6
439.10999	29
442.41	25
504.12	1000
519.33002	17
527.90002	98

NAME: Phosphatidylcholine lyso 20
PRECURSORMZ: 582.414028
PRECURSORTYPE: [M+CH3COO]-
FORMULA: C28H58NO7P
Ontology: 2-acyl-sn-glycero-3-phosphocholines
INCHIKEY: WQBSSUPHAAAVSW-UHFFFAOYNA-N
SMILES: CCCCCCCCCCCCCCCCCCCC(=O)OC(CO)COP([O-])(=O)OCC[N+](C)(C)C
RETENTIONTIME: 
CCS: -1
IONMODE: Negative
INSTRUMENTTYPE: LC-ESI-ITFT
INSTRUMENT: 
COLLISIONENERGY: 30
Comment: registered in MassBank
Num Peaks: 3
524.98999	129
536.14001	1000
583.56	39

NAME: Phosphatidylcholine lyso 20
PRECURSORMZ: 580.398378
PRECURSORTYPE: [M+CH3COO]-
FORMULA: C28H56NO7P
Ontology: 2-acyl-sn-glycero-3-phosphocholines
INCHIKEY: IDRKESNUEGURSD-VXPUYCOJNA-N
SMILES: CCCCCCCCCCCCCCC\C=C/CCC(=O)OC(CO)COP([O-])(=O)OCC[N+](C)(C)C
RETENTIONTIME: 
CCS: -1
IONMODE: Negative
INSTRUMENTTYPE: LC-ESI-ITFT
INSTRUMENT: 
COLLISIONENERGY: 30
Comment: registered in MassBank
Num Peaks: 17
214	9
255.09	12
282.97	5
309.17999	7
352.09	20
409.07001	7
419.26999	5
508.32999	13
515.09003	8
520.84998	31
522	20
525.69	12
534.10999	1000
549.01001	24
551.88	8
564.28998	33
576.33002	14

NAME: Phosphatidylcholine lyso 20
PRECURSORMZ: 574.351428
PRECURSORTYPE: [M+CH3COO]-
FORMULA: C28H50NO7P
Ontology: 2-acyl-sn-glycero-3-phosphocholines
INCHIKEY: XHKVQFBZSMLFNL-AILJCPQKNA-N
SMILES: CCCCCC\C=C/C\C=C/C\C=C/C\C=C/CCC(=O)OC(CO)COP([O-])(=O)OCC[N+](C)(C)C
RETENTIONTIME: 
CCS: -1
IONMODE: Negative
INSTRUMENTTYPE: LC-ESI-ITFT
INSTRUMENT: 
COLLISIONENERGY: 30
Comment: registered in MassBank
Num Peaks: 7
303.17999	12
504.04999	9
527.46997	70
528.09003	1000
541.63	9
542.90002	6
551.94	19

NAME: Phosphatidylcholine lyso 22
PRECURSORMZ: 598.351428
PRECURSORTYPE: [M+CH3COO]-
FORMULA: C30H50NO7P
Ontology: 2-acyl-sn-glycero-3-phosphocholines
INCHIKEY: FTLVGMFFHDRYDI-WSDBEMKQNA-N
SMILES: CC\C=C/C\C=C/C\C=C/C\C=C/C\C=C/C\C=C/CCC(=O)OC(CO)COP([O-])(=O)OCC[N+](C)(C)C
RETENTIONTIME: 
CCS: -1
IONMODE: Negative
INSTRUMENTTYPE: LC-ESI-ITFT
INSTRUMENT: 
COLLISIONENERGY: 30
Comment: registered in MassBank
Num Peaks: 7
327.26001	8
342.42001	7
484.66	7
551.96002	1000
552.65997	8
566.31	9
567.07001	6

NAME: Phosphatidylethanolamine 14
PRECURSORMZ: 734.476628
PRECURSORTYPE: [M-H]-
FORMULA: C41H70NO8P
Ontology: Phosphatidylethanolamines
INCHIKEY: XQLJDXRKMXWECX-PAHVTNPFNA-N
SMILES: CCCCCCCCCCCCCC(=O)OCC(COP(O)(=O)OCCN)OC(=O)CC\C=C/C\C=C/C\C=C/C\C=C/C\C=C/C\C=C/CC
RETENTIONTIME: 
CCS: 373.430702
IONMODE: Negative
INSTRUMENTTYPE: LC-ESI-ITFT
INSTRUMENT: 
COLLISIONENERGY: 30
Comment: registered in MassBank
Num Peaks: 11
227.19	475
228.48	100
283.07001	408
284.26001	117
327.16	1000
328.20001	133
424.01001	458
523.98999	142
528.53003	42
635.47998	142
660.06	100

NAME: Phosphatidylethanolamine 15
PRECURSORMZ: 748.492278
PRECURSORTYPE: [M-H]-
FORMULA: C42H72NO8P
Ontology: Phosphatidylethanolamines
INCHIKEY: WIJRNOBSWIZHST-JTURFRPLNA-N
SMILES: CCCCCCCCCCCCCCC(=O)OCC(COP(O)(=O)OCCN)OC(=O)CC\C=C/C\C=C/C\C=C/C\C=C/C\C=C/C\C=C/CC
RETENTIONTIME: 
CCS: 383.7427226
IONMODE: Negative
INSTRUMENTTYPE: LC-ESI-ITFT
INSTRUMENT: 
COLLISIONENERGY: 30
Comment: registered in MassBank
Num Peaks: 10
241.2	934
283.13	328
284.20999	82
327.28	1000
439.10999	262
542.58002	82
543.59003	82
680.08002	98
703.84003	180
716.32001	82

NAME: Phosphatidylethanolamine 16
PRECURSORMZ: 690.507928
PRECURSORTYPE: [M-H]-
FORMULA: C37H74NO8P
Ontology: Phosphatidylethanolamines
INCHIKEY: SLKDGVPOSSLUAI-UHFFFAOYNA-N
SMILES: CCCCCCCCCCCCCCCC(=O)OCC(COP(O)(=O)OCCN)OC(=O)CCCCCCCCCCCCCCC
RETENTIONTIME: 
CCS: 351.7346598
IONMODE: Negative
INSTRUMENTTYPE: LC-ESI-ITFT
INSTRUMENT: 
COLLISIONENERGY: 30
Comment: registered in MassBank
Num Peaks: 6
195.89999	9
255.09	1000
256.22	78
356.19	7
452.12	128
568.32001	9

NAME: Phosphatidylethanolamine 16
PRECURSORMZ: 688.492278
PRECURSORTYPE: [M-H]-
FORMULA: C37H72NO8P
Ontology: Phosphatidylethanolamines
INCHIKEY: NJQOUKFMDSLWNH-LCUIJRPUNA-N
SMILES: CCCCCCCCCCCCCCCC(=O)OCC(COP(O)(=O)OCCN)OC(=O)CC\C=C/CCCCCCCCCCC
RETENTIONTIME: 
CCS: -1
IONMODE: Negative
INSTRUMENTTYPE: LC-ESI-ITFT
INSTRUMENT: 
COLLISIONENERGY: 30
Comment: registered in MassBank
Num Peaks: 12
227.17	20
253.09	1000
255.00999	800
255.94	7
281.04001	131
432.17001	9
434.23001	21
450.12	82
452.14001	154
453.04001	10
578.82001	7
580.73999	8

NAME: Phosphatidylethanolamine 16
PRECURSORMZ: 716.523578
PRECURSORTYPE: [M-H]-
FORMULA: C39H76NO8P
Ontology: Phosphatidylethanolamines
INCHIKEY: RECBGBLFDMTQRS-SGEDCAFJNA-N
SMILES: CCCCCCCCCCCCCCCC(=O)OCC(COP(O)(=O)OCCN)OC(=O)CC\C=C/CCCCCCCCCCCCC
RETENTIONTIME: 
CCS: -1
IONMODE: Negative
INSTRUMENTTYPE: LC-ESI-ITFT
INSTRUMENT: 
COLLISIONENERGY: 30
Comment: registered in MassBank
Num Peaks: 9
255.03	405
255.85001	8
281.09	1000
282.03	18
434.12	8
452.13	104
460.17001	9
477.94	31
478.63	7

NAME: Phosphatidylethanolamine 16
PRECURSORMZ: 714.507928
PRECURSORTYPE: [M-H]-
FORMULA: C39H74NO8P
Ontology: Phosphatidylethanolamines
INCHIKEY: JXRDSKPCJNWQEG-BAOXYHDDNA-N
SMILES: CCCCCCCCCCCCCCCC(=O)OCC(COP(O)(=O)OCCN)OC(=O)CC\C=C/C\C=C/CCCCCCCCCC
RETENTIONTIME: 
CCS: -1
IONMODE: Negative
INSTRUMENTTYPE: LC-ESI-ITFT
INSTRUMENT: 
COLLISIONENERGY: 30
Comment: registered in MassBank
Num Peaks: 16
254.99001	711
256.17999	66
279.07999	1000
280.20999	169
307.10001	8
447.14001	80
448.10999	41
451.97	118
453.16	27
476.13	91
476.98001	30
477.79999	34
541.13	12
625.12	47
643.33002	115
644.34998	25

NAME: Phosphatidylethanolamine 16
PRECURSORMZ: 740.523578
PRECURSORTYPE: [M-H]-
FORMULA: C41H76NO8P
Ontology: Phosphatidylethanolamines
INCHIKEY: FOZMADPVSAYPHH-PNECARMWNA-N
SMILES: CCCCCCCCCCCCCCCC(=O)OCC(COP(O)(=O)OCCN)OC(=O)CC\C=C/C\C=C/C\C=C/CCCCCCCCC
RETENTIONTIME: 
CCS: -1
IONMODE: Negative
INSTRUMENTTYPE: LC-ESI-ITFT
INSTRUMENT: 
COLLISIONENERGY: 30
Comment: registered in MassBank
Num Peaks: 14
255.10001	300
256.16	18
279.12	27
281.26001	56
287.29001	6
303.14001	15
305.13	1000
306.17001	203
315.78	10
451.92999	121
453.14001	30
484.01001	16
501.97	27
502.91	5

NAME: Phosphatidylethanolamine 16
PRECURSORMZ: 738.507928
PRECURSORTYPE: [M-H]-
FORMULA: C41H74NO8P
Ontology: Phosphatidylethanolamines
INCHIKEY: ARFPLDYYIYCLNV-WRDNLCFKNA-N
SMILES: CCCCCCCCCCCCCCCC(=O)OCC(COP(O)(=O)OCCN)OC(=O)CC\C=C/C\C=C/C\C=C/C\C=C/CCCCCC
RETENTIONTIME: 
CCS: -1
IONMODE: Negative
INSTRUMENTTYPE: LC-ESI-ITFT
INSTRUMENT: 
COLLISIONENERGY: 30
Comment: registered in MassBank
Num Peaks: 10
255.08	372
256.23999	20
259.14001	100
303.04999	1000
304.17001	35
434.10999	19
452.07999	215
453.25	7
482.16	9
499.95999	16

NAME: Phosphatidylethanolamine 16
PRECURSORMZ: 736.492278
PRECURSORTYPE: [M-H]-
FORMULA: C41H72NO8P
Ontology: Phosphatidylethanolamines
INCHIKEY: QLFZCNOCZYRVAU-JPOVHVJANA-N
SMILES: CCCCCCCCCCCCCCCC(=O)OCC(COP(O)(=O)OCCN)OC(=O)CC\C=C/C\C=C/C\C=C/C\C=C/C\C=C/CCC
RETENTIONTIME: 
CCS: -1
IONMODE: Negative
INSTRUMENTTYPE: LC-ESI-ITFT
INSTRUMENT: 
COLLISIONENERGY: 30
Comment: registered in MassBank
Num Peaks: 15
255.10001	332
257.20001	109
258.14999	106
300.98999	1000
302.09	133
434.22	38
452.07001	304
453.22	19
552.09003	16
616.60999	16
633.82001	49
647.58002	8
653.71997	62
660.88	46
692.60999	22

NAME: Phosphatidylethanolamine 16
PRECURSORMZ: 766.539229
PRECURSORTYPE: [M-H]-
FORMULA: C43H78NO8P
Ontology: Phosphatidylethanolamines
INCHIKEY: WRJMLLZQXDAGES-ASOJYNRJNA-N
SMILES: CCCCCCCCCCCCCCCC(=O)OCC(COP(O)(=O)OCCN)OC(=O)CC\C=C/C\C=C/C\C=C/C\C=C/CCCCCCCC
RETENTIONTIME: 
CCS: -1
IONMODE: Negative
INSTRUMENTTYPE: LC-ESI-ITFT
INSTRUMENT: 
COLLISIONENERGY: 30
Comment: registered in MassBank
Num Peaks: 13
255.09	261
256.14001	23
281.07999	9
287.06	30
305.20001	23
331.14001	1000
332.20001	90
434.22	14
452.06	147
452.97	19
477.98001	7
510.13	11
528.03998	17

NAME: Phosphatidylethanolamine 16
PRECURSORMZ: 764.523578
PRECURSORTYPE: [M-H]-
FORMULA: C43H76NO8P
Ontology: Phosphatidylethanolamines
INCHIKEY: VFGMWCSZLGEBAJ-XONGEEKRNA-N
SMILES: CCCCCCCCCCCCCCCC(=O)OCC(COP(O)(=O)OCCN)OC(=O)CC\C=C/C\C=C/C\C=C/C\C=C/C\C=C/CCCCC
RETENTIONTIME: 
CCS: 366.3430627
IONMODE: Negative
INSTRUMENTTYPE: LC-ESI-ITFT
INSTRUMENT: 
COLLISIONENERGY: 30
Comment: registered in MassBank
Num Peaks: 22
231.03999	7
255.10001	273
256.17999	17
259.13	19
281.17001	99
282.13	7
283.19	5
285.13	67
303.06	269
304.13	19
327.10999	8
329.04001	758
330.22	71
434.13	7
436.01999	56
436.85001	10
452.13	132
453.26999	16
460.19	5
478.10001	64
526.07001	16
690.25	1000

NAME: Phosphatidylethanolamine 16
PRECURSORMZ: 762.507928
PRECURSORTYPE: [M-H]-
FORMULA: C43H74NO8P
Ontology: Phosphatidylethanolamines
INCHIKEY: MPWUZHVZZKSTPV-LGFBOSHVNA-N
SMILES: CCCCCCCCCCCCCCCC(=O)OCC(COP(O)(=O)OCCN)OC(=O)CC\C=C/C\C=C/C\C=C/C\C=C/C\C=C/C\C=C/CC
RETENTIONTIME: 
CCS: 364.4650752
IONMODE: Negative
INSTRUMENTTYPE: LC-ESI-ITFT
INSTRUMENT: 
COLLISIONENERGY: 30
Comment: registered in MassBank
Num Peaks: 15
229.08	30
249.05	32
255.07001	680
256.17001	54
283.12	628
284.12	42
309.13	7
327.04999	1000
328.04999	129
434.17999	25
452.06	515
453.20001	23
506.23999	16
524.04999	45
525.10999	9

NAME: Phosphatidylethanolamine 16
PRECURSORMZ: 774.507928
PRECURSORTYPE: [M-H]-
FORMULA: C44H74NO8P
Ontology: Phosphatidylethanolamines
INCHIKEY: YBNKGCKMYZMAHM-UUNLMLIBNA-N
SMILES: CCCCCCCCCCCCCCCC(=O)OCC(COP(O)(=O)OCCN)OC(=O)CC\C=C/C\C=C/C\C=C/C\C=C/C\C=C/C\C=C/CC=C
RETENTIONTIME: 
CCS: -1
IONMODE: Negative
INSTRUMENTTYPE: LC-ESI-ITFT
INSTRUMENT: 
COLLISIONENERGY: 30
Comment: registered in MassBank
Num Peaks: 18
246.8	111
255.02	659
256.03	56
281.01001	1000
303.04999	87
325.14999	333
326.17999	135
433.98001	190
452.10001	373
496.20001	56
521.85999	71
531.73999	79
572.84998	103
677.54999	222
678.46002	190
686.35999	127
700.38	198
701.28003	167

NAME: Phosphatidylethanolamine 16
PRECURSORMZ: 714.507928
PRECURSORTYPE: [M-H]-
FORMULA: C39H74NO8P
Ontology: Phosphatidylethanolamines
INCHIKEY: HGDJXBPLHZFXGO-LBXGSASVNA-N
SMILES: CCCCCCCCCCCCC\C=C/CCC(=O)OC(COC(=O)CC\C=C/CCCCCCCCCCC)COP(O)(=O)OCCN
RETENTIONTIME: 
CCS: -1
IONMODE: Negative
INSTRUMENTTYPE: LC-ESI-ITFT
INSTRUMENT: 
COLLISIONENERGY: 30
Comment: registered in MassBank
Num Peaks: 12
253.06	603
254.11	105
281.10999	1000
282.14999	99
300.57001	7
415.32999	10
450.03	196
451.10999	18
460.94	31
477.95001	50
478.63	15
654.78998	12

NAME: Phosphatidylethanolamine 16
PRECURSORMZ: 736.492278
PRECURSORTYPE: [M-H]-
FORMULA: C41H72NO8P
Ontology: Phosphatidylethanolamines
INCHIKEY: TUAWQIYXFSBSNQ-RQDZWXAXNA-N
SMILES: CCCCCCCCCCC\C=C/CCC(=O)OCC(COP(O)(=O)OCCN)OC(=O)CC\C=C/C\C=C/C\C=C/C\C=C/CCCCCC
RETENTIONTIME: 
CCS: -1
IONMODE: Negative
INSTRUMENTTYPE: LC-ESI-ITFT
INSTRUMENT: 
COLLISIONENERGY: 30
Comment: registered in MassBank
Num Peaks: 12
253.03	541
254.25999	40
259.23001	138
281.32999	33
303.04999	1000
304.10001	180
325.06	28
450.10001	145
451.19	65
500.19	48
662.15997	88
717.90997	13

NAME: Phosphatidylethanolamine 16
PRECURSORMZ: 760.492278
PRECURSORTYPE: [M-H]-
FORMULA: C43H72NO8P
Ontology: Phosphatidylethanolamines
INCHIKEY: ZJBSZOUPRJVSRB-SIEWZCRLNA-N
SMILES: CCCCCCCCCCC\C=C/CCC(=O)OCC(COP(O)(=O)OCCN)OC(=O)CC\C=C/C\C=C/C\C=C/C\C=C/C\C=C/C\C=C/CC
RETENTIONTIME: 
CCS: -1
IONMODE: Negative
INSTRUMENTTYPE: LC-ESI-ITFT
INSTRUMENT: 
COLLISIONENERGY: 30
Comment: registered in MassBank
Num Peaks: 13
253.14999	886
254.34	167
283.20001	492
283.88	136
326.62	189
327.25	1000
435.17999	106
449.69	91
450.41	144
451.45001	45
496.66	129
524.16998	189
583.52002	159

NAME: Phosphatidylethanolamine 17
PRECURSORMZ: 730.539229
PRECURSORTYPE: [M-H]-
FORMULA: C40H78NO8P
Ontology: Phosphatidylethanolamines
INCHIKEY: OCGMRPHRWYLSEA-OHYPFYFLNA-N
SMILES: CCCCCCCCCCCCCCCCC(=O)OCC(COP(O)(=O)OCCN)OC(=O)CC\C=C/CCCCCCCCCCCCC
RETENTIONTIME: 
CCS: -1
IONMODE: Negative
INSTRUMENTTYPE: LC-ESI-ITFT
INSTRUMENT: 
COLLISIONENERGY: 30
Comment: registered in MassBank
Num Peaks: 17
255.09	16
269.09	282
269.95999	16
281.10999	1000
282.10999	279
283.17999	85
295.14999	13
309.41	14
319.87	7
446.07999	7
447.17999	22
464.07001	8
465.20001	28
466.22	113
580.83002	6
686.84998	21
710.56	9

NAME: Phosphatidylethanolamine 17
PRECURSORMZ: 752.523578
PRECURSORTYPE: [M-H]-
FORMULA: C42H76NO8P
Ontology: Phosphatidylethanolamines
INCHIKEY: LUNHOOJLWJQRDB-VTJLAKARNA-N
SMILES: CCCCCCCCCCCCCCCCC(=O)OCC(COP(O)(=O)OCCN)OC(=O)CC\C=C/C\C=C/C\C=C/C\C=C/CCCCCC
RETENTIONTIME: 
CCS: -1
IONMODE: Negative
INSTRUMENTTYPE: LC-ESI-ITFT
INSTRUMENT: 
COLLISIONENERGY: 30
Comment: registered in MassBank
Num Peaks: 16
258.94	26
269.06	327
270.26999	6
303.09	1000
304.19	206
304.85999	18
329.35001	22
331.26001	6
448.20999	8
465.39999	38
466.10999	100
467.14001	53
500.76999	6
598.40002	31
677.70001	10
720.40997	6

NAME: Phosphatidylethanolamine 17
PRECURSORMZ: 776.523578
PRECURSORTYPE: [M-H]-
FORMULA: C44H76NO8P
Ontology: Phosphatidylethanolamines
INCHIKEY: WVGREBRFGJNLSB-KAFSZNKPNA-N
SMILES: CCCCCCCCCCCCCCCCC(=O)OCC(COP(O)(=O)OCCN)OC(=O)CC\C=C/C\C=C/C\C=C/C\C=C/C\C=C/C\C=C/CC
RETENTIONTIME: 
CCS: -1
IONMODE: Negative
INSTRUMENTTYPE: LC-ESI-ITFT
INSTRUMENT: 
COLLISIONENERGY: 30
Comment: registered in MassBank
Num Peaks: 29
229.37	15
248.98	9
269.10001	610
269.94	86
282.48999	39
283.13	379
284.23001	244
309.41	13
327.01999	1000
328.10999	437
329.17001	21
331.01001	60
332.14999	92
333.23999	13
382.66	13
404.01999	9
444.20999	17
448.45001	11
461.22	34
463.41	26
464.25	206
465.25	388
466.20999	606
467.07001	135
513.39001	15
524.13	68
539.81	19
597.37	15
695.34003	13

NAME: Phosphatidylethanolamine 17
PRECURSORMZ: 750.507928
PRECURSORTYPE: [M-H]-
FORMULA: C42H74NO8P
Ontology: Phosphatidylethanolamines
INCHIKEY: BTWJFQUCIMQURY-RQZMTRGUNA-N
SMILES: CCCCCCCCCCCC\C=C/CCC(=O)OCC(COP(O)(=O)OCCN)OC(=O)CC\C=C/C\C=C/C\C=C/C\C=C/CCCCCC
RETENTIONTIME: 
CCS: -1
IONMODE: Negative
INSTRUMENTTYPE: LC-ESI-ITFT
INSTRUMENT: 
COLLISIONENERGY: 30
Comment: registered in MassBank
Num Peaks: 12
259.31	123
267.13	648
303.06	1000
304.17001	93
396.95001	86
494.14999	93
642.97998	49
668.25	93
690.46997	43
693.12	74
705.77002	62
751	37

NAME: Phosphatidylethanolamine 18
PRECURSORMZ: 718.539229
PRECURSORTYPE: [M-H]-
FORMULA: C39H78NO8P
Ontology: Phosphatidylethanolamines
INCHIKEY: JRTZGTYHEHCHTM-UHFFFAOYNA-N
SMILES: CCCCCCCCCCCCCCCCCC(=O)OCC(COP(O)(=O)OCCN)OC(=O)CCCCCCCCCCCCCCC
RETENTIONTIME: 
CCS: 342.469734
IONMODE: Negative
INSTRUMENTTYPE: LC-ESI-ITFT
INSTRUMENT: 
COLLISIONENERGY: 30
Comment: registered in MassBank
Num Peaks: 20
255.07001	1000
256.09	193
281.19	20
281.81	25
283.16	605
284.06	39
297.37	39
393.09	5
423.53	7
434.32001	25
452.04001	9
461.79001	18
480.07001	121
481.31	21
549.89001	11
554.67999	11
625.78003	21
635.52002	124
687.96002	46
701.20001	14

NAME: Phosphatidylethanolamine 18
PRECURSORMZ: 744.554879
PRECURSORTYPE: [M-H]-
FORMULA: C41H80NO8P
Ontology: Phosphatidylethanolamines
INCHIKEY: YNUVHPZRNQDFHS-HYOGKJQXNA-N
SMILES: CCCCCCCCCCCCCCCCCC(=O)OCC(COP(O)(=O)OCCN)OC(=O)CC\C=C/CCCCCCCCCCCCC
RETENTIONTIME: 
CCS: -1
IONMODE: Negative
INSTRUMENTTYPE: LC-ESI-ITFT
INSTRUMENT: 
COLLISIONENERGY: 30
Comment: registered in MassBank
Num Peaks: 13
255.14999	6
281.06	1000
282.06	143
283.14001	405
284.10999	37
309.09	47
459.89999	18
462.01001	18
478.23001	9
480.07999	117
481.14001	13
680.65002	23
723.71997	5

NAME: Phosphatidylethanolamine 18
PRECURSORMZ: 742.539229
PRECURSORTYPE: [M-H]-
FORMULA: C41H78NO8P
Ontology: Phosphatidylethanolamines
INCHIKEY: CJVLBVKIFVTUPS-JSCMVKKRNA-N
SMILES: CCCCCCCCCCCCCCCCCC(=O)OCC(COP(O)(=O)OCCN)OC(=O)CC\C=C/C\C=C/CCCCCCCCCC
RETENTIONTIME: 
CCS: -1
IONMODE: Negative
INSTRUMENTTYPE: LC-ESI-ITFT
INSTRUMENT: 
COLLISIONENERGY: 30
Comment: registered in MassBank
Num Peaks: 15
255.06	38
279.03	1000
280.06	174
281.17001	180
283.16	447
283.95001	45
307.35999	47
452.87	9
458.07001	26
461.04001	10
462.25	15
476.01999	44
479.10999	9
479.92999	119
481.39999	10

NAME: Phosphatidylethanolamine 18
PRECURSORMZ: 770.570529
PRECURSORTYPE: [M-H]-
FORMULA: C43H82NO8P
Ontology: Phosphatidylethanolamines
INCHIKEY: BDTZWAMVDWXHLM-QIPJBBGZNA-N
SMILES: CCCCCCCCCCCCCCCCCC(=O)OCC(COP(O)(=O)OCCN)OC(=O)CC\C=C/C\C=C/CCCCCCCCCCCC
RETENTIONTIME: 
CCS: -1
IONMODE: Negative
INSTRUMENTTYPE: LC-ESI-ITFT
INSTRUMENT: 
COLLISIONENERGY: 30
Comment: registered in MassBank
Num Peaks: 12
256.23001	5
261.10001	7
283.10001	261
284.35001	36
293.88	13
307.20999	1000
308.28	72
309.19	29
480.10999	127
486.26999	42
504.01999	24
564.21997	11

NAME: Phosphatidylethanolamine 18
PRECURSORMZ: 768.554879
PRECURSORTYPE: [M-H]-
FORMULA: C43H80NO8P
Ontology: Phosphatidylethanolamines
INCHIKEY: BDESLISUEJTDHD-JCXYTCFZNA-N
SMILES: CCCCCCCCCCCCCCCCCC(=O)OCC(COP(O)(=O)OCCN)OC(=O)CC\C=C/C\C=C/C\C=C/CCCCCCCCC
RETENTIONTIME: 
CCS: -1
IONMODE: Negative
INSTRUMENTTYPE: LC-ESI-ITFT
INSTRUMENT: 
COLLISIONENERGY: 30
Comment: registered in MassBank
Num Peaks: 20
260	6
261.20001	6
283.23001	423
284.29999	40
303.16	11
305.10999	1000
306.14001	202
307.20999	21
332.95999	13
334.22	8
442.38	10
462.14999	8
480.14001	218
481.10999	18
484.28	6
501.92999	22
681.34998	15
700.19	12
701.34003	23
718.37	6

NAME: Phosphatidylethanolamine 18
PRECURSORMZ: 766.539229
PRECURSORTYPE: [M-H]-
FORMULA: C43H78NO8P
Ontology: Phosphatidylethanolamines
INCHIKEY: VUDFSDNQOHMQTE-NQWSYULSNA-N
SMILES: CCCCCCCCCCCCCCCCCC(=O)OCC(COP(O)(=O)OCCN)OC(=O)CC\C=C/C\C=C/C\C=C/C\C=C/CCCCCC
RETENTIONTIME: 
CCS: -1
IONMODE: Negative
INSTRUMENTTYPE: LC-ESI-ITFT
INSTRUMENT: 
COLLISIONENERGY: 30
Comment: registered in MassBank
Num Peaks: 11
259.13	88
260.23999	10
283.10999	503
284.14999	28
303.06	1000
304.07999	75
462.17001	15
480.07999	283
480.95999	27
482.14001	11
500.20001	15

NAME: Phosphatidylethanolamine 18
PRECURSORMZ: 800.617479
PRECURSORTYPE: [M-H]-
FORMULA: C45H88NO8P
Ontology: Phosphatidylethanolamines
INCHIKEY: HHIOTAKOFGPHDM-YJKCNMNRNA-N
SMILES: CCCCCCCCCCCCCCCCC\C=C/CCC(=O)OC(COC(=O)CCCCCCCCCCCCCCCCC)COP(O)(=O)OCCN
RETENTIONTIME: 
CCS: -1
IONMODE: Negative
INSTRUMENTTYPE: LC-ESI-ITFT
INSTRUMENT: 
COLLISIONENERGY: 30
Comment: registered in MassBank
Num Peaks: 27
283.19	142
284.01999	16
284.73999	14
309.12	110
311.17999	40
337.19	1000
338.23999	141
365.17999	24
480.06	62
481.03	24
507.89999	13
533.76001	8
534.83002	17
620.06	8
620.72998	29
635.73999	11
636.37	6
707.28003	8
714.44	9
717.25	13
717.87	10
718.65997	18
739.88	22
746.84003	13
756.84003	5
781.40997	10
784.70001	12

NAME: Phosphatidylethanolamine 18
PRECURSORMZ: 796.586179
PRECURSORTYPE: [M-H]-
FORMULA: C45H84NO8P
Ontology: Phosphatidylethanolamines
INCHIKEY: SUKSMPBISVBNOS-SDJUKWJGNA-N
SMILES: CCCCCCCCCCCCCCCCCC(=O)OCC(COP(O)(=O)OCCN)OC(=O)CC\C=C/C\C=C/C\C=C/CCCCCCCCCCC
RETENTIONTIME: 
CCS: -1
IONMODE: Negative
INSTRUMENTTYPE: LC-ESI-ITFT
INSTRUMENT: 
COLLISIONENERGY: 30
Comment: registered in MassBank
Num Peaks: 22
233.28	9
266.32001	28
279.98001	10
283.14999	298
315.09	27
329.56	19
330.67001	15
332.12	15
333.22	1000
334.35001	85
355.32999	7
462.07001	33
479.97	89
481.23001	16
530.06	19
709.12	51
728.25	51
729.19	22
731.28998	21
735.46997	40
746.5	16
780.12	24

NAME: Phosphatidylethanolamine 18
PRECURSORMZ: 794.570529
PRECURSORTYPE: [M-H]-
FORMULA: C45H82NO8P
Ontology: Phosphatidylethanolamines
INCHIKEY: QDYAMUDPRJZWQB-BPSDUUPONA-N
SMILES: CCCCCCCCCCCCCCCCCC(=O)OCC(COP(O)(=O)OCCN)OC(=O)CC\C=C/C\C=C/C\C=C/C\C=C/CCCCCCCC
RETENTIONTIME: 
CCS: -1
IONMODE: Negative
INSTRUMENTTYPE: LC-ESI-ITFT
INSTRUMENT: 
COLLISIONENERGY: 30
Comment: registered in MassBank
Num Peaks: 20
283.14001	397
284.04999	73
287.17001	41
288.35001	13
313.20001	10
331.06	1000
332.17999	204
462.04999	18
480.13	220
481.10999	25
510.54001	10
528.38	9
529.21002	11
708.25	6
711.54999	5
718.59003	7
719.37	11
720.44	19
730.67999	66
733.95001	9

NAME: Phosphatidylethanolamine 18
PRECURSORMZ: 790.539229
PRECURSORTYPE: [M-H]-
FORMULA: C45H78NO8P
Ontology: Phosphatidylethanolamines
INCHIKEY: XYYHNDVKALDFHQ-HSBBONCLNA-N
SMILES: CCCCCCCCCCCCCCCCCC(=O)OCC(COP(O)(=O)OCCN)OC(=O)CC\C=C/C\C=C/C\C=C/C\C=C/C\C=C/C\C=C/CC
RETENTIONTIME: 
CCS: 396.325474
IONMODE: Negative
INSTRUMENTTYPE: LC-ESI-ITFT
INSTRUMENT: 
COLLISIONENERGY: 30
Comment: registered in MassBank
Num Peaks: 10
229.03	9
283.16	1000
284.14999	72
327	717
328.14001	92
462.07999	15
480.10999	397
481.17999	36
505.84	16
524.07001	17

NAME: Phosphatidylethanolamine 18
PRECURSORMZ: 742.539229
PRECURSORTYPE: [M-H]-
FORMULA: C41H78NO8P
Ontology: Phosphatidylethanolamines
INCHIKEY: BQGWAMJRMWMSMT-ZUELCTOONA-N
SMILES: CCCCCCCCCCCCC\C=C/CCC(=O)OCC(COP(O)(=O)OCCN)OC(=O)CC\C=C/CCCCCCCCCCCCC
RETENTIONTIME: 
CCS: -1
IONMODE: Negative
INSTRUMENTTYPE: LC-ESI-ITFT
INSTRUMENT: 
COLLISIONENERGY: 30
Comment: registered in MassBank
Num Peaks: 5
281.03	1000
282.10001	80
460.10001	12
478.04999	96
479.06	6

NAME: Phosphatidylethanolamine 18
PRECURSORMZ: 770.570529
PRECURSORTYPE: [M-H]-
FORMULA: C43H82NO8P
Ontology: Phosphatidylethanolamines
INCHIKEY: UVYKYAJJWJKGHK-SZDCHMHBNA-N
SMILES: CCCCCCCCCCCCCCC\C=C/CCC(=O)OC(COC(=O)CC\C=C/CCCCCCCCCCCCC)COP(O)(=O)OCCN
RETENTIONTIME: 
CCS: -1
IONMODE: Negative
INSTRUMENTTYPE: LC-ESI-ITFT
INSTRUMENT: 
COLLISIONENERGY: 30
Comment: registered in MassBank
Num Peaks: 13
260.95001	6
281.07999	315
282.23001	67
309.17001	1000
310.20999	187
323.23001	7
460.29999	8
478.13	94
479.17001	27
488.14999	36
506.07999	12
683.02002	18
690.76001	7

NAME: Phosphatidylethanolamine 18
PRECURSORMZ: 764.523578
PRECURSORTYPE: [M-H]-
FORMULA: C43H76NO8P
Ontology: Phosphatidylethanolamines
INCHIKEY: QBVUKWXEFSHJOQ-MOYSMJPMNA-N
SMILES: CCCCCCCCCCCCC\C=C/CCC(=O)OCC(COP(O)(=O)OCCN)OC(=O)CC\C=C/C\C=C/C\C=C/C\C=C/CCCCCC
RETENTIONTIME: 
CCS: -1
IONMODE: Negative
INSTRUMENTTYPE: LC-ESI-ITFT
INSTRUMENT: 
COLLISIONENERGY: 30
Comment: registered in MassBank
Num Peaks: 12
259.14001	70
260.17999	5
281.14999	498
282.19	32
303.07001	1000
304.17999	46
328.48001	6
460.20999	9
478.04001	278
478.97	17
482.16	7
499.95001	20

NAME: Phosphatidylethanolamine 18
PRECURSORMZ: 762.507928
PRECURSORTYPE: [M-H]-
FORMULA: C43H74NO8P
Ontology: Phosphatidylethanolamines
INCHIKEY: MQYQFMSHGWBKBV-XKMJRSRDNA-N
SMILES: CCCCCCCCCCCCC\C=C/CCC(=O)OCC(COP(O)(=O)OCCN)OC(=O)CC\C=C/C\C=C/C\C=C/C\C=C/C\C=C/CCC
RETENTIONTIME: 
CCS: -1
IONMODE: Negative
INSTRUMENTTYPE: LC-ESI-ITFT
INSTRUMENT: 
COLLISIONENERGY: 30
Comment: registered in MassBank
Num Peaks: 20
256.03	36
257.10001	155
279.10999	155
280.51001	101
281.26999	633
282.26001	36
300.98999	1000
302.03	108
303.17001	40
363.67001	14
398.95999	25
476.09	129
478.09	255
479.34	25
498.20001	68
515.70001	22
585.59998	18
678.90997	50
687.65002	47
688.27002	32

NAME: Phosphatidylethanolamine 18
PRECURSORMZ: 788.523578
PRECURSORTYPE: [M-H]-
FORMULA: C45H76NO8P
Ontology: Phosphatidylethanolamines
INCHIKEY: VPTWUJPVIKSANV-QRPORDCINA-N
SMILES: CCCCCCCCCCCCC\C=C/CCC(=O)OCC(COP(O)(=O)OCCN)OC(=O)CC\C=C/C\C=C/C\C=C/C\C=C/C\C=C/C\C=C/CC
RETENTIONTIME: 
CCS: -1
IONMODE: Negative
INSTRUMENTTYPE: LC-ESI-ITFT
INSTRUMENT: 
COLLISIONENERGY: 30
Comment: registered in MassBank
Num Peaks: 15
228.85001	17
249.14999	12
281.09	765
282.5	140
283.17999	443
284.23999	49
308.95999	6
327.01001	1000
328.06	57
460.06	30
478.01999	505
479.20001	25
506.04999	12
523.94	44
714.26001	8

NAME: Phosphatidylethanolamine 18
PRECURSORMZ: 738.507928
PRECURSORTYPE: [M-H]-
FORMULA: C41H74NO8P
Ontology: Phosphatidylethanolamines
INCHIKEY: WDBJINMJHHHMJV-WRGXGLASNA-N
SMILES: CCCCCCCCCC\C=C/C\C=C/CCC(=O)OCC(COP(O)(=O)OCCN)OC(=O)CC\C=C/C\C=C/CCCCCCCCCC
RETENTIONTIME: 
CCS: -1
IONMODE: Negative
INSTRUMENTTYPE: LC-ESI-ITFT
INSTRUMENT: 
COLLISIONENERGY: 30
Comment: registered in MassBank
Num Peaks: 11
255.46001	53
279.19	1000
280.10999	246
305.25	44
416.20001	37
458.29001	12
475.98001	199
532.41998	62
630.71002	34
675.10999	16
718.26001	31

NAME: Phosphatidylethanolamine 18
PRECURSORMZ: 762.507928
PRECURSORTYPE: [M-H]-
FORMULA: C43H74NO8P
Ontology: Phosphatidylethanolamines
INCHIKEY: VTQZPEHDNCIYJA-IPVVXUKZNA-N
SMILES: CCCCCCCCCC\C=C/C\C=C/CCC(=O)OCC(COP(O)(=O)OCCN)OC(=O)CC\C=C/C\C=C/C\C=C/C\C=C/CCCCCC
RETENTIONTIME: 
CCS: -1
IONMODE: Negative
INSTRUMENTTYPE: LC-ESI-ITFT
INSTRUMENT: 
COLLISIONENERGY: 30
Comment: registered in MassBank
Num Peaks: 18
258.81	21
260.10001	28
279.14001	206
280.17001	72
303.09	1000
304.14001	89
420.92999	25
458.20001	6
476.01001	232
477.06	21
500.32999	13
525.48999	11
652.26001	28
679.34003	15
688.15997	21
688.85999	11
717.88	34
743.31	8

NAME: Phosphatidylethanolamine 18
PRECURSORMZ: 786.507928
PRECURSORTYPE: [M-H]-
FORMULA: C45H74NO8P
Ontology: Phosphatidylethanolamines
INCHIKEY: UWCJYOTVTHYMRF-XPMHQQHXNA-N
SMILES: CCCCCCCCCC\C=C/C\C=C/CCC(=O)OCC(COP(O)(=O)OCCN)OC(=O)CC\C=C/C\C=C/C\C=C/C\C=C/C\C=C/C\C=C/CC
RETENTIONTIME: 
CCS: -1
IONMODE: Negative
INSTRUMENTTYPE: LC-ESI-ITFT
INSTRUMENT: 
COLLISIONENERGY: 30
Comment: registered in MassBank
Num Peaks: 25
229.05	57
249.2	49
259.10001	106
279.04999	728
280.19	245
283.01001	536
284.03	91
303.04001	675
304.16	117
327.10001	1000
328.19	223
422.78	19
462.31	64
476	577
476.95999	83
500.03	23
501.04001	30
502.34	23
524.20001	174
580.71997	11
609.28998	23
687.73999	60
700.14001	19
703.08002	49
726.38	60

NAME: Phosphatidylethanolamine 19
PRECURSORMZ: 804.554879
PRECURSORTYPE: [M-H]-
FORMULA: C46H80NO8P
Ontology: Phosphatidylethanolamines
INCHIKEY: PITVJCPCBXGCHJ-MXQGKLILNA-N
SMILES: CCCCCCCCCCCCCCCCCCC(=O)OCC(COP(O)(=O)OCCN)OC(=O)CC\C=C/C\C=C/C\C=C/C\C=C/C\C=C/C\C=C/CC
RETENTIONTIME: 
CCS: -1
IONMODE: Negative
INSTRUMENTTYPE: LC-ESI-ITFT
INSTRUMENT: 
COLLISIONENERGY: 30
Comment: registered in MassBank
Num Peaks: 19
283.01001	326
283.76001	66
297.20001	1000
298.32001	117
304.13	90
327.06	404
328.22	153
357.45999	150
358.41	42
464.03	36
476.14999	33
494.31	470
523.67999	18
543.71997	30
725.15997	48
728.83002	120
730.08002	766
730.78998	51
768.15997	36

NAME: Phosphatidylethanolamine 19
PRECURSORMZ: 802.539229
PRECURSORTYPE: [M-H]-
FORMULA: C46H78NO8P
Ontology: Phosphatidylethanolamines
INCHIKEY: ALIRENPDFGUYQE-NSLGBSSLNA-N
SMILES: CCCCCCCCCCCCCC\C=C/CCC(=O)OCC(COP(O)(=O)OCCN)OC(=O)CC\C=C/C\C=C/C\C=C/C\C=C/C\C=C/C\C=C/CC
RETENTIONTIME: 
CCS: -1
IONMODE: Negative
INSTRUMENTTYPE: LC-ESI-ITFT
INSTRUMENT: 
COLLISIONENERGY: 30
Comment: registered in MassBank
Num Peaks: 32
229.31	23
257.09	7
280.98999	69
283.01001	406
284.25	12
295.23999	853
296.22	45
309.26001	31
310.14999	24
325.47	10
326.35999	21
327.07001	607
328.04001	29
355.19	16
474.19	21
475.12	5
492.01001	603
493.14999	62
505.17001	19
506.10001	33
507.07001	17
524.06	49
670.96002	10
728.45001	17
742.04999	1000
742.73999	24
749.35999	19
758	61
759.12	9
765.58002	23
783.76001	28
784.97998	26

NAME: Phosphatidylethanolamine 20
PRECURSORMZ: 812.523578
PRECURSORTYPE: [M-H]-
FORMULA: C47H76NO8P
Ontology: Phosphatidylethanolamines
INCHIKEY: LMXHYIDPXWFEQI-GKYWKYGONA-N
SMILES: CCCCCCCCC\C=C/C\C=C/C\C=C/CCC(=O)OCC(COP(O)(=O)OCCN)OC(=O)CC\C=C/C\C=C/C\C=C/C\C=C/C\C=C/C\C=C/CC
RETENTIONTIME: 
CCS: -1
IONMODE: Negative
INSTRUMENTTYPE: LC-ESI-ITFT
INSTRUMENT: 
COLLISIONENERGY: 30
Comment: registered in MassBank
Num Peaks: 16
249.19	43
283.17999	235
283.95001	105
305.22	920
306.03	105
327.17999	1000
328.23001	25
502.14999	673
506.07999	43
524.15997	43
604.69	74
729.46997	43
730.07001	49
751.48999	117
775.79999	142
792.90997	86

NAME: Phosphatidylethanolamine 20
PRECURSORMZ: 810.507928
PRECURSORTYPE: [M-H]-
FORMULA: C47H74NO8P
Ontology: Phosphatidylethanolamines
INCHIKEY: QYRBWBWQALDZGP-YARNEYDXNA-N
SMILES: CCCCCC\C=C/C\C=C/C\C=C/C\C=C/CCC(=O)OCC(COP(O)(=O)OCCN)OC(=O)CC\C=C/C\C=C/C\C=C/C\C=C/C\C=C/C\C=C/CC
RETENTIONTIME: 
CCS: -1
IONMODE: Negative
INSTRUMENTTYPE: LC-ESI-ITFT
INSTRUMENT: 
COLLISIONENERGY: 30
Comment: registered in MassBank
Num Peaks: 22
249.28999	17
259.01001	36
281.35001	12
283.04001	471
284.42999	112
303.07999	1000
304.20001	36
327.10999	862
328.09	119
331.10999	22
469.01999	36
482.06	175
500.07001	522
501.14999	119
524.06	136
525.08002	61
758.03998	44
759.73999	44
760.37	63
766.79999	36
777.73999	29
790.14001	10

NAME: Phosphatidylethanolamine 22
PRECURSORMZ: 800.617479
PRECURSORTYPE: [M-H]-
FORMULA: C45H88NO8P
Ontology: Phosphatidylethanolamines
INCHIKEY: FCSKFRCOAHKOKI-YJKCNMNRNA-N
SMILES: CCCCCCCCCCCCCCCCCCCCCC(=O)OCC(COP(O)(=O)OCCN)OC(=O)CC\C=C/CCCCCCCCCCCCC
RETENTIONTIME: 
CCS: -1
IONMODE: Negative
INSTRUMENTTYPE: LC-ESI-ITFT
INSTRUMENT: 
COLLISIONENERGY: 30
Comment: registered in MassBank
Num Peaks: 24
281.16	1000
282.19	132
283.28	5
337.29001	17
339.28	546
340.29001	140
403.45999	7
418.53	5
459.82999	11
477.98001	12
480.45001	6
518.08002	14
531.21997	19
536.19	244
620.28003	5
657.40997	11
682.84003	33
710.16998	33
713.19	26
716	29
717.21997	30
718.21997	10
732.10999	21
765.28998	21

NAME: Phosphatidylethanolamine 22
PRECURSORMZ: 814.539229
PRECURSORTYPE: [M-H]-
FORMULA: C47H78NO8P
Ontology: Phosphatidylethanolamines
INCHIKEY: UBLNXNRMLGUFLE-SENCJFLLNA-N
SMILES: CCCCCCCC\C=C/C\C=C/C\C=C/C\C=C/CCC(=O)OCC(COP(O)(=O)OCCN)OC(=O)CC\C=C/C\C=C/C\C=C/C\C=C/CCCCCC
RETENTIONTIME: 
CCS: -1
IONMODE: Negative
INSTRUMENTTYPE: LC-ESI-ITFT
INSTRUMENT: 
COLLISIONENERGY: 30
Comment: registered in MassBank
Num Peaks: 15
259.10001	93
286.29999	27
287.94	41
303.09	1000
304.22	55
313.10999	25
331.20999	564
332.23999	114
500.07001	89
501.5	14
528.12	457
529.41998	14
650.67999	16
739.98999	698
754.35999	80

NAME: Phosphatidylethanolamine 22
PRECURSORMZ: 838.539229
PRECURSORTYPE: [M-H]-
FORMULA: C49H78NO8P
Ontology: Phosphatidylethanolamines
INCHIKEY: UFXLSRZZVFZURD-YECZQSHBNA-N
SMILES: CCCCCCCC\C=C/C\C=C/C\C=C/C\C=C/CCC(=O)OCC(COP(O)(=O)OCCN)OC(=O)CC\C=C/C\C=C/C\C=C/C\C=C/C\C=C/C\C=C/CC
RETENTIONTIME: 
CCS: -1
IONMODE: Negative
INSTRUMENTTYPE: LC-ESI-ITFT
INSTRUMENT: 
COLLISIONENERGY: 30
Comment: registered in MassBank
Num Peaks: 21
255.21001	6
257.07999	6
283.20999	656
284.26001	26
287.01999	25
325.38	6
327.10001	1000
328.14999	68
331.23001	858
332.23999	35
416.98999	9
454.37	17
505.67001	10
509.97	61
524	86
526.5	6
528.12	741
529.28003	75
750.20001	19
764.15997	526
781.25	30

NAME: Phosphatidylethanolamine 22
PRECURSORMZ: 836.523578
PRECURSORTYPE: [M-H]-
FORMULA: C49H76NO8P
Ontology: Phosphatidylethanolamines
INCHIKEY: IWZCRDQSSLJDNV-CYFORYSFNA-N
SMILES: CCCCC\C=C/C\C=C/C\C=C/C\C=C/C\C=C/CCC(=O)OCC(COP(O)(=O)OCCN)OC(=O)CC\C=C/C\C=C/C\C=C/C\C=C/C\C=C/C\C=C/CC
RETENTIONTIME: 
CCS: 401.0170772
IONMODE: Negative
INSTRUMENTTYPE: LC-ESI-ITFT
INSTRUMENT: 
COLLISIONENERGY: 30
Comment: registered in MassBank
Num Peaks: 22
283.09	891
285.32999	182
286.42999	24
291.07999	48
327.12	1000
327.81	55
329.04999	642
330.31	164
472.53	30
480.10001	48
505.82999	42
508.42001	24
522.06	109
524.01001	97
525.90997	612
526.95001	55
571	42
670.98999	97
761.25	36
762.29999	1000
784.12	48
805.67999	103

NAME: Phosphatidylethanolamine 22
PRECURSORMZ: 834.507928
PRECURSORTYPE: [M-H]-
FORMULA: C49H74NO8P
Ontology: Phosphatidylethanolamines
INCHIKEY: RBDNSJMXMWTPCS-GZSOIYOPNA-N
SMILES: CC\C=C/C\C=C/C\C=C/C\C=C/C\C=C/C\C=C/CCC(=O)OCC(COP(O)(=O)OCCN)OC(=O)CC\C=C/C\C=C/C\C=C/C\C=C/C\C=C/C\C=C/CC
RETENTIONTIME: 
CCS: 426.1375328
IONMODE: Negative
INSTRUMENTTYPE: LC-ESI-ITFT
INSTRUMENT: 
COLLISIONENERGY: 30
Comment: registered in MassBank
Num Peaks: 16
249.17999	16
257.35001	6
283.10999	417
284.23001	28
309.17001	7
327.03	1000
327.98001	78
506.20001	30
523.98999	660
525.12	75
752.56	9
759.71002	29
760.38	69
784.09003	14
797.21997	10
832.03003	10

NAME: Phosphatidylethanolamine 22
PRECURSORMZ: 862.539229
PRECURSORTYPE: [M-H]-
FORMULA: C51H78NO8P
Ontology: Phosphatidylethanolamines
INCHIKEY: RYRYLVYZMTURGB-RIJNFFOPNA-N
SMILES: CCCC\C=C/C\C=C/C\C=C/C\C=C/C\C=C/C\C=C/CCC(=O)OC(COC(=O)CC\C=C/C\C=C/C\C=C/C\C=C/C\C=C/C\C=C/CC)COP(O)(=O)OCCN
RETENTIONTIME: 
CCS: -1
IONMODE: Negative
INSTRUMENTTYPE: LC-ESI-ITFT
INSTRUMENT: 
COLLISIONENERGY: 30
Comment: registered in MassBank
Num Peaks: 19
249.21001	58
283.23999	500
311.01999	110
327.13	1000
327.98001	58
337.20999	39
340.87	71
354.87	662
355.57999	91
491.04001	52
537.33002	52
552	857
620.94	52
735.87	104
775.39001	26
788.10999	162
801.85999	78
804.33002	117
845.17999	45

NAME: Phosphatidylethanolamine 24
PRECURSORMZ: 866.570529
PRECURSORTYPE: [M-H]-
FORMULA: C51H82NO8P
Ontology: Phosphatidylethanolamines
INCHIKEY: OYZJPILFCCHSQR-UNVMLCDQNA-N
SMILES: CCCCCCCCCC\C=C/C\C=C/C\C=C/C\C=C/CCC(=O)OCC(COP(O)(=O)OCCN)OC(=O)CC\C=C/C\C=C/C\C=C/C\C=C/C\C=C/C\C=C/CC
RETENTIONTIME: 
CCS: -1
IONMODE: Negative
INSTRUMENTTYPE: LC-ESI-ITFT
INSTRUMENT: 
COLLISIONENERGY: 30
Comment: registered in MassBank
Num Peaks: 16
283.19	461
303.17999	14
327.17001	1000
359.17001	979
505.64001	34
506.32999	14
523.87	75
538.25	68
556.15002	543
580.06	37
611.29999	9
664.21002	30
791.95001	119
792.57001	37
808.62	14
867.03003	14

NAME: Phosphatidylethanolamine alkenyl 16
PRECURSORMZ: 730.575614
PRECURSORTYPE: [M-H]-
FORMULA: C41H82NO7P
Ontology: 1-(1Z-alkenyl),2-acylglycerophosphoethanolamines
INCHIKEY: LGFRBARRRZCSBV-PKUSAGTQNA-N
SMILES: CCCCCCCCCCCCCCCCCCCC(=O)OC(CO\C=C\CCCCCCCCCCCCCC)COP(O)(=O)OCCN
RETENTIONTIME: 
CCS: 354.1982842
IONMODE: Negative
INSTRUMENTTYPE: LC-ESI-ITFT
INSTRUMENT: 
COLLISIONENERGY: 30
Comment: registered in MassBank
Num Peaks: 16
238.99001	7
283.07001	35
283.98999	9
311.14999	1000
312.20001	107
403.38	7
418.10999	42
436.17001	116
437.31	25
640.81	7
648.14001	14
648.77002	8
671.96002	6
694.58002	16
695.33002	7
731.26001	6

NAME: Phosphatidylethanolamine alkenyl 16
PRECURSORMZ: 726.544314
PRECURSORTYPE: [M-H]-
FORMULA: C41H78NO7P
Ontology: 1-(1Z-alkenyl),2-acylglycerophosphoethanolamines
INCHIKEY: NDDBMPXGHSKRHS-CZAAGYDRNA-N
SMILES: CCCCCCCCCCCCCC\C=C\OCC(COP(O)(=O)OCCN)OC(=O)CC\C=C/C\C=C/CCCCCCCCCCCC
RETENTIONTIME: 
CCS: -1
IONMODE: Negative
INSTRUMENTTYPE: LC-ESI-ITFT
INSTRUMENT: 
COLLISIONENERGY: 30
Comment: registered in MassBank
Num Peaks: 11
255	10
281.14001	420
282.12	47
307.14001	1000
308.17999	93
309.17999	7
375.17001	6
418.06	20
436.10999	205
437.17999	26
462.19	115

NAME: Phosphatidylethanolamine alkenyl 16
PRECURSORMZ: 724.528664
PRECURSORTYPE: [M-H]-
FORMULA: C41H76NO7P
Ontology: 1-(1Z-alkenyl),2-acylglycerophosphoethanolamines
INCHIKEY: QUEBLWWLERMNAP-RYYWRRNANA-N
SMILES: CCCCCCCCCCCCCC\C=C\OCC(COP(O)(=O)OCCN)OC(=O)CC\C=C/C\C=C/C\C=C/CCCCCCCCC
RETENTIONTIME: 
CCS: -1
IONMODE: Negative
INSTRUMENTTYPE: LC-ESI-ITFT
INSTRUMENT: 
COLLISIONENERGY: 30
Comment: registered in MassBank
Num Peaks: 14
234.95	6
255.2	11
255.82001	7
261.16	11
279.04001	23
281.03	13
302.92001	21
305.07999	1000
306.17001	99
418.23999	14
419.39999	8
436.17001	192
437.12	27
460.19	18

NAME: Phosphatidylethanolamine alkenyl 16
PRECURSORMZ: 722.513014
PRECURSORTYPE: [M-H]-
FORMULA: C41H74NO7P
Ontology: 1-(1Z-alkenyl),2-acylglycerophosphoethanolamines
INCHIKEY: QDRJMAHGAQYRIN-PKKQLAOCNA-N
SMILES: CCCCCCCCCCCCCC\C=C\OCC(COP(O)(=O)OCCN)OC(=O)CC\C=C/C\C=C/C\C=C/C\C=C/CCCCCC
RETENTIONTIME: 
CCS: -1
IONMODE: Negative
INSTRUMENTTYPE: LC-ESI-ITFT
INSTRUMENT: 
COLLISIONENERGY: 30
Comment: registered in MassBank
Num Peaks: 9
255.07001	16
256.14001	11
259.22	92
285.12	7
303.04001	1000
304.03	23
418.13	67
436.13	366
437.13	11

NAME: Phosphatidylethanolamine alkenyl 16
PRECURSORMZ: 720.497364
PRECURSORTYPE: [M-H]-
FORMULA: C41H72NO7P
Ontology: 1-(1Z-alkenyl),2-acylglycerophosphoethanolamines
INCHIKEY: RPMVRPOBBVLOLS-HAQSCEBBNA-N
SMILES: CCCCCCCCCCCCCC\C=C\OCC(COP(O)(=O)OCCN)OC(=O)CC\C=C/C\C=C/C\C=C/C\C=C/C\C=C/CCC
RETENTIONTIME: 
CCS: -1
IONMODE: Negative
INSTRUMENTTYPE: LC-ESI-ITFT
INSTRUMENT: 
COLLISIONENERGY: 30
Comment: registered in MassBank
Num Peaks: 15
255.14	27
257.09	482
258.98999	27
301.14999	1000
302.03	299
303.16	58
303.98001	22
376.26999	49
418.16	62
434.37	89
436.17999	759
437.20999	36
640.78998	67
646.08002	40
720.06	80

NAME: Phosphatidylethanolamine alkenyl 16
PRECURSORMZ: 750.544314
PRECURSORTYPE: [M-H]-
FORMULA: C43H78NO7P
Ontology: 1-(1Z-alkenyl),2-acylglycerophosphoethanolamines
INCHIKEY: RKVZUTPSIGLURV-BLAGHTKONA-N
SMILES: CCCCCCCCCCCCCC\C=C\OCC(COP(O)(=O)OCCN)OC(=O)CC\C=C/C\C=C/C\C=C/C\C=C/CCCCCCCC
RETENTIONTIME: 
CCS: -1
IONMODE: Negative
INSTRUMENTTYPE: LC-ESI-ITFT
INSTRUMENT: 
COLLISIONENERGY: 30
Comment: registered in MassBank
Num Peaks: 9
233.17999	11
287.06	39
305.20001	11
331.09	1000
332.17001	59
418.20999	32
419.32999	5
436.13	250
437.14001	12

NAME: Phosphatidylethanolamine alkenyl 16
PRECURSORMZ: 746.513014
PRECURSORTYPE: [M-H]-
FORMULA: C43H74NO7P
Ontology: 1-(1Z-alkenyl),2-acylglycerophosphoethanolamines
INCHIKEY: WVGALBKSWOUIEZ-ULUZTLKMNA-N
SMILES: CCCCCCCCCCCCCC\C=C\OCC(COP(O)(=O)OCCN)OC(=O)CC\C=C/C\C=C/C\C=C/C\C=C/C\C=C/C\C=C/CC
RETENTIONTIME: 
CCS: 377.0007354
IONMODE: Negative
INSTRUMENTTYPE: LC-ESI-ITFT
INSTRUMENT: 
COLLISIONENERGY: 30
Comment: registered in MassBank
Num Peaks: 16
228.96001	16
255.11	40
281.16	91
283.14999	554
284.20999	29
309.12	10
327.07999	1000
327.95999	73
375.07001	8
391	19
418.17999	105
419.28	15
436.10001	783
437.04001	78
464.98999	11
483.04999	14

NAME: Phosphatidylethanolamine alkenyl 16
PRECURSORMZ: 778.575614
PRECURSORTYPE: [M-H]-
FORMULA: C45H82NO7P
Ontology: 1-(1Z-alkenyl),2-acylglycerophosphoethanolamines
INCHIKEY: CXLQRZCNUQQELB-FGJYPOMBNA-N
SMILES: CCCCCCCCCCCCCC\C=C\OCC(COP(O)(=O)OCCN)OC(=O)CC\C=C/C\C=C/C\C=C/C\C=C/CCCCCCCCCC
RETENTIONTIME: 
CCS: -1
IONMODE: Negative
INSTRUMENTTYPE: LC-ESI-ITFT
INSTRUMENT: 
COLLISIONENERGY: 30
Comment: registered in MassBank
Num Peaks: 18
230.11	11
284.26001	6
289.42001	5
305.23001	42
305.89001	10
307.03	7
331.32001	17
333.10999	1000
334.23999	137
335.39001	12
444.04999	35
445.16	15
462.16	150
463.31	14
466.57999	11
605.34998	12
664.28003	7
704.31	35

NAME: Phosphatidylethanolamine alkenyl 17
PRECURSORMZ: 736.528664
PRECURSORTYPE: [M-H]-
FORMULA: C42H76NO7P
Ontology: 1-(1Z-alkenyl),2-acylglycerophosphoethanolamines
INCHIKEY: QTIWXGKYYKPQFH-FKQGHMTJNA-N
SMILES: CCCCCCCCCCCCCCC\C=C\OCC(COP(O)(=O)OCCN)OC(=O)CC\C=C/C\C=C/C\C=C/C\C=C/CCCCCC
RETENTIONTIME: 
CCS: -1
IONMODE: Negative
INSTRUMENTTYPE: LC-ESI-ITFT
INSTRUMENT: 
COLLISIONENERGY: 30
Comment: registered in MassBank
Num Peaks: 13
258.98001	141
270.10999	9
281.23999	11
284.91	26
303.01999	1000
304.22	62
349.79999	17
375.14001	8
432.06	32
433.45001	71
450.22	336
451.31	29
637.21002	11

NAME: Phosphatidylethanolamine alkenyl 17
PRECURSORMZ: 764.559964
PRECURSORTYPE: [M-H]-
FORMULA: C44H80NO7P
Ontology: 1-(1Z-alkenyl),2-acylglycerophosphoethanolamines
INCHIKEY: HYJDBLFZSYMOCC-ORTLTHOANA-N
SMILES: CCCCCCCCCCCCCCC\C=C\OCC(COP(O)(=O)OCCN)OC(=O)CC\C=C/C\C=C/C\C=C/C\C=C/CCCCCCCC
RETENTIONTIME: 
CCS: -1
IONMODE: Negative
INSTRUMENTTYPE: LC-ESI-ITFT
INSTRUMENT: 
COLLISIONENERGY: 30
Comment: registered in MassBank
Num Peaks: 10
287.26999	14
331.19	1000
332.14999	135
432.16	67
433.06	15
450.19	290
451.34	72
452.48001	17
639.44	14
725.84003	5

NAME: Phosphatidylethanolamine alkenyl 18
PRECURSORMZ: 702.544314
PRECURSORTYPE: [M-H]-
FORMULA: C39H78NO7P
Ontology: 1-(1Z-alkenyl),2-acylglycerophosphoethanolamines
INCHIKEY: HEASGCOZOMIKFU-WUVHBKSUNA-N
SMILES: CCCCCCCCCCCCCCCC\C=C\OCC(COP(O)(=O)OCCN)OC(=O)CCCCCCCCCCCCCCC
RETENTIONTIME: 
CCS: 332.1010262
IONMODE: Negative
INSTRUMENTTYPE: LC-ESI-ITFT
INSTRUMENT: 
COLLISIONENERGY: 30
Comment: registered in MassBank
Num Peaks: 20
255.21001	1000
256.29001	42
282.17001	19
283.17001	822
284.17999	122
318.53	6
402.66	13
417.23999	16
418.14001	49
419.37	7
420.39001	22
436.41	116
437.26999	38
438.23999	20
445.98001	44
446.62	17
464.25	105
593.77002	28
619.62	25
628.65997	16

NAME: Phosphatidylethanolamine alkenyl 18
PRECURSORMZ: 728.559964
PRECURSORTYPE: [M-H]-
FORMULA: C41H80NO7P
Ontology: 1-(1Z-alkenyl),2-acylglycerophosphoethanolamines
INCHIKEY: GJEZRMBBMQUCBS-NLBLVIAENA-N
SMILES: CCCCCCCCCCCCCCCC\C=C\OCC(COP(O)(=O)OCCN)OC(=O)CC\C=C/CCCCCCCCCCCCC
RETENTIONTIME: 
CCS: -1
IONMODE: Negative
INSTRUMENTTYPE: LC-ESI-ITFT
INSTRUMENT: 
COLLISIONENERGY: 30
Comment: registered in MassBank
Num Peaks: 6
281.10001	1000
282.07999	58
309.26001	14
446.10999	36
464.20001	189
465.17999	16

NAME: Phosphatidylethanolamine alkenyl 18
PRECURSORMZ: 726.544314
PRECURSORTYPE: [M-H]-
FORMULA: C41H78NO7P
Ontology: 1-(1Z-alkenyl),2-acylglycerophosphoethanolamines
INCHIKEY: QBAQUPWJTLVJBD-CZAAGYDRNA-N
SMILES: CCCCCCCCCCCCCCCC\C=C\OCC(COP(O)(=O)OCCN)OC(=O)CC\C=C/C\C=C/CCCCCCCCCC
RETENTIONTIME: 
CCS: -1
IONMODE: Negative
INSTRUMENTTYPE: LC-ESI-ITFT
INSTRUMENT: 
COLLISIONENERGY: 30
Comment: registered in MassBank
Num Peaks: 14
279	1000
280.16	81
281.17001	81
282.07001	11
307.16	114
308.04999	23
418.34	9
436.23999	18
446.20999	73
447.48999	5
462.19	36
464.10999	207
465.26001	38
666.40997	8

NAME: Phosphatidylethanolamine alkenyl 18
PRECURSORMZ: 758.606914
PRECURSORTYPE: [M-H]-
FORMULA: C43H86NO7P
Ontology: 1-(1Z-alkenyl),2-acylglycerophosphoethanolamines
INCHIKEY: ALJUYAAJNSNTHU-OBEQGSJMNA-N
SMILES: CCCCCCCCCCCCCCCCCCCC(=O)OC(CO\C=C\CCCCCCCCCCCCCCCC)COP(O)(=O)OCCN
RETENTIONTIME: 
CCS: 366.5125179
IONMODE: Negative
INSTRUMENTTYPE: LC-ESI-ITFT
INSTRUMENT: 
COLLISIONENERGY: 30
Comment: registered in MassBank
Num Peaks: 13
267.17999	10
311.20999	1000
312.26999	135
339.19	126
340.29001	7
416.20999	6
436.31	7
446.35999	54
464.17999	148
465.25	24
623.12	12
668.58002	10
676.32001	8

NAME: Phosphatidylethanolamine alkenyl 18
PRECURSORMZ: 754.575614
PRECURSORTYPE: [M-H]-
FORMULA: C43H82NO7P
Ontology: 1-(1Z-alkenyl),2-acylglycerophosphoethanolamines
INCHIKEY: PWKATOOFMDDUBO-SGMJUNKUNA-N
SMILES: CCCCCCCCCCCCCCCC\C=C\OCC(COP(O)(=O)OCCN)OC(=O)CC\C=C/C\C=C/CCCCCCCCCCCC
RETENTIONTIME: 
CCS: -1
IONMODE: Negative
INSTRUMENTTYPE: LC-ESI-ITFT
INSTRUMENT: 
COLLISIONENERGY: 30
Comment: registered in MassBank
Num Peaks: 18
283.06	7
304.59	5
305.20999	5
307.16	1000
308.19	151
309.26001	110
335.39001	54
336.12	6
443.92001	30
446.09	38
447.38	6
462.35001	29
464.14001	170
465.54001	27
471.17999	8
637.46002	12
706.92999	12
717.79999	30

NAME: Phosphatidylethanolamine alkenyl 18
PRECURSORMZ: 752.559964
PRECURSORTYPE: [M-H]-
FORMULA: C43H80NO7P
Ontology: 1-(1Z-alkenyl),2-acylglycerophosphoethanolamines
INCHIKEY: IAZMKBZMIIUNID-DXSDZVOINA-N
SMILES: CCCCCCCCCCCCCCCC\C=C\OCC(COP(O)(=O)OCCN)OC(=O)CC\C=C/C\C=C/C\C=C/CCCCCCCCC
RETENTIONTIME: 
CCS: -1
IONMODE: Negative
INSTRUMENTTYPE: LC-ESI-ITFT
INSTRUMENT: 
COLLISIONENERGY: 30
Comment: registered in MassBank
Num Peaks: 13
267.17999	6
303.14999	23
305.10001	1000
306.16	126
331.23001	6
333.13	38
334	6
418.45999	6
436.01001	10
446.26001	20
447.47	11
464.17999	190
465.10001	25

NAME: Phosphatidylethanolamine alkenyl 18
PRECURSORMZ: 750.544314
PRECURSORTYPE: [M-H]-
FORMULA: C43H78NO7P
Ontology: 1-(1Z-alkenyl),2-acylglycerophosphoethanolamines
INCHIKEY: RZZGAMUARHRLJN-ZOWVHDLQNA-N
SMILES: CCCCCCCCCCCCCCCC\C=C\OCC(COP(O)(=O)OCCN)OC(=O)CC\C=C/C\C=C/C\C=C/C\C=C/CCCCCC
RETENTIONTIME: 
CCS: -1
IONMODE: Negative
INSTRUMENTTYPE: LC-ESI-ITFT
INSTRUMENT: 
COLLISIONENERGY: 30
Comment: registered in MassBank
Num Peaks: 11
255.17	6
259.04999	71
260.04001	5
283.20999	12
303.14001	1000
304.17001	79
331.12	14
446.20001	60
447.14001	7
464.17001	456
465.26001	54

NAME: Phosphatidylethanolamine alkenyl 18
PRECURSORMZ: 748.528664
PRECURSORTYPE: [M-H]-
FORMULA: C43H76NO7P
Ontology: 1-(1Z-alkenyl),2-acylglycerophosphoethanolamines
INCHIKEY: UZKXXUJVNWVEAA-GWWWPDGYNA-N
SMILES: CCCCCCCCCCCCCCCC\C=C\OCC(COP(O)(=O)OCCN)OC(=O)CC\C=C/C\C=C/C\C=C/C\C=C/C\C=C/CCC
RETENTIONTIME: 
CCS: -1
IONMODE: Negative
INSTRUMENTTYPE: LC-ESI-ITFT
INSTRUMENT: 
COLLISIONENERGY: 30
Comment: registered in MassBank
Num Peaks: 21
257.10001	455
281.29001	21
283.04001	98
284.37	29
301.07999	1000
302.04001	202
303.17999	72
328.10999	11
330.01999	35
398.60001	48
418.82001	56
437.26001	45
437.98999	13
445.04001	19
446.04001	109
462.26999	16
464.20999	649
465.14001	74
705.58002	29
714.59003	24
716.88	19

NAME: Phosphatidylethanolamine alkenyl 18
PRECURSORMZ: 784.622564
PRECURSORTYPE: [M-H]-
FORMULA: C45H88NO7P
Ontology: 1-(1Z-alkenyl),2-acylglycerophosphoethanolamines
INCHIKEY: MIKCEBQQTIVKSQ-LITAQCTLNA-N
SMILES: CCCCCCCCCCCCCCCCC\C=C/CCC(=O)OC(CO\C=C\CCCCCCCCCCCCCCCC)COP(O)(=O)OCCN
RETENTIONTIME: 
CCS: -1
IONMODE: Negative
INSTRUMENTTYPE: LC-ESI-ITFT
INSTRUMENT: 
COLLISIONENERGY: 30
Comment: registered in MassBank
Num Peaks: 10
264.34	5
337.10999	1000
338.20001	195
365.20001	240
366.17999	39
436.23999	15
446.19	23
464.22	185
465.17001	23
701.57001	10

NAME: Phosphatidylethanolamine alkenyl 18
PRECURSORMZ: 780.591264
PRECURSORTYPE: [M-H]-
FORMULA: C45H84NO7P
Ontology: 1-(1Z-alkenyl),2-acylglycerophosphoethanolamines
INCHIKEY: VBVLUHGCJVMQFI-DTZLILKHNA-N
SMILES: CCCCCCCCCCCCCCCC\C=C\OCC(COP(O)(=O)OCCN)OC(=O)CC\C=C/C\C=C/C\C=C/CCCCCCCCCCC
RETENTIONTIME: 
CCS: -1
IONMODE: Negative
INSTRUMENTTYPE: LC-ESI-ITFT
INSTRUMENT: 
COLLISIONENERGY: 30
Comment: registered in MassBank
Num Peaks: 17
268.56	11
289.5	17
303.91	36
331.04999	74
333.10001	1000
334.16	149
337.19	23
361.17999	30
403.20999	18
418.63	8
446.12	39
462.45001	21
464.22	210
464.88	21
493.12	32
720.54999	17
728.84003	14

NAME: Phosphatidylethanolamine alkenyl 18
PRECURSORMZ: 778.575614
PRECURSORTYPE: [M-H]-
FORMULA: C45H82NO7P
Ontology: 1-(1Z-alkenyl),2-acylglycerophosphoethanolamines
INCHIKEY: GZMXKUALKXYCMM-XSEHFSNENA-N
SMILES: CCCCCCCCCCCCCCCC\C=C\OCC(COP(O)(=O)OCCN)OC(=O)CC\C=C/C\C=C/C\C=C/C\C=C/CCCCCCCC
RETENTIONTIME: 
CCS: -1
IONMODE: Negative
INSTRUMENTTYPE: LC-ESI-ITFT
INSTRUMENT: 
COLLISIONENERGY: 30
Comment: registered in MassBank
Num Peaks: 11
233.11	6
267.04001	7
287.16	39
288.17001	7
331.14001	1000
332.20001	145
403.13	6
446.20001	65
447.29999	10
464.20001	294
465.19	32

NAME: Phosphatidylethanolamine alkenyl 18
PRECURSORMZ: 774.544314
PRECURSORTYPE: [M-H]-
FORMULA: C45H78NO7P
Ontology: 1-(1Z-alkenyl),2-acylglycerophosphoethanolamines
INCHIKEY: FIJFPUAJUDAZEY-NUANVQICNA-N
SMILES: CCCCCCCCCCCCCCCC\C=C\OCC(COP(O)(=O)OCCN)OC(=O)CC\C=C/C\C=C/C\C=C/C\C=C/C\C=C/C\C=C/CC
RETENTIONTIME: 
CCS: 346.2524854
IONMODE: Negative
INSTRUMENTTYPE: LC-ESI-ITFT
INSTRUMENT: 
COLLISIONENERGY: 30
Comment: registered in MassBank
Num Peaks: 13
229.09	36
249.08	23
267.12	9
281.25	6
283.06	553
284.20001	50
327.06	1000
328.09	71
403.07001	12
446.19	132
447.12	14
464.14001	877
465.26001	90

NAME: Phosphatidylethanolamine alkenyl 18
PRECURSORMZ: 806.606914
PRECURSORTYPE: [M-H]-
FORMULA: C47H86NO7P
Ontology: 1-(1Z-alkenyl),2-acylglycerophosphoethanolamines
INCHIKEY: LAUMCRQBKCWQHU-NKPKNEKKNA-N
SMILES: CCCCCCCCCCCCCCCC\C=C\OCC(COP(O)(=O)OCCN)OC(=O)CC\C=C/C\C=C/C\C=C/C\C=C/CCCCCCCCCC
RETENTIONTIME: 
CCS: -1
IONMODE: Negative
INSTRUMENTTYPE: LC-ESI-ITFT
INSTRUMENT: 
COLLISIONENERGY: 30
Comment: registered in MassBank
Num Peaks: 16
275.48001	8
315.04999	8
359.14001	1000
360.26999	143
366.09	8
445.92999	26
447.28	23
457.35001	13
458.23001	6
464.23999	207
465.14999	17
505.62	6
540.28998	8
732.09003	181
747.10999	5
773.64001	7

NAME: Phosphatidylethanolamine alkenyl 18
PRECURSORMZ: 804.591264
PRECURSORTYPE: [M-H]-
FORMULA: C47H84NO7P
Ontology: 1-(1Z-alkenyl),2-acylglycerophosphoethanolamines
INCHIKEY: OXSYLAKUJGJRGC-PBMCJBRHNA-N
SMILES: CCCCCCCCCCCCCCCC\C=C\OCC(COP(O)(=O)OCCN)OC(=O)CC\C=C/C\C=C/C\C=C/C\C=C/C\C=C/CCCCCCC
RETENTIONTIME: 
CCS: -1
IONMODE: Negative
INSTRUMENTTYPE: LC-ESI-ITFT
INSTRUMENT: 
COLLISIONENERGY: 30
Comment: registered in MassBank
Num Peaks: 27
259.12	31
260.04001	6
278.98999	6
283.09	21
284.04001	34
313.26999	152
314.17001	17
326.95999	64
327.98001	77
357.03	1000
358.13	207
403.07001	19
446.23999	59
464.25	387
465.28	98
477.38	8
481.20001	12
492.17001	37
493.04001	87
512.31	11
702.40002	8
728.21997	11
729.54999	11
730.39001	10
744.23999	10
746.40002	9
766.28003	7

NAME: Phosphatidylethanolamine alkenyl 18
PRECURSORMZ: 802.575614
PRECURSORTYPE: [M-H]-
FORMULA: C47H82NO7P
Ontology: 1-(1Z-alkenyl),2-acylglycerophosphoethanolamines
INCHIKEY: JKMKRFYKYHILMM-ZUVFDMEGNA-N
SMILES: CCCCCCCCCCCCCCCC\C=C\OCC(COP(O)(=O)OCCN)OC(=O)CC\C=C/C\C=C/C\C=C/C\C=C/C\C=C/C\C=C/CCCC
RETENTIONTIME: 
CCS: -1
IONMODE: Negative
INSTRUMENTTYPE: LC-ESI-ITFT
INSTRUMENT: 
COLLISIONENERGY: 30
Comment: registered in MassBank
Num Peaks: 23
233.34	5
254.95	9
257.16	23
268.16	5
270.20001	5
311.14999	180
312.20999	18
355.06	1000
356.09	182
403.98001	11
446.28	72
464.14001	427
465.10999	120
533.98999	7
536.60999	7
701.90997	6
714.72998	5
725.67999	6
728.60999	8
729.83002	10
742.06	21
758.95001	9
784.22998	6

NAME: Phosphatidylethanolamine alkenyl 18
PRECURSORMZ: 726.544314
PRECURSORTYPE: [M-H]-
FORMULA: C41H78NO7P
Ontology: 1-(1Z-alkenyl),2-acylglycerophosphoethanolamines
INCHIKEY: IEKMVBFEEDNXGT-WECHNZQXNA-N
SMILES: CCCCCCCCCCCCC\C=C/CCC(=O)OC(CO\C=C\C\C=C/CCCCCCCCCCCCC)COP(O)(=O)OCCN
RETENTIONTIME: 
CCS: -1
IONMODE: Negative
INSTRUMENTTYPE: LC-ESI-ITFT
INSTRUMENT: 
COLLISIONENERGY: 30
Comment: registered in MassBank
Num Peaks: 5
281.09	1000
282.17001	25
444.14001	39
462.10001	175
463.13	16

NAME: Phosphatidylethanolamine alkenyl 18
PRECURSORMZ: 754.575614
PRECURSORTYPE: [M-H]-
FORMULA: C43H82NO7P
Ontology: 1-(1Z-alkenyl),2-acylglycerophosphoethanolamines
INCHIKEY: REJQSLUNBGQJLW-KHJLVCBXNA-N
SMILES: CCCCCCCCCCCCCCC\C=C/CCC(=O)OC(CO\C=C\C\C=C/CCCCCCCCCCCCC)COP(O)(=O)OCCN
RETENTIONTIME: 
CCS: -1
IONMODE: Negative
INSTRUMENTTYPE: LC-ESI-ITFT
INSTRUMENT: 
COLLISIONENERGY: 30
Comment: registered in MassBank
Num Peaks: 6
281.04001	12
309.12	1000
310.20999	58
444.06	28
462.10001	153
463.20999	9

NAME: Phosphatidylethanolamine alkenyl 18
PRECURSORMZ: 748.528664
PRECURSORTYPE: [M-H]-
FORMULA: C43H76NO7P
Ontology: 1-(1Z-alkenyl),2-acylglycerophosphoethanolamines
INCHIKEY: YJPYELPDWSEQHM-KTUZNUCGNA-N
SMILES: CCCCCCCCCCCCC\C=C/C\C=C\OCC(COP(O)(=O)OCCN)OC(=O)CC\C=C/C\C=C/C\C=C/C\C=C/CCCCCC
RETENTIONTIME: 
CCS: -1
IONMODE: Negative
INSTRUMENTTYPE: LC-ESI-ITFT
INSTRUMENT: 
COLLISIONENERGY: 30
Comment: registered in MassBank
Num Peaks: 8
259.13	95
303.07001	1000
304.17999	55
401.12	5
444.10001	71
445.23999	5
462.10999	409
463.20999	29

NAME: Phosphatidylethanolamine alkenyl 18
PRECURSORMZ: 780.591264
PRECURSORTYPE: [M-H]-
FORMULA: C45H84NO7P
Ontology: 1-(1Z-alkenyl),2-acylglycerophosphoethanolamines
INCHIKEY: AINWEGSZBADWKE-CFOOOPRVNA-N
SMILES: CCCCCCCCCCCCCC\C=C/C\C=C/CCC(=O)OC(CO\C=C\C\C=C/CCCCCCCCCCCCC)COP(O)(=O)OCCN
RETENTIONTIME: 
CCS: -1
IONMODE: Negative
INSTRUMENTTYPE: LC-ESI-ITFT
INSTRUMENT: 
COLLISIONENERGY: 30
Comment: registered in MassBank
Num Peaks: 31
283.16	8
287.42999	9
309.14999	47
310.10001	8
315.03	7
318.12	7
324.95999	8
329.28	7
331.07001	56
332.26001	99
333.26999	20
335.16	1000
336.26001	217
359.14001	6
359.89999	14
401.28	11
444.14001	35
444.82999	7
447.12	7
462.23001	226
463.35999	34
464.26999	22
465.44	33
466.17001	10
480.70999	5
488.10999	7
618.34998	33
662.46997	7
719.54999	15
720.52002	8
760.87	6

NAME: Phosphatidylethanolamine alkenyl 18
PRECURSORMZ: 776.559964
PRECURSORTYPE: [M-H]-
FORMULA: C45H80NO7P
Ontology: 1-(1Z-alkenyl),2-acylglycerophosphoethanolamines
INCHIKEY: LLGDMLIODPBDGJ-IVEVXDSTNA-N
SMILES: CCCCCCCCCCCCC\C=C/C\C=C\OCC(COP(O)(=O)OCCN)OC(=O)CC\C=C/C\C=C/C\C=C/C\C=C/CCCCCCCC
RETENTIONTIME: 
CCS: -1
IONMODE: Negative
INSTRUMENTTYPE: LC-ESI-ITFT
INSTRUMENT: 
COLLISIONENERGY: 30
Comment: registered in MassBank
Num Peaks: 9
287.20999	47
313.13	7
331.12	1000
332.14999	122
401.12	5
444.09	46
445.04001	7
462.09	286
463.17999	40

NAME: Phosphatidylethanolamine alkenyl 18
PRECURSORMZ: 772.528664
PRECURSORTYPE: [M-H]-
FORMULA: C45H76NO7P
Ontology: 1-(1Z-alkenyl),2-acylglycerophosphoethanolamines
INCHIKEY: MEWSEYMCACAAEE-YLACOYRINA-N
SMILES: CCCCCCCCCCCCC\C=C/C\C=C\OCC(COP(O)(=O)OCCN)OC(=O)CC\C=C/C\C=C/C\C=C/C\C=C/C\C=C/C\C=C/CC
RETENTIONTIME: 
CCS: -1
IONMODE: Negative
INSTRUMENTTYPE: LC-ESI-ITFT
INSTRUMENT: 
COLLISIONENERGY: 30
Comment: registered in MassBank
Num Peaks: 14
228.95	16
249.13	6
281.04001	15
283.10001	532
284.22	57
309.32999	7
310.35001	7
327.01999	1000
328.03	90
401.10999	9
444.20001	111
445.17001	14
462.14999	864
463.29001	70

NAME: Phosphatidylethanolamine alkenyl 18
PRECURSORMZ: 804.591264
PRECURSORTYPE: [M-H]-
FORMULA: C47H84NO7P
Ontology: 1-(1Z-alkenyl),2-acylglycerophosphoethanolamines
INCHIKEY: CGXFPCHJSFOKMF-ITNHFFAINA-N
SMILES: CCCCCCCCCCCCC\C=C/C\C=C\OCC(COP(O)(=O)OCCN)OC(=O)CC\C=C/C\C=C/C\C=C/C\C=C/CCCCCCCCCC
RETENTIONTIME: 
CCS: -1
IONMODE: Negative
INSTRUMENTTYPE: LC-ESI-ITFT
INSTRUMENT: 
COLLISIONENERGY: 30
Comment: registered in MassBank
Num Peaks: 14
261.95001	9
315.06	27
335.57999	12
359.17001	1000
360.10999	265
444.16	62
445.17001	8
462.06	124
462.75	12
495	8
499.91	6
713.91998	9
730.22998	234
804.58002	6

NAME: Phosphatidylethanolamine alkenyl 19
PRECURSORMZ: 764.559964
PRECURSORTYPE: [M-H]-
FORMULA: C44H80NO7P
Ontology: 1-(1Z-alkenyl),2-acylglycerophosphoethanolamines
INCHIKEY: OVZSKAHQJGVGGL-JYQPGMKLNA-N
SMILES: CCCCCCCCCCCCCCCCC\C=C\OCC(COP(O)(=O)OCCN)OC(=O)CC\C=C/C\C=C/C\C=C/C\C=C/CCCCCC
RETENTIONTIME: 
CCS: -1
IONMODE: Negative
INSTRUMENTTYPE: LC-ESI-ITFT
INSTRUMENT: 
COLLISIONENERGY: 30
Comment: registered in MassBank
Num Peaks: 11
259.14001	97
260.10001	43
281.28	18
303.10001	1000
304.12	57
461.16	29
478.04001	330
479.22	337
681.02002	29
705.12	47
732.38	100

NAME: Phosphatidylethanolamine alkenyl 20
PRECURSORMZ: 802.575614
PRECURSORTYPE: [M-H]-
FORMULA: C47H82NO7P
Ontology: 1-(1Z-alkenyl),2-acylglycerophosphoethanolamines
INCHIKEY: GWWKPJFGKBNJDJ-DYEXTAMENA-N
SMILES: CCCCCCCCCCCCCCCCCC\C=C\OCC(COP(O)(=O)OCCN)OC(=O)CC\C=C/C\C=C/C\C=C/C\C=C/C\C=C/C\C=C/CC
RETENTIONTIME: 
CCS: -1
IONMODE: Negative
INSTRUMENTTYPE: LC-ESI-ITFT
INSTRUMENT: 
COLLISIONENERGY: 30
Comment: registered in MassBank
Num Peaks: 23
229.21001	33
254.91	22
281.10001	27
283.04999	773
284.04999	62
296.23999	27
327.14999	1000
328.10001	91
474.01999	38
475.54001	18
492.22	995
493.14999	140
506.39001	29
659.71997	9
698.46997	24
701.32001	34
716.09003	29
717.97998	20
719.26001	102
720.21002	69
720.81	20
765.92999	20
783.59998	36

NAME: Phosphatidylethanolamine alkenyl 20
PRECURSORMZ: 800.559964
PRECURSORTYPE: [M-H]-
FORMULA: C47H80NO7P
Ontology: 1-(1Z-alkenyl),2-acylglycerophosphoethanolamines
INCHIKEY: GKRHXMAWUOFXDX-NRAOZCPZNA-N
SMILES: CCCCCCCCCCCCCCC\C=C/C\C=C\OCC(COP(O)(=O)OCCN)OC(=O)CC\C=C/C\C=C/C\C=C/C\C=C/C\C=C/C\C=C/CC
RETENTIONTIME: 
CCS: -1
IONMODE: Negative
INSTRUMENTTYPE: LC-ESI-ITFT
INSTRUMENT: 
COLLISIONENERGY: 30
Comment: registered in MassBank
Num Peaks: 19
229.25	40
255.22	21
281.23999	49
283.16	473
284.14001	83
309.07001	15
327.16	1000
328.09	159
472.23999	113
490.32001	805
491.07999	110
700.14001	28
713.09003	40
716.98999	28
718.03998	202
719.40997	13
741.84998	21
742.46002	13
743.29999	98

NAME: Phosphatidylethanolamine alkyl 16
PRECURSORMZ: 702.544314
PRECURSORTYPE: [M-H]-
FORMULA: C39H78NO7P
Ontology: 1-alkyl,2-acylglycerophosphoethanolamines
INCHIKEY: XDIGIEOFWXOONN-SGEDCAFJNA-N
SMILES: CCCCCCCCCCCCCCCCOCC(COP(O)(=O)OCCN)OC(=O)CC\C=C/CCCCCCCCCCCCC
RETENTIONTIME: 
CCS: -1
IONMODE: Negative
INSTRUMENTTYPE: LC-ESI-ITFT
INSTRUMENT: 
COLLISIONENERGY: 30
Comment: registered in MassBank
Num Peaks: 17
253.03	27
254.17999	26
255.13	147
256.07999	14
281.09	1000
282.20999	132
283.28	26
284.26999	18
377.23001	11
416.67999	10
419.38	33
420.14999	20
421.01999	6
438.22	298
439.29001	35
464.14999	36
465.16	22

NAME: Phosphatidylethanolamine alkyl 16
PRECURSORMZ: 732.591264
PRECURSORTYPE: [M-H]-
FORMULA: C41H84NO7P
Ontology: 1-alkyl,2-acylglycerophosphoethanolamines
INCHIKEY: HPGJUDXZGAWGNA-UHFFFAOYNA-N
SMILES: CCCCCCCCCCCCCCCCCCCC(=O)OC(COCCCCCCCCCCCCCCCC)COP(O)(=O)OCCN
RETENTIONTIME: 
CCS: -1
IONMODE: Negative
INSTRUMENTTYPE: LC-ESI-ITFT
INSTRUMENT: 
COLLISIONENERGY: 30
Comment: registered in MassBank
Num Peaks: 21
255.08	92
255.92	9
257.04001	14
283.31	28
284.23001	14
311.14001	1000
312.22	123
392	8
420.10999	46
438.32001	106
439.37	40
466.45999	9
468.59	15
494.19	15
568.28003	48
612.31	8
650.45001	107
672.38	62
689.56	12
696.15002	45
731.66998	13

NAME: Phosphatidylethanolamine alkyl 16
PRECURSORMZ: 724.528664
PRECURSORTYPE: [M-H]-
FORMULA: C41H76NO7P
Ontology: 1-alkyl,2-acylglycerophosphoethanolamines
INCHIKEY: MAYZJBKZHVGHAB-HNBVIXCXNA-N
SMILES: CCCCCCCCCCCCCCCCOCC(COP(O)(=O)OCCN)OC(=O)CC\C=C/C\C=C/C\C=C/C\C=C/CCCCCC
RETENTIONTIME: 
CCS: -1
IONMODE: Negative
INSTRUMENTTYPE: LC-ESI-ITFT
INSTRUMENT: 
COLLISIONENERGY: 30
Comment: registered in MassBank
Num Peaks: 12
258.94	98
259.78	10
279.12	50
280.22	12
281.19	25
303.07999	1000
304.12	153
419.13	10
420.14001	39
438.17001	604
439.10001	60
462.07999	8

NAME: Phosphatidylethanolamine alkyl 16
PRECURSORMZ: 752.559964
PRECURSORTYPE: [M-H]-
FORMULA: C43H80NO7P
Ontology: 1-alkyl,2-acylglycerophosphoethanolamines
INCHIKEY: LGZPAQOAFXJDTR-CBQGOMEFNA-N
SMILES: CCCCCCCCCCCCCCCCOCC(COP(O)(=O)OCCN)OC(=O)CC\C=C/C\C=C/C\C=C/C\C=C/CCCCCCCC
RETENTIONTIME: 
CCS: -1
IONMODE: Negative
INSTRUMENTTYPE: LC-ESI-ITFT
INSTRUMENT: 
COLLISIONENERGY: 30
Comment: registered in MassBank
Num Peaks: 18
233.21001	5
244.85001	11
271.13	14
287.04999	22
304.04001	8
305.31	15
307.23001	222
308.23001	22
312.07001	5
313.32999	9
331.10999	1000
332.12	180
401.01001	9
421.04001	31
438.10001	252
439.26999	57
462.20001	19
489.01999	6

NAME: Phosphatidylethanolamine alkyl 16
PRECURSORMZ: 748.528664
PRECURSORTYPE: [M-H]-
FORMULA: C43H76NO7P
Ontology: 1-alkyl,2-acylglycerophosphoethanolamines
INCHIKEY: JJMPYAHUHHQAJB-YKPVOZFUNA-N
SMILES: CCCCCCCCCCCCCCCCOCC(COP(O)(=O)OCCN)OC(=O)CC\C=C/C\C=C/C\C=C/C\C=C/C\C=C/C\C=C/CC
RETENTIONTIME: 
CCS: -1
IONMODE: Negative
INSTRUMENTTYPE: LC-ESI-ITFT
INSTRUMENT: 
COLLISIONENERGY: 30
Comment: registered in MassBank
Num Peaks: 31
229.05	21
249.07001	16
250.34	13
258.85001	10
259.60999	6
283.10999	695
284.14001	28
285.20999	53
286.16	13
303.06	206
304.31	20
309.37	10
325.20001	6
327.07999	962
328.20999	133
329.07999	547
330.17001	74
375.25	7
377.16	36
418.32001	43
419.20001	14
420.14999	149
421.39001	12
436.12	169
437.16	22
438.19	1000
439.10001	115
444.20999	14
462.07999	57
463.25	8
674.08002	47

NAME: Phosphatidylethanolamine alkyl 18
PRECURSORMZ: 704.559964
PRECURSORTYPE: [M-H]-
FORMULA: C39H80NO7P
Ontology: 1-alkyl,2-acylglycerophosphoethanolamines
INCHIKEY: FENSRZKRANTRCP-UHFFFAOYNA-N
SMILES: CCCCCCCCCCCCCCCCCCOCC(COP(O)(=O)OCCN)OC(=O)CCCCCCCCCCCCCCC
RETENTIONTIME: 
CCS: -1
IONMODE: Negative
INSTRUMENTTYPE: LC-ESI-ITFT
INSTRUMENT: 
COLLISIONENERGY: 30
Comment: registered in MassBank
Num Peaks: 15
255.00999	1000
256.03	133
282.26001	7
283.10001	47
284.19	9
390.84	15
405.23999	11
438.28	18
439.28	17
448.10999	58
466.22	266
467.20001	16
580.90997	10
644.29999	32
668.09998	15

NAME: Phosphatidylethanolamine alkyl 18
PRECURSORMZ: 730.575614
PRECURSORTYPE: [M-H]-
FORMULA: C41H82NO7P
Ontology: 1-alkyl,2-acylglycerophosphoethanolamines
INCHIKEY: LULOMARGYGRZLR-HYOGKJQXNA-N
SMILES: CCCCCCCCCCCCCCCCCCOCC(COP(O)(=O)OCCN)OC(=O)CC\C=C/CCCCCCCCCCCCC
RETENTIONTIME: 
CCS: -1
IONMODE: Negative
INSTRUMENTTYPE: LC-ESI-ITFT
INSTRUMENT: 
COLLISIONENERGY: 30
Comment: registered in MassBank
Num Peaks: 10
254.34	7
281.10999	1000
282.20999	135
309.12	54
310.20001	7
437.82999	15
448.17999	19
466.20001	251
467.26001	34
694.40002	7

NAME: Phosphatidylethanolamine alkyl 18
PRECURSORMZ: 760.622564
PRECURSORTYPE: [M-H]-
FORMULA: C43H88NO7P
Ontology: 1-alkyl,2-acylglycerophosphoethanolamines
INCHIKEY: CBAHOKDELPGZAO-UHFFFAOYNA-N
SMILES: CCCCCCCCCCCCCCCCCCCC(=O)OC(COCCCCCCCCCCCCCCCCCC)COP(O)(=O)OCCN
RETENTIONTIME: 
CCS: -1
IONMODE: Negative
INSTRUMENTTYPE: LC-ESI-ITFT
INSTRUMENT: 
COLLISIONENERGY: 30
Comment: registered in MassBank
Num Peaks: 22
256.35999	10
311.12	1000
312.28	60
339.25	243
340.14001	35
418.16	22
439.32001	55
466.23001	290
494.13	15
500.35999	25
593.77002	20
619.07001	45
641.62	32
673.20001	84
674.21997	37
677.39001	45
688.26001	12
700.31	144
700.90997	12
740.69	10
743.66998	27
761.41998	40

NAME: Phosphatidylethanolamine alkyl 18
PRECURSORMZ: 758.606914
PRECURSORTYPE: [M-H]-
FORMULA: C43H86NO7P
Ontology: 1-alkyl,2-acylglycerophosphoethanolamines
INCHIKEY: WLQZPEPFGFEUCQ-GCUVURNUNA-N
SMILES: CCCCCCCCCCCCCCCCCCOCC(COP(O)(=O)OCCN)OC(=O)CC\C=C/CCCCCCCCCCCCCCC
RETENTIONTIME: 
CCS: -1
IONMODE: Negative
INSTRUMENTTYPE: LC-ESI-ITFT
INSTRUMENT: 
COLLISIONENERGY: 30
Comment: registered in MassBank
Num Peaks: 18
281.14001	62
282.16	78
283.23999	9
309.07001	1000
310.12	169
311.09	131
312.16	35
337.20999	50
405.23999	6
438.10999	7
446.13	10
448.22	27
464.12	41
465.09	14
466.14001	200
467.22	31
492.23001	12
493.10999	12

NAME: Phosphatidylethanolamine alkyl 18
PRECURSORMZ: 752.559964
PRECURSORTYPE: [M-H]-
FORMULA: C43H80NO7P
Ontology: 1-alkyl,2-acylglycerophosphoethanolamines
INCHIKEY: DTYWTGFWGGLGBS-NZPWPDRSNA-N
SMILES: CCCCCCCCCCCCCCCCCCOCC(COP(O)(=O)OCCN)OC(=O)CC\C=C/C\C=C/C\C=C/C\C=C/CCCCCC
RETENTIONTIME: 
CCS: -1
IONMODE: Negative
INSTRUMENTTYPE: LC-ESI-ITFT
INSTRUMENT: 
COLLISIONENERGY: 30
Comment: registered in MassBank
Num Peaks: 16
259.03	107
285.64001	8
301.14999	9
303.01999	1000
304.07999	100
307.01999	21
333.14001	75
404.92001	20
448.14999	81
449.06	13
463.95999	17
466.13	536
467.16	136
628.88	7
670.40002	7
692.33002	15

NAME: Phosphatidylethanolamine alkyl 18
PRECURSORMZ: 780.591264
PRECURSORTYPE: [M-H]-
FORMULA: C45H84NO7P
Ontology: 1-alkyl,2-acylglycerophosphoethanolamines
INCHIKEY: ZGPUIIVBMRUOLZ-CXMGKGRNNA-N
SMILES: CCCCCCCCCCCCCCCCCCOCC(COP(O)(=O)OCCN)OC(=O)CC\C=C/C\C=C/C\C=C/C\C=C/CCCCCCCC
RETENTIONTIME: 
CCS: -1
IONMODE: Negative
INSTRUMENTTYPE: LC-ESI-ITFT
INSTRUMENT: 
COLLISIONENERGY: 30
Comment: registered in MassBank
Num Peaks: 21
279.98001	5
287.20001	34
306.69	10
307.32999	16
309.32001	9
331.10001	1000
332.17001	186
334.97	18
336.22	29
337.07001	97
338.19	18
405	15
448.26001	45
462.26001	10
466.14001	394
467.25	50
490.38	10
705.39001	5
720.25	8
720.87	6
762.15002	7

NAME: Phosphatidylethanolamine alkyl 18
PRECURSORMZ: 776.559964
PRECURSORTYPE: [M-H]-
FORMULA: C45H80NO7P
Ontology: 1-alkyl,2-acylglycerophosphoethanolamines
INCHIKEY: CFLIAMAPAOTPGM-NPBPTTFKNA-N
SMILES: CCCCCCCCCCCCCCCCCCOCC(COP(O)(=O)OCCN)OC(=O)CC\C=C/C\C=C/C\C=C/C\C=C/C\C=C/C\C=C/CC
RETENTIONTIME: 
CCS: -1
IONMODE: Negative
INSTRUMENTTYPE: LC-ESI-ITFT
INSTRUMENT: 
COLLISIONENERGY: 30
Comment: registered in MassBank
Num Peaks: 27
229.03999	17
249.00999	13
255.03	9
283.06	499
284.04999	57
285.10001	109
286.04999	12
308.84	9
327.07001	778
328.13	169
329.10999	933
330.13	69
332.14999	6
403.35001	18
405.14001	8
406.09	9
435.98999	5
444.06	6
446.17999	64
447.16	24
448.16	99
449.32999	17
464.14999	481
466.14999	1000
467.25	133
687.90997	5
702.09003	789

NAME: Phosphatidylethanolamine alkyl 18
PRECURSORMZ: 756.591264
PRECURSORTYPE: [M-H]-
FORMULA: C43H84NO7P
Ontology: 1-alkyl,2-acylglycerophosphoethanolamines
INCHIKEY: MECYDABSYWGKLH-SZDCHMHBNA-N
SMILES: CCCCCCCCCCCCCCC\C=C/CCC(=O)OC(COCCC\C=C/CCCCCCCCCCCCC)COP(O)(=O)OCCN
RETENTIONTIME: 
CCS: -1
IONMODE: Negative
INSTRUMENTTYPE: LC-ESI-ITFT
INSTRUMENT: 
COLLISIONENERGY: 30
Comment: registered in MassBank
Num Peaks: 9
309.04999	1000
310.22	166
311.10001	13
402.20001	7
417.01999	8
446.25	7
447.23999	7
464.14999	224
465.22	51

NAME: Phosphatidylethanolamine alkyl 18
PRECURSORMZ: 782.606914
PRECURSORTYPE: [M-H]-
FORMULA: C45H86NO7P
Ontology: 1-alkyl,2-acylglycerophosphoethanolamines
INCHIKEY: KGHOAIAMMAXYFK-LFBDKQGTNA-N
SMILES: CCCCCCCCCCCCCCCCC\C=C/CCC(=O)OC(COCCC\C=C/C\C=C/CCCCCCCCCC)COP(O)(=O)OCCN
RETENTIONTIME: 
CCS: -1
IONMODE: Negative
INSTRUMENTTYPE: LC-ESI-ITFT
INSTRUMENT: 
COLLISIONENERGY: 30
Comment: registered in MassBank
Num Peaks: 21
253.06	7
281.17999	122
282.09	8
309.07001	37
333.10001	15
337.16	1000
338.17999	130
339.14001	5
363.28	140
364.19	22
365.23001	5
401.20999	5
436.19	18
444.13	27
462.14999	130
463.23001	14
490.14001	10
500.14001	7
518.15997	35
620.34003	35
722.07001	5

NAME: Phosphatidylethanolamine lyso 16
PRECURSORMZ: 452.278263
PRECURSORTYPE: [M-H]-
FORMULA: C21H44NO7P
Ontology: 2-acyl-sn-glycero-3-phosphoethanolamines
INCHIKEY: CKPBBEOJHAPPBT-UHFFFAOYNA-N
SMILES: CCCCCCCCCCCCCCCC(=O)OC(CO)COP(O)(=O)OCCN
RETENTIONTIME: 
CCS: 251.8398466
IONMODE: Negative
INSTRUMENTTYPE: LC-ESI-ITFT
INSTRUMENT: 
COLLISIONENERGY: 30
Comment: registered in MassBank
Num Peaks: 3
195.87	21
213.89999	12
255.00999	1000

NAME: Phosphatidylethanolamine lyso 18
PRECURSORMZ: 480.309563
PRECURSORTYPE: [M-H]-
FORMULA: C23H48NO7P
Ontology: 2-acyl-sn-glycero-3-phosphoethanolamines
INCHIKEY: KIHAGWUUUHJRMS-UHFFFAOYNA-N
SMILES: CCCCCCCCCCCCCCCCCC(=O)OC(CO)COP(O)(=O)OCCN
RETENTIONTIME: 
CCS: 264.1964953
IONMODE: Negative
INSTRUMENTTYPE: LC-ESI-ITFT
INSTRUMENT: 
COLLISIONENERGY: 30
Comment: registered in MassBank
Num Peaks: 4
195.98	18
213.95	16
283.06	1000
284.04999	13

NAME: Phosphatidylethanolamine lyso 18
PRECURSORMZ: 478.293913
PRECURSORTYPE: [M-H]-
FORMULA: C23H46NO7P
Ontology: 2-acyl-sn-glycero-3-phosphoethanolamines
INCHIKEY: FEVAUEZKXSRQPS-PFONDFGANA-N
SMILES: CCCCCCCCCCCCC\C=C/CCC(=O)OC(CO)COP(O)(=O)OCCN
RETENTIONTIME: 
CCS: -1
IONMODE: Negative
INSTRUMENTTYPE: LC-ESI-ITFT
INSTRUMENT: 
COLLISIONENERGY: 30
Comment: registered in MassBank
Num Peaks: 3
213.87	20
281.10001	1000
303.01001	15

NAME: Phosphatidylethanolamine lyso 20
PRECURSORMZ: 506.325213
PRECURSORTYPE: [M-H]-
FORMULA: C25H50NO7P
Ontology: 2-acyl-sn-glycero-3-phosphoethanolamines
INCHIKEY: URXPORXPKXWHEF-MSUUIHNZNA-N
SMILES: CCCCCCCCCCCCCCC\C=C/CCC(=O)OC(CO)COP(O)(=O)OCCN
RETENTIONTIME: 
CCS: -1
IONMODE: Negative
INSTRUMENTTYPE: LC-ESI-ITFT
INSTRUMENT: 
COLLISIONENERGY: 30
Comment: registered in MassBank
Num Peaks: 9
213.83	60
281.01999	17
309.06	1000
310.32001	32
349.20999	15
392.04999	11
405.14999	25
408.51001	25
444.06	10

NAME: Phosphatidylethanolamine lyso 20
PRECURSORMZ: 500.278263
PRECURSORTYPE: [M-H]-
FORMULA: C25H44NO7P
Ontology: 2-acyl-sn-glycero-3-phosphoethanolamines
INCHIKEY: SOFGMCJQWLTKCE-ZKWNWVNENA-N
SMILES: CCCCCC\C=C/C\C=C/C\C=C/C\C=C/CCC(=O)OC(CO)COP(O)(=O)OCCN
RETENTIONTIME: 
CCS: -1
IONMODE: Negative
INSTRUMENTTYPE: LC-ESI-ITFT
INSTRUMENT: 
COLLISIONENERGY: 30
Comment: registered in MassBank
Num Peaks: 5
205.02	14
214	21
259.14001	84
303.06	1000
304.12	6

NAME: Phosphatidylethanolamine lyso 22
PRECURSORMZ: 528.309563
PRECURSORTYPE: [M-H]-
FORMULA: C27H48NO7P
Ontology: 2-acyl-sn-glycero-3-phosphoethanolamines
INCHIKEY: FGMFOVUNMMIBGB-SNPVRQPZNA-N
SMILES: CCCCCCCC\C=C/C\C=C/C\C=C/C\C=C/CCC(=O)OC(CO)COP(O)(=O)OCCN
RETENTIONTIME: 
CCS: -1
IONMODE: Negative
INSTRUMENTTYPE: LC-ESI-ITFT
INSTRUMENT: 
COLLISIONENERGY: 30
Comment: registered in MassBank
Num Peaks: 7
213.96001	13
287.14001	56
331.09	1000
332.10001	106
445.32001	7
446.29001	18
447.04999	37

NAME: Phosphatidylethanolamine lyso 22
PRECURSORMZ: 524.278263
PRECURSORTYPE: [M-H]-
FORMULA: C27H44NO7P
Ontology: 2-acyl-sn-glycero-3-phosphoethanolamines
INCHIKEY: TWBVHOYVCUOMJY-KUBAVDMBNA-N
SMILES: CC\C=C/C\C=C/C\C=C/C\C=C/C\C=C/C\C=C/CCC(=O)OC(CO)COP(O)(=O)OCCN
RETENTIONTIME: 
CCS: 293.7164849
IONMODE: Negative
INSTRUMENTTYPE: LC-ESI-ITFT
INSTRUMENT: 
COLLISIONENERGY: 30
Comment: registered in MassBank
Num Peaks: 9
191.11	29
195.89999	8
213.87	45
229.11	23
248.99001	14
283.07001	425
284.17999	19
327.01999	1000
328.04999	30

NAME: Phosphatidylethanolamine lyso alkenyl 16
PRECURSORMZ: 436.283348
PRECURSORTYPE: [M-H]-
FORMULA: C21H44NO6P
Ontology: Glycerophosphoethanolamines
INCHIKEY: LULXDGNUFGVYDS-BMRADRMJNA-N
SMILES: CCCCCCCCCCCCCC\C=C\OC(CO)COP(O)(=O)OCCN
RETENTIONTIME: 
CCS: -1
IONMODE: Negative
INSTRUMENTTYPE: LC-ESI-ITFT
INSTRUMENT: 
COLLISIONENERGY: 30
Comment: registered in MassBank
Num Peaks: 11
139.84	64
152.95	8
166.05	15
195.8	1000
196.83	26
206.69	5
239.19	262
346.10001	9
375.14001	664
376.26001	90
392.98999	36

NAME: Phosphatidylethanolamine lyso alkenyl 18
PRECURSORMZ: 464.314648
PRECURSORTYPE: [M-H]-
FORMULA: C23H48NO6P
Ontology: Glycerophosphoethanolamines
INCHIKEY: RGAPGIRIYHJSJY-HTXNQAPBNA-N
SMILES: CCCCCCCCCCCCCCCC\C=C\OC(CO)COP(O)(=O)OCCN
RETENTIONTIME: 
CCS: -1
IONMODE: Negative
INSTRUMENTTYPE: LC-ESI-ITFT
INSTRUMENT: 
COLLISIONENERGY: 30
Comment: registered in MassBank
Num Peaks: 18
139.84	90
152.84	11
165.67999	13
195.86	1000
197.06	20
265.14001	11
267.10001	253
268.04001	18
361.72	6
365.70999	15
366.45999	6
382.73999	7
403.04999	809
404.10999	113
407.10999	11
417.07001	8
421.56	5
444.07999	17

NAME: Phosphatidylethanolamine lyso alkenyl 18
PRECURSORMZ: 462.298998
PRECURSORTYPE: [M-H]-
FORMULA: C23H46NO6P
Ontology: Glycerophosphoethanolamines
INCHIKEY: KBMHJSYYECHZKI-QOLMDKRLNA-N
SMILES: CCCCCCCCCCCCC\C=C/C\C=C\OC(CO)COP(O)(=O)OCCN
RETENTIONTIME: 
CCS: -1
IONMODE: Negative
INSTRUMENTTYPE: LC-ESI-ITFT
INSTRUMENT: 
COLLISIONENERGY: 30
Comment: registered in MassBank
Num Peaks: 12
134.72	5
139.88	58
152.89999	10
195.83	1000
265.16	210
266.10001	9
313.73999	6
359	5
401.16	617
402.14999	100
419.13	40
435.09	9

NAME: Phosphatidylglyceride 16
PRECURSORMZ: 769.502509
PRECURSORTYPE: [M-H]-
FORMULA: C42H75O10P
Ontology: Phosphatidylglycerols
INCHIKEY: UAEIOGMLUFANFU-WRDNLCFKNA-N
SMILES: CCCCCCCCCCCCCCCC(=O)OCC(COP(O)(=O)OCC(O)CO)OC(=O)CC\C=C/C\C=C/C\C=C/C\C=C/CCCCCC
RETENTIONTIME: 
CCS: -1
IONMODE: Negative
INSTRUMENTTYPE: LC-ESI-ITFT
INSTRUMENT: 
COLLISIONENERGY: 30
Comment: registered in MassBank
Num Peaks: 27
249.17	17
255.13	248
256.03	43
259.06	19
283.16	147
303.09	1000
304.16	98
326.45001	16
327.25	138
368.51999	11
388.88	24
390.97	99
391.98001	47
439.14999	55
440.23001	14
441.72	14
460.03	97
465.07001	63
466.03	8
483.03	156
484.10999	51
505.98999	14
512.90997	24
708.46002	38
709.20001	8
723.46997	18
726.65997	18

NAME: Phosphatidylglyceride 18
PRECURSORMZ: 797.533809
PRECURSORTYPE: [M-H]-
FORMULA: C44H79O10P
Ontology: Phosphatidylglycerols
INCHIKEY: ZLCQYNUSDYQZNJ-NQWSYULSNA-N
SMILES: CCCCCCCCCCCCCCCCCC(=O)OCC(COP(O)(=O)OCC(O)CO)OC(=O)CC\C=C/C\C=C/C\C=C/C\C=C/CCCCCC
RETENTIONTIME: 
CCS: -1
IONMODE: Negative
INSTRUMENTTYPE: LC-ESI-ITFT
INSTRUMENT: 
COLLISIONENERGY: 30
Comment: registered in MassBank
Num Peaks: 23
226.77	18
259.10999	48
259.95999	22
283.07999	551
284.16	65
303.10999	1000
304.10999	180
327.38	8
419.14001	80
420.20001	35
438.94	21
493.01001	46
511.07999	268
511.70999	38
512.71002	102
531.16998	14
710.23999	24
714.01001	19
715.28998	38
723.09003	16
732.76001	37
751.20001	11
753.53998	14

NAME: Phosphatidylglyceride 18
PRECURSORMZ: 821.533809
PRECURSORTYPE: [M-H]-
FORMULA: C46H79O10P
Ontology: Phosphatidylglycerols
INCHIKEY: CLQKBJHAUYGCOB-HSBBONCLNA-N
SMILES: CCCCCCCCCCCCCCCCCC(=O)OCC(COP(O)(=O)OCC(O)CO)OC(=O)CC\C=C/C\C=C/C\C=C/C\C=C/C\C=C/C\C=C/CC
RETENTIONTIME: 
CCS: 415.2281126
IONMODE: Negative
INSTRUMENTTYPE: LC-ESI-ITFT
INSTRUMENT: 
COLLISIONENERGY: 30
Comment: registered in MassBank
Num Peaks: 41
242.98	6
259.17001	8
269.16	7
283.10001	505
284.07999	58
303.14001	6
327.10001	327
328.09	46
405.23001	33
406.01001	8
418.98001	40
419.78	13
423.22	6
462.85999	39
493.14999	64
507.14001	5
511.06	147
512.02002	32
522.31	8
536.90002	9
538.02002	6
539.02002	59
540.13	185
541.13	60
541.89001	13
563.31	17
564.25	13
566.53003	10
567.57001	10
716.07001	9
733.02002	259
734.12	96
738.13	1000
739.17999	415
746.04999	34
767.98999	9
769.98999	7
804.71002	11
819.72998	9
820.37	248
821.31	19

NAME: Phosphatidylglyceride 18
PRECURSORMZ: 795.518159
PRECURSORTYPE: [M-H]-
FORMULA: C44H77O10P
Ontology: Phosphatidylglycerols
INCHIKEY: ITIOHRDVKOPUBF-MOYSMJPMNA-N
SMILES: CCCCCCCCCCCCC\C=C/CCC(=O)OCC(COP(O)(=O)OCC(O)CO)OC(=O)CC\C=C/C\C=C/C\C=C/C\C=C/CCCCCC
RETENTIONTIME: 
CCS: -1
IONMODE: Negative
INSTRUMENTTYPE: LC-ESI-ITFT
INSTRUMENT: 
COLLISIONENERGY: 30
Comment: registered in MassBank
Num Peaks: 15
259.07001	84
281.29001	785
282.25	84
303.17999	570
304.23001	65
458.09	121
509.17999	84
561.22998	93
595.62	93
620.37	121
666.81	75
730.78003	1000
731.62	112
735.37	121
771.34998	37

NAME: Phosphatidylglyceride 18
PRECURSORMZ: 819.518159
PRECURSORTYPE: [M-H]-
FORMULA: C46H77O10P
Ontology: Phosphatidylglycerols
INCHIKEY: VGGGUMPTGJTNFQ-QRPORDCINA-N
SMILES: CCCCCCCCCCCCC\C=C/CCC(=O)OCC(COP(O)(=O)OCC(O)CO)OC(=O)CC\C=C/C\C=C/C\C=C/C\C=C/C\C=C/C\C=C/CC
RETENTIONTIME: 
CCS: -1
IONMODE: Negative
INSTRUMENTTYPE: LC-ESI-ITFT
INSTRUMENT: 
COLLISIONENERGY: 30
Comment: registered in MassBank
Num Peaks: 16
249.11	99
259.23001	74
281.17001	1000
282.03	198
283.03	388
283.91	41
325.25	116
327.22	157
327.97	149
416.98999	83
462.95001	116
478.32001	58
490.89001	207
537.04999	33
737.96002	66
758.53003	74

NAME: Phosphatidylglyceride 18
PRECURSORMZ: 817.502509
PRECURSORTYPE: [M-H]-
FORMULA: C46H75O10P
Ontology: Phosphatidylglycerols
INCHIKEY: QVDNNCVPBKNHNS-XPMHQQHXNA-N
SMILES: CCCCCCCCCC\C=C/C\C=C/CCC(=O)OCC(COP(O)(=O)OCC(O)CO)OC(=O)CC\C=C/C\C=C/C\C=C/C\C=C/C\C=C/C\C=C/CC
RETENTIONTIME: 
CCS: -1
IONMODE: Negative
INSTRUMENTTYPE: LC-ESI-ITFT
INSTRUMENT: 
COLLISIONENERGY: 30
Comment: registered in MassBank
Num Peaks: 19
279.07999	1000
280.20001	65
281.06	46
283.25	380
326.98001	546
328.23999	167
408.69	65
463.19	213
506.82999	83
531.66998	139
556.27002	102
694.47998	56
743.09003	83
743.75	46
756.95001	139
765.38	120
774.31	46
784.90002	130
785.72998	74

NAME: Phosphatidylglyceride 20
PRECURSORMZ: 841.502509
PRECURSORTYPE: [M-H]-
FORMULA: C48H75O10P
Ontology: Phosphatidylglycerols
INCHIKEY: WAHLPBOVXFIGAP-YARNEYDXNA-N
SMILES: CCCCCC\C=C/C\C=C/C\C=C/C\C=C/CCC(=O)OCC(COP(O)(=O)OCC(O)CO)OC(=O)CC\C=C/C\C=C/C\C=C/C\C=C/C\C=C/C\C=C/CC
RETENTIONTIME: 
CCS: -1
IONMODE: Negative
INSTRUMENTTYPE: LC-ESI-ITFT
INSTRUMENT: 
COLLISIONENERGY: 30
Comment: registered in MassBank
Num Peaks: 18
259.39999	18
268.23999	18
283.07001	209
284.07001	47
285.29999	31
303.07999	1000
304.20001	123
314.13	18
327.13	393
333.51001	52
439.09	26
530.78003	110
536.98999	24
664.06	21
665.19	18
672.90997	24
678.79999	79
781.81	52

NAME: Phosphatidylglyceride 22
PRECURSORMZ: 869.533809
PRECURSORTYPE: [M-H]-
FORMULA: C50H79O10P
Ontology: Phosphatidylglycerols
INCHIKEY: NKQMVGLKBUHTCY-JKIJTENUNA-N
SMILES: CCCCCCCC\C=C/C\C=C/C\C=C/C\C=C/CCC(=O)OC(COC(=O)CC\C=C/C\C=C/C\C=C/C\C=C/C\C=C/C\C=C/CC)COP(O)(=O)OCC(O)CO
RETENTIONTIME: 
CCS: -1
IONMODE: Negative
INSTRUMENTTYPE: LC-ESI-ITFT
INSTRUMENT: 
COLLISIONENERGY: 30
Comment: registered in MassBank
Num Peaks: 6
327.34	1000
331.32999	486
541.38	800
809.14001	457
829.54999	800
869.42999	600

NAME: Phosphatidylglyceride 22
PRECURSORMZ: 819.518159
PRECURSORTYPE: [M-H]-
FORMULA: C46H77O10P
Ontology: Phosphatidylglycerols
INCHIKEY: VGGGUMPTGJTNFQ-QRPORDCINA-N
SMILES: CCCCCCCCCCCCC\C=C/CCC(=O)OCC(COP(O)(=O)OCC(O)CO)OC(=O)CC\C=C/C\C=C/C\C=C/C\C=C/C\C=C/C\C=C/CC
RETENTIONTIME: 
CCS: -1
IONMODE: Negative
INSTRUMENTTYPE: LC-ESI-ITFT
INSTRUMENT: 
COLLISIONENERGY: 30
Comment: registered in MassBank
Num Peaks: 5
327.20999	1000
329	758
508.35001	455
649.84998	182
816.19	636

NAME: Phosphatidylglyceride 22
PRECURSORMZ: 865.502509
PRECURSORTYPE: [M-H]-
FORMULA: C50H75O10P
Ontology: Phosphatidylglycerols
INCHIKEY: XACKZSRNTPEYBU-GZSOIYOPNA-N
SMILES: CC\C=C/C\C=C/C\C=C/C\C=C/C\C=C/C\C=C/CCC(=O)OCC(COP(O)(=O)OCC(O)CO)OC(=O)CC\C=C/C\C=C/C\C=C/C\C=C/C\C=C/C\C=C/CC
RETENTIONTIME: 
CCS: 424.3166899
IONMODE: Negative
INSTRUMENTTYPE: LC-ESI-ITFT
INSTRUMENT: 
COLLISIONENERGY: 30
Comment: registered in MassBank
Num Peaks: 18
283.06	486
283.92999	83
327.14001	1000
328.17999	117
333.03	26
463.03	182
536.94	85
538.15997	8
542.70001	32
551.22998	8
555.06	62
560.40002	11
784.19	21
790.96002	10
805.54999	24
821.39001	21
847.04999	22
848.59003	37

NAME: Phosphatidylinositol 16
PRECURSORMZ: 835.534203
PRECURSORTYPE: [M-H]-
FORMULA: C43H81O13P
Ontology: Phosphatidylinositols
INCHIKEY: IBBOEPTXNHPBRH-AFOMSZMQSA-N
SMILES: CCCCCCCCCCCCCCCC(=O)OCC(COP(O)(=O)O[C@H]1[C@H](O)[C@@H](O)[C@H](O)[C@@H](O)[C@H]1O)OC(=O)CC\C=C/CCCCCCCCCCCCC
RETENTIONTIME: 
CCS: -1
IONMODE: Negative
INSTRUMENTTYPE: LC-ESI-ITFT
INSTRUMENT: 
COLLISIONENERGY: 30
Comment: registered in MassBank
Num Peaks: 31
240.91	91
255.14	178
256.07999	22
258.97	13
281.10999	220
282.34	41
296.79999	98
297.76001	10
298.82999	17
314.89001	28
390.98001	172
391.95999	26
408.94	7
417.13	162
418.04001	23
525.01001	86
526.16998	22
553.12	1000
554.15997	240
571.04999	51
572.09003	26
579.15002	836
580.08002	209
597.01001	29
598.06	12
607.07001	49
608.21997	10
673.07001	13
747.72998	15
748.56	6
835.26001	25

NAME: Phosphatidylinositol 16
PRECURSORMZ: 859.534203
PRECURSORTYPE: [M-H]-
FORMULA: C45H81O13P
Ontology: Phosphatidylinositols
INCHIKEY: TYVNWAWTRSCTFD-PSOMHJJNSA-N
SMILES: CCCCCCCCCCCCCCCC(=O)OCC(COP(O)(=O)O[C@H]1[C@H](O)[C@@H](O)[C@H](O)[C@@H](O)[C@H]1O)OC(=O)CC\C=C/C\C=C/C\C=C/CCCCCCCCC
RETENTIONTIME: 
CCS: -1
IONMODE: Negative
INSTRUMENTTYPE: LC-ESI-ITFT
INSTRUMENT: 
COLLISIONENERGY: 30
Comment: registered in MassBank
Num Peaks: 33
240.99001	73
255.12	333
256.39999	81
258.88	45
260.94	12
296.88	130
297.87	20
304.07999	77
305.17999	61
305.97	53
306.92001	61
390.95999	1000
391.66	28
392.29001	37
409.23999	20
439.94	24
440.82999	325
442.54001	20
444.34	93
445.32999	73
463.23001	37
478.60001	45
553.15997	659
554.03003	244
571.27002	122
603.08002	484
604.09003	98
653.94	65
772.03998	183
776.77002	37
777.53003	20
785.29999	49
799.23999	69

NAME: Phosphatidylinositol 16
PRECURSORMZ: 857.518553
PRECURSORTYPE: [M-H]-
FORMULA: C45H79O13P
Ontology: Phosphatidylinositols
INCHIKEY: QAOYQEIOBPZFPB-VHZSRAIHSA-N
SMILES: CCCCCCCCCCCCCCCC(=O)OCC(COP(O)(=O)O[C@H]1[C@H](O)[C@@H](O)[C@H](O)[C@@H](O)[C@H]1O)OC(=O)CC\C=C/C\C=C/C\C=C/C\C=C/CCCCCC
RETENTIONTIME: 
CCS: -1
IONMODE: Negative
INSTRUMENTTYPE: LC-ESI-ITFT
INSTRUMENT: 
COLLISIONENERGY: 30
Comment: registered in MassBank
Num Peaks: 25
240.87	59
242	12
255.06	363
256.07001	35
259.06	19
296.95999	135
297.97	21
303.10999	219
304.16	36
315.01001	45
390.95999	492
391.97	74
409.06	22
410.10001	7
439.01999	80
439.98999	7
457.16	8
458.37	5
553.04999	1000
554.03998	177
571.07001	226
572.26001	47
601.03003	186
601.94	33
619.02002	16

NAME: Phosphatidylinositol 16
PRECURSORMZ: 855.502903
PRECURSORTYPE: [M-H]-
FORMULA: C45H77O13P
Ontology: Phosphatidylinositols
INCHIKEY: CTYGZBOFLKSVSJ-AYZKUARYSA-N
SMILES: CCCCCCCCCCCCCCCC(=O)OCC(COP(O)(=O)O[C@H]1[C@H](O)[C@@H](O)[C@H](O)[C@@H](O)[C@H]1O)OC(=O)CC\C=C/C\C=C/C\C=C/C\C=C/C\C=C/CCC
RETENTIONTIME: 
CCS: -1
IONMODE: Negative
INSTRUMENTTYPE: LC-ESI-ITFT
INSTRUMENT: 
COLLISIONENERGY: 30
Comment: registered in MassBank
Num Peaks: 25
240.89999	55
255.10001	272
256.22	51
296.82001	60
301.17001	23
302.06	23
303.22	46
304.29999	60
391	318
392.17001	37
408.60001	46
437.04001	161
440.17999	101
462.88	37
498.04999	78
553.08002	433
554	143
571.22998	65
572.19	78
599.25	88
617.26001	65
767.89001	1000
769	78
805.17999	69
835.26001	37

NAME: Phosphatidylinositol 16
PRECURSORMZ: 833.518553
PRECURSORTYPE: [M-H]-
FORMULA: C43H79O13P
Ontology: Phosphatidylinositols
INCHIKEY: KIDMVLLBZCDJPI-BDZOPLRHSA-N
SMILES: CCCCCCCCCCCCC\C=C/CCC(=O)OC(COC(=O)CC\C=C/CCCCCCCCCCC)COP(O)(=O)O[C@H]1[C@H](O)[C@@H](O)[C@H](O)[C@@H](O)[C@H]1O
RETENTIONTIME: 
CCS: -1
IONMODE: Negative
INSTRUMENTTYPE: LC-ESI-ITFT
INSTRUMENT: 
COLLISIONENERGY: 30
Comment: registered in MassBank
Num Peaks: 15
241	61
281.23001	331
282.25	116
296.97	94
388.97	166
416.95999	265
418.31	88
550.96002	591
552.14001	55
579.12	1000
580.06	166
597.09998	238
647.72998	83
759.22998	44
773.03998	122

NAME: Phosphatidylinositol 16
PRECURSORMZ: 855.502903
PRECURSORTYPE: [M-H]-
FORMULA: C45H77O13P
Ontology: Phosphatidylinositols
INCHIKEY: BYKLOOOZTSWGPM-PREZKPSWSA-N
SMILES: CCCCCCCCCCC\C=C/CCC(=O)OCC(COP(O)(=O)O[C@H]1[C@H](O)[C@@H](O)[C@H](O)[C@@H](O)[C@H]1O)OC(=O)CC\C=C/C\C=C/C\C=C/C\C=C/CCCCCC
RETENTIONTIME: 
CCS: -1
IONMODE: Negative
INSTRUMENTTYPE: LC-ESI-ITFT
INSTRUMENT: 
COLLISIONENERGY: 30
Comment: registered in MassBank
Num Peaks: 15
241.05	52
252.94	259
254.00999	34
296.76001	43
303.26001	181
304.22	155
389.22	457
438.60999	86
550.96002	1000
552.17999	69
568.84998	621
569.66998	103
601.21997	69
679.57001	233
768.12	78

NAME: Phosphatidylinositol 17
PRECURSORMZ: 871.534203
PRECURSORTYPE: [M-H]-
FORMULA: C46H81O13P
Ontology: Phosphatidylinositols
INCHIKEY: DFLHJZQZIPIWSG-VAUUZOHPSA-N
SMILES: CCCCCCCCCCCCCCCCC(=O)OCC(COP(O)(=O)O[C@H]1[C@H](O)[C@@H](O)[C@H](O)[C@@H](O)[C@H]1O)OC(=O)CC\C=C/C\C=C/C\C=C/C\C=C/CCCCCC
RETENTIONTIME: 
CCS: -1
IONMODE: Negative
INSTRUMENTTYPE: LC-ESI-ITFT
INSTRUMENT: 
COLLISIONENERGY: 30
Comment: registered in MassBank
Num Peaks: 20
259.01001	16
269.20001	322
270.17999	25
296.76999	117
303.20001	135
315.04999	11
404.95999	319
405.98001	22
439.28	9
479.28	6
567.01001	427
568.02002	94
585.02002	99
585.97998	30
601.04999	95
710.42999	8
787.82001	36
789.02002	1000
789.77002	14
834.78003	8

NAME: Phosphatidylinositol 18
PRECURSORMZ: 887.565503
PRECURSORTYPE: [M-H]-
FORMULA: C47H85O13P
Ontology: Phosphatidylinositols
INCHIKEY: IVPVQEZYLVFIGH-FLPISHNPSA-N
SMILES: CCCCCCCCCCCCCCCCCC(=O)OCC(COP(O)(=O)O[C@H]1[C@H](O)[C@@H](O)[C@H](O)[C@@H](O)[C@H]1O)OC(=O)CC\C=C/C\C=C/C\C=C/CCCCCCCCC
RETENTIONTIME: 
CCS: -1
IONMODE: Negative
INSTRUMENTTYPE: LC-ESI-ITFT
INSTRUMENT: 
COLLISIONENERGY: 30
Comment: registered in MassBank
Num Peaks: 31
259.09	18
283.10001	1000
284.35999	77
296.89001	110
298.16	22
303.34	10
305.14999	381
314.89999	82
316.07999	9
418.54001	104
419.16	692
420.14999	27
437.14999	45
440.91	115
525.06	10
539.09998	22
581.04999	982
582.21997	94
599.15997	228
600.28998	16
602.41998	12
603.09998	205
604.25	43
604.88	16
622.15997	24
704.09998	10
725.12	15
734.35999	31
793.08002	30
806.41998	24
851.21997	7

NAME: Phosphatidylinositol 18
PRECURSORMZ: 885.549853
PRECURSORTYPE: [M-H]-
FORMULA: C47H83O13P
Ontology: Phosphatidylinositols
INCHIKEY: QTBZDDLLDFZGQX-KVUJAYRISA-N
SMILES: CCCCCCCCCCCCCCCCCC(=O)OCC(COP(O)(=O)O[C@H]1[C@H](O)[C@@H](O)[C@H](O)[C@@H](O)[C@H]1O)OC(=O)CC\C=C/C\C=C/C\C=C/C\C=C/CCCCCC
RETENTIONTIME: 
CCS: -1
IONMODE: Negative
INSTRUMENTTYPE: LC-ESI-ITFT
INSTRUMENT: 
COLLISIONENERGY: 30
Comment: registered in MassBank
Num Peaks: 22
259.03	10
283.07999	645
284.32001	42
296.98001	157
303	186
303.87	6
304.54001	14
315.10999	9
419.01001	665
420.09	74
437.14999	29
438.39999	17
439.07001	61
440.12	8
581.08002	1000
582.13	117
599.13	248
600.87	219
601.5	17
602.17999	33
618.90002	13
619.98999	8

NAME: Phosphatidylinositol 18
PRECURSORMZ: 913.581153
PRECURSORTYPE: [M-H]-
FORMULA: C49H87O13P
Ontology: Phosphatidylinositols
INCHIKEY: LBMMQTGWTSTFIZ-WJEBLFDXSA-N
SMILES: CCCCCCCCCCCCCCCCCC(=O)OCC(COP(O)(=O)O[C@H]1[C@H](O)[C@@H](O)[C@H](O)[C@@H](O)[C@H]1O)OC(=O)CC\C=C/C\C=C/C\C=C/C\C=C/CCCCCCCC
RETENTIONTIME: 
CCS: -1
IONMODE: Negative
INSTRUMENTTYPE: LC-ESI-ITFT
INSTRUMENT: 
COLLISIONENERGY: 30
Comment: registered in MassBank
Num Peaks: 16
283.09	479
284.28	275
287.09	93
296.63	30
331.16	415
331.98999	51
419.12	767
437.12	51
466.95001	93
581.09003	1000
599.07001	318
600.32001	51
629.33002	212
630.15002	64
745.40002	21
834.46002	131

NAME: Phosphatidylinositol 18
PRECURSORMZ: 909.549853
PRECURSORTYPE: [M-H]-
FORMULA: C49H83O13P
Ontology: Phosphatidylinositols
INCHIKEY: DJVOKHFQPGWUPK-CONVNOKZSA-N
SMILES: CCCCCCCCCCCCCCCCCC(=O)OCC(COP(O)(=O)O[C@H]1[C@H](O)[C@@H](O)[C@H](O)[C@@H](O)[C@H]1O)OC(=O)CC\C=C/C\C=C/C\C=C/C\C=C/C\C=C/C\C=C/CC
RETENTIONTIME: 
CCS: 418.8282198
IONMODE: Negative
INSTRUMENTTYPE: LC-ESI-ITFT
INSTRUMENT: 
COLLISIONENERGY: 30
Comment: registered in MassBank
Num Peaks: 24
258.97	15
282.95001	722
283.95001	25
297.01999	158
314.87	49
327.22	105
419.14999	534
420.16	39
437.32999	40
463	12
524.89001	15
562.12	19
581.03998	1000
582.04999	127
599.15997	296
600.16998	72
604.14001	12
624.97998	164
626.33002	12
643.37	31
748.22998	6
750.32001	21
766.31	21
822.88	6

NAME: Phosphatidylinositol 18
PRECURSORMZ: 863.565503
PRECURSORTYPE: [M-H]-
FORMULA: C45H85O13P
Ontology: Phosphatidylinositols
INCHIKEY: WQMQEJCRDIIRGN-VWFGVUABSA-N
SMILES: CCCCCCCCCCCCCCCCCC(=O)OC(COC(=O)CC\C=C/CCCCCCCCCCCCC)COP(O)(=O)O[C@H]1[C@H](O)[C@@H](O)[C@H](O)[C@@H](O)[C@H]1O
RETENTIONTIME: 
CCS: -1
IONMODE: Negative
INSTRUMENTTYPE: LC-ESI-ITFT
INSTRUMENT: 
COLLISIONENERGY: 30
Comment: registered in MassBank
Num Peaks: 45
241.87	13
258.95001	11
281.13	97
282.14001	44
283.16	934
284.03	165
296.97	134
297.81	33
315.07001	21
356.45001	27
391.29999	21
416.84	98
418.95999	699
420	54
437.03	38
456.88	24
524.25	25
542.01001	9
553.10999	104
554.20001	21
579.16998	384
579.91998	27
581.09003	1000
582.10999	258
582.85999	13
597.10999	24
598.33002	22
599.06	134
599.87	8
607.34998	32
608.45001	21
635.31	59
700.85999	9
702.23999	13
751.14001	40
751.96002	19
753.34003	17
766.21002	43
776.14001	163
777.44	59
781.75	11
789.21002	35
843.60999	13
862.45001	16
863.37	28

NAME: Phosphatidylinositol 18
PRECURSORMZ: 861.549853
PRECURSORTYPE: [M-H]-
FORMULA: C45H83O13P
Ontology: Phosphatidylinositols
INCHIKEY: OEIRDSPUMTVTLZ-ZKCAXHNESA-N
SMILES: CCCCCCCCCCCCC\C=C/CCC(=O)OCC(COP(O)(=O)O[C@H]1[C@H](O)[C@@H](O)[C@H](O)[C@@H](O)[C@H]1O)OC(=O)CC\C=C/CCCCCCCCCCCCC
RETENTIONTIME: 
CCS: -1
IONMODE: Negative
INSTRUMENTTYPE: LC-ESI-ITFT
INSTRUMENT: 
COLLISIONENERGY: 30
Comment: registered in MassBank
Num Peaks: 18
281.10999	247
282.04999	33
296.87	32
299.09	12
416.95001	152
418.06	29
551.15997	173
552.35999	30
579.12	1000
580.20001	217
597.10999	52
598.07001	16
607.15997	147
608.15002	45
774.03998	8
787.21002	6
860.5	15
861.38	28

NAME: Phosphatidylinositol 20
PRECURSORMZ: 905.518553
PRECURSORTYPE: [M-H]-
FORMULA: C49H79O13P
Ontology: Phosphatidylinositols
INCHIKEY: BQGBJGDIIRNCBP-WLQFNMGVSA-N
SMILES: CCCCCC\C=C/C\C=C/C\C=C/C\C=C/CCC(=O)OCC(COP(O)(=O)O[C@H]1[C@H](O)[C@@H](O)[C@H](O)[C@@H](O)[C@H]1O)OC(=O)CC\C=C/C\C=C/C\C=C/C\C=C/CCCCCC
RETENTIONTIME: 
CCS: -1
IONMODE: Negative
INSTRUMENTTYPE: LC-ESI-ITFT
INSTRUMENT: 
COLLISIONENERGY: 30
Comment: registered in MassBank
Num Peaks: 14
279.32999	98
303.07999	732
319.04999	24
373.31	220
415.20001	110
439.06	860
440.32001	55
577.04999	122
601.14001	1000
602.08002	268
619.17999	232
619.90002	128
693.83002	98
847.35999	30

NAME: Phosphatidylinositol lyso 16
PRECURSORMZ: 571.288887
PRECURSORTYPE: [M-H]-
FORMULA: C25H49O12P
Ontology: 2-acyl-sn-glycerol-3-phosphoinositols
INCHIKEY: NUDRHGDMWNFXMD-PYXWJOJKSA-N
SMILES: CCCCCCCCCCCCCCCC(=O)OC(CO)COP(O)(=O)O[C@H]1[C@H](O)[C@@H](O)[C@H](O)[C@@H](O)[C@H]1O
RETENTIONTIME: 
CCS: -1
IONMODE: Negative
INSTRUMENTTYPE: LC-ESI-ITFT
INSTRUMENT: 
COLLISIONENERGY: 30
Comment: registered in MassBank
Num Peaks: 19
240.89999	444
241.86	75
255.03999	1000
255.92	126
312.95999	17
314.81	437
355.10999	44
390.89999	307
428.95001	130
454.85999	44
481.39001	102
488.38	14
489.79999	72
510.82001	106
512.53998	17
527.22998	27
538.96002	31
543.38	38
556.58002	38

NAME: Phosphatidylinositol lyso 18
PRECURSORMZ: 599.320187
PRECURSORTYPE: [M-H]-
FORMULA: C27H53O12P
Ontology: 2-acyl-sn-glycerol-3-phosphoinositols
INCHIKEY: AGVRWBBFKKEVAX-WAPMBQLLSA-N
SMILES: CCCCCCCCCCCCCCCCCC(=O)OC(CO)COP(O)(=O)O[C@H]1[C@H](O)[C@@H](O)[C@H](O)[C@@H](O)[C@H]1O
RETENTIONTIME: 
CCS: 275.2004289
IONMODE: Negative
INSTRUMENTTYPE: LC-ESI-ITFT
INSTRUMENT: 
COLLISIONENERGY: 30
Comment: registered in MassBank
Num Peaks: 10
222.94	20
240.84	346
283.16	1000
284.14999	79
314.95999	420
316.14001	9
332.79999	14
418.94	575
419.97	52
599.19	7

NAME: Phosphatidylinositol lyso 18
PRECURSORMZ: 597.304537
PRECURSORTYPE: [M-H]-
FORMULA: C27H51O12P
Ontology: 2-acyl-sn-glycerol-3-phosphoinositols
INCHIKEY: OVHGUPNHWUHPOM-DBFVMBBUSA-N
SMILES: CCCCCCCCCCCCC\C=C/CCC(=O)OC(CO)COP(O)(=O)O[C@H]1[C@H](O)[C@@H](O)[C@H](O)[C@@H](O)[C@H]1O
RETENTIONTIME: 
CCS: -1
IONMODE: Negative
INSTRUMENTTYPE: LC-ESI-ITFT
INSTRUMENT: 
COLLISIONENERGY: 30
Comment: registered in MassBank
Num Peaks: 23
222.99001	42
236.89999	23
240.74001	290
254.12	48
281.09	1000
282	103
290.17001	13
314.84	319
366.89001	126
386.98999	19
394.98999	29
416.95999	432
451.10999	26
454.76999	26
462.89999	19
480.95001	45
487.95999	74
498.85999	19
515.14001	123
515.95001	39
537.02002	52
564.92999	106
566.57001	26

NAME: Phosphatidylinositol lyso 20
PRECURSORMZ: 619.288887
PRECURSORTYPE: [M-H]-
FORMULA: C29H49O12P
Ontology: 2-acyl-sn-glycerol-3-phosphoinositols
INCHIKEY: GCTCZDZDLCVEBR-BMBRPNNFSA-N
SMILES: CCCCCC\C=C/C\C=C/C\C=C/C\C=C/CCC(=O)OC(CO)COP(O)(=O)O[C@H]1[C@H](O)[C@@H](O)[C@H](O)[C@@H](O)[C@H]1O
RETENTIONTIME: 
CCS: -1
IONMODE: Negative
INSTRUMENTTYPE: LC-ESI-ITFT
INSTRUMENT: 
COLLISIONENERGY: 30
Comment: registered in MassBank
Num Peaks: 18
222.82001	129
240.74001	241
303.10001	1000
314.98999	310
316.01999	284
333.10999	52
335.29001	207
414.62	60
439.06	578
439.89001	78
475.87	43
520.22998	60
536.70001	43
538.06	103
547.16998	112
559.10999	147
562.16998	43
595.40002	52

NAME: Phosphatidylserine 16
PRECURSORMZ: 806.497758
PRECURSORTYPE: [M-H]-
FORMULA: C44H74NO10P
Ontology: Phosphatidylserines
INCHIKEY: PWBBJQOVCTWPIM-LGFBOSHVNA-N
SMILES: CCCCCCCCCCCCCCCC(=O)OCC(COP(O)(=O)OCC(N)C(O)=O)OC(=O)CC\C=C/C\C=C/C\C=C/C\C=C/C\C=C/C\C=C/CC
RETENTIONTIME: 
CCS: 392.052821
IONMODE: Negative
INSTRUMENTTYPE: LC-ESI-ITFT
INSTRUMENT: 
COLLISIONENERGY: 30
Comment: registered in MassBank
Num Peaks: 18
255.12	24
298.98999	7
391.04999	152
391.92999	28
409.10999	45
463.20999	15
540.13	15
551	136
553.09003	36
553.92999	15
717.13	8
718.92999	1000
720.03003	461
732.21997	20
742.82001	14
753.71002	21
804.98999	6
806.15002	19

NAME: Phosphatidylserine 18
PRECURSORMZ: 816.576008
PRECURSORTYPE: [M-H]-
FORMULA: C44H84NO10P
Ontology: Phosphatidylserines
INCHIKEY: CWSHAMZVMDYRSO-GCUVURNUNA-N
SMILES: CCCCCCCCCCCCCCCCCC(=O)OCC(COP(O)(=O)OCC(N)C(O)=O)OC(=O)CC\C=C/CCCCCCCCCCCCCCC
RETENTIONTIME: 
CCS: -1
IONMODE: Negative
INSTRUMENTTYPE: LC-ESI-ITFT
INSTRUMENT: 
COLLISIONENERGY: 30
Comment: registered in MassBank
Num Peaks: 16
283.14999	41
284.16	10
309.09	17
310.22	10
311.23999	5
419.01999	103
420.01999	16
437.01001	26
445.14001	47
446.04001	10
447.06	21
465.17999	5
729.15002	1000
730.09998	354
742.14001	8
755.20001	6

NAME: Phosphatidylserine 18
PRECURSORMZ: 812.544708
PRECURSORTYPE: [M-H]-
FORMULA: C44H80NO10P
Ontology: Phosphatidylserines
INCHIKEY: JRRYKGRILWVSHS-JCXYTCFZNA-N
SMILES: CCCCCCCCCCCCCCCCCC(=O)OCC(COP(O)(=O)OCC(N)C(O)=O)OC(=O)CC\C=C/C\C=C/C\C=C/CCCCCCCCC
RETENTIONTIME: 
CCS: -1
IONMODE: Negative
INSTRUMENTTYPE: LC-ESI-ITFT
INSTRUMENT: 
COLLISIONENERGY: 30
Comment: registered in MassBank
Num Peaks: 16
283.10999	63
284.25	25
302.98999	7
305.14999	18
419.10001	120
420.13	17
421.25	11
436.91	14
438.16	7
440.14999	9
441.07999	33
442.28	10
723.38	28
724.15002	137
725.12	1000
726.15002	377

NAME: Phosphatidylserine 18
PRECURSORMZ: 810.529058
PRECURSORTYPE: [M-H]-
FORMULA: C44H78NO10P
Ontology: Phosphatidylserines
INCHIKEY: AENVCOSUVDLDFA-NQWSYULSNA-N
SMILES: CCCCCCCCCCCCCCCCCC(=O)OCC(COP(O)(=O)OCC(N)C(O)=O)OC(=O)CC\C=C/C\C=C/C\C=C/C\C=C/CCCCCC
RETENTIONTIME: 
CCS: -1
IONMODE: Negative
INSTRUMENTTYPE: LC-ESI-ITFT
INSTRUMENT: 
COLLISIONENERGY: 30
Comment: registered in MassBank
Num Peaks: 11
283.14999	78
284.17001	10
303.20999	13
418.97	203
420.16	20
437.12	31
438.45999	12
439.07999	20
722.06	23
723.12	1000
724.17999	307

NAME: Phosphatidylserine 18
PRECURSORMZ: 838.560358
PRECURSORTYPE: [M-H]-
FORMULA: C46H82NO10P
Ontology: Phosphatidylserines
INCHIKEY: IKWBXMMMFROIHT-BPSDUUPONA-N
SMILES: CCCCCCCCCCCCCCCCCC(=O)OCC(COP(O)(=O)OCC(N)C(O)=O)OC(=O)CC\C=C/C\C=C/C\C=C/C\C=C/CCCCCCCC
RETENTIONTIME: 
CCS: -1
IONMODE: Negative
INSTRUMENTTYPE: LC-ESI-ITFT
INSTRUMENT: 
COLLISIONENERGY: 30
Comment: registered in MassBank
Num Peaks: 16
240.96001	7
283.22	44
284.17001	9
331.29999	12
419.01999	125
420.04001	10
437.22	26
466.95999	46
553.21002	22
554.15997	40
555.15997	14
581.06	19
582.19	38
583.15002	16
751.10999	1000
752.21997	87

NAME: Phosphatidylserine 18
PRECURSORMZ: 836.544708
PRECURSORTYPE: [M-H]-
FORMULA: C46H80NO10P
Ontology: Phosphatidylserines
INCHIKEY: KMPUODCMAGXMDR-WZARRQHINA-N
SMILES: CCCCCCCCCCCCCCCCCC(=O)OCC(COP(O)(=O)OCC(N)C(O)=O)OC(=O)CC\C=C/C\C=C/C\C=C/C\C=C/C\C=C/CCCCC
RETENTIONTIME: 
CCS: 368.65133
IONMODE: Negative
INSTRUMENTTYPE: LC-ESI-ITFT
INSTRUMENT: 
COLLISIONENERGY: 30
Comment: registered in MassBank
Num Peaks: 24
283.19	57
284.17999	25
329.13	16
340.98001	5
418.98999	188
420.03	30
421.35001	7
437.06	18
438.07999	6
439	7
464.92999	53
465.73001	10
482.64999	7
524.39001	9
668.40002	15
718.09003	11
748.38	88
749.03998	1000
750.09998	130
751.29999	11
752.17999	7
772.21997	7
835.59003	23
836.28003	80

NAME: Phosphatidylserine 18
PRECURSORMZ: 834.529058
PRECURSORTYPE: [M-H]-
FORMULA: C46H78NO10P
Ontology: Phosphatidylserines
INCHIKEY: LYYHRRPTEXPVOR-HSBBONCLNA-N
SMILES: CCCCCCCCCCCCCCCCCC(=O)OCC(COP(O)(=O)OCC(N)C(O)=O)OC(=O)CC\C=C/C\C=C/C\C=C/C\C=C/C\C=C/C\C=C/CC
RETENTIONTIME: 
CCS: 404.9164861
IONMODE: Negative
INSTRUMENTTYPE: LC-ESI-ITFT
INSTRUMENT: 
COLLISIONENERGY: 30
Comment: registered in MassBank
Num Peaks: 11
283.17001	60
391.14999	6
419.07001	170
420.01999	6
437.10001	32
462.98001	42
523.96997	6
553.09003	78
579.08002	62
747.09003	1000
748.14001	64

NAME: Phosphatidylserine 18
PRECURSORMZ: 788.544708
PRECURSORTYPE: [M-H]-
FORMULA: C42H80NO10P
Ontology: Phosphatidylserines
INCHIKEY: IPZRENQGCCSGRE-OHYPFYFLNA-N
SMILES: CCCCCCCCCCCCCCCCCC(=O)OC(COC(=O)CC\C=C/CCCCCCCCCCCCC)COP(O)(=O)OCC(N)C(O)=O
RETENTIONTIME: 
CCS: -1
IONMODE: Negative
INSTRUMENTTYPE: LC-ESI-ITFT
INSTRUMENT: 
COLLISIONENERGY: 30
Comment: registered in MassBank
Num Peaks: 10
281.19	24
283.10999	39
284.23001	7
417.06	37
418.45999	19
419.07999	110
420.04999	15
437.12	24
701.12	1000
702.14001	176

NAME: Phosphatidylserine 18
PRECURSORMZ: 786.529058
PRECURSORTYPE: [M-H]-
FORMULA: C42H78NO10P
Ontology: Phosphatidylserines
INCHIKEY: JTUPNPXBWXOEFZ-ZUELCTOONA-N
SMILES: CCCCCCCCCCCCC\C=C/CCC(=O)OCC(COP(O)(=O)OCC(N)C(O)=O)OC(=O)CC\C=C/CCCCCCCCCCCCC
RETENTIONTIME: 
CCS: -1
IONMODE: Negative
INSTRUMENTTYPE: LC-ESI-ITFT
INSTRUMENT: 
COLLISIONENERGY: 30
Comment: registered in MassBank
Num Peaks: 7
281.23001	62
282.17999	12
417.01999	174
418.04999	25
434.94	29
699.12	1000
700.20001	205

NAME: Phosphatidylserine 18
PRECURSORMZ: 814.560358
PRECURSORTYPE: [M-H]-
FORMULA: C44H82NO10P
Ontology: Phosphatidylserines
INCHIKEY: OHVPXIJWGQXNSY-SZDCHMHBNA-N
SMILES: CCCCCCCCCCCCCCC\C=C/CCC(=O)OC(COC(=O)CC\C=C/CCCCCCCCCCCCC)COP(O)(=O)OCC(N)C(O)=O
RETENTIONTIME: 
CCS: -1
IONMODE: Negative
INSTRUMENTTYPE: LC-ESI-ITFT
INSTRUMENT: 
COLLISIONENERGY: 30
Comment: registered in MassBank
Num Peaks: 21
281.23001	22
309.16	35
392.20999	5
417.09	55
418.07001	23
419.10001	56
420.10001	27
435.14001	9
437.98001	8
440.94	5
442.01999	6
444.97	153
463.17001	20
490.97	9
699.98999	5
701.31	29
725.04999	39
726.08002	304
727.10999	1000
728.21002	456
782.27002	7

NAME: Phosphatidylserine 18
PRECURSORMZ: 804.518493
PRECURSORTYPE: [M-H]-
FORMULA: C45H76NO9P
Ontology: Glycerophospholipids
INCHIKEY: JZGHLLUAMKCKPB-UUOYPOJJNA-N
SMILES: CCCCCCCCCCCCC\C=C/CCC(=O)OCC(COP(O)(=O)OCC(N)C(C)=O)OC(=O)CC\C=C/C\C=C/C\C=C/C\C=C/C\C=C/CCC
RETENTIONTIME: 
CCS: -1
IONMODE: Negative
INSTRUMENTTYPE: LC-ESI-ITFT
INSTRUMENT: 
COLLISIONENERGY: 30
Comment: registered in MassBank
Num Peaks: 15
255.07001	56
256.17999	13
283.14999	13
284.76999	22
326.98999	16
391.09	130
392.29001	9
409.03	19
410.12	22
463.13	31
564.82001	13
719.04999	1000
720.08002	492
731.87	27
806.37	20

NAME: Phosphatidylserine 18
PRECURSORMZ: 844.607308
PRECURSORTYPE: [M-H]-
FORMULA: C46H88NO10P
Ontology: Phosphatidylserines
INCHIKEY: RGMUYILZSPVWSQ-FPODKLOTNA-N
SMILES: CCCCCCCCCCCCCCCCCCCCCC(=O)OC(COC(=O)CC\C=C/CCCCCCCCCCCCC)COP(O)(=O)OCC(N)C(O)=O
RETENTIONTIME: 
CCS: -1
IONMODE: Negative
INSTRUMENTTYPE: LC-ESI-ITFT
INSTRUMENT: 
COLLISIONENERGY: 30
Comment: registered in MassBank
Num Peaks: 19
311.57999	30
337.32001	8
339.19	90
340.14001	11
417.23001	8
418.95999	21
431.14999	6
445.17001	9
446.98001	19
474.04001	21
475.20001	172
476.20001	7
481.70999	6
493.12	6
757.12	1000
758.15997	220
780.78003	62
784.17999	17
844.59998	25

NAME: Phosphatidylserine 18
PRECURSORMZ: 832.513408
PRECURSORTYPE: [M-H]-
FORMULA: C46H76NO10P
Ontology: Phosphatidylserines
INCHIKEY: ZBHJZQBBODCTLM-QRPORDCINA-N
SMILES: CCCCCCCCCCCCC\C=C/CCC(=O)OCC(COP(O)(=O)OCC(N)C(O)=O)OC(=O)CC\C=C/C\C=C/C\C=C/C\C=C/C\C=C/C\C=C/CC
RETENTIONTIME: 
CCS: -1
IONMODE: Negative
INSTRUMENTTYPE: LC-ESI-ITFT
INSTRUMENT: 
COLLISIONENERGY: 30
Comment: registered in MassBank
Num Peaks: 15
281.20001	51
282.32001	10
297.04001	15
327.07001	6
417	150
418.20001	16
435.19	28
462.98999	35
463.79001	7
522	7
553.09998	56
576.90997	54
744.98999	1000
746.17999	191
758.09998	6

NAME: Phosphatidylserine 19
PRECURSORMZ: 848.544708
PRECURSORTYPE: [M-H]-
FORMULA: C47H80NO10P
Ontology: Phosphatidylserines
INCHIKEY: KQUCBTRVYDUHMT-MXQGKLILNA-N
SMILES: CCCCCCCCCCCCCCCCCCC(=O)OCC(COP(O)(=O)OCC(N)C(O)=O)OC(=O)CC\C=C/C\C=C/C\C=C/C\C=C/C\C=C/C\C=C/CC
RETENTIONTIME: 
CCS: -1
IONMODE: Negative
INSTRUMENTTYPE: LC-ESI-ITFT
INSTRUMENT: 
COLLISIONENERGY: 30
Comment: registered in MassBank
Num Peaks: 7
303.19	18
432.98001	7
747.12	13
750.28003	16
761.10999	57
762.08002	11
766.12	1000

NAME: Phosphatidylserine 20
PRECURSORMZ: 854.497758
PRECURSORTYPE: [M-H]-
FORMULA: C48H74NO10P
Ontology: Phosphatidylserines
INCHIKEY: ZGLJCKUIELGDPR-YARNEYDXNA-N
SMILES: CCCCCC\C=C/C\C=C/C\C=C/C\C=C/CCC(=O)OCC(COP(O)(=O)OCC(N)C(O)=O)OC(=O)CC\C=C/C\C=C/C\C=C/C\C=C/C\C=C/C\C=C/CC
RETENTIONTIME: 
CCS: -1
IONMODE: Negative
INSTRUMENTTYPE: LC-ESI-ITFT
INSTRUMENT: 
COLLISIONENERGY: 30
Comment: registered in MassBank
Num Peaks: 14
259.16	17
283.12	50
439.16	124
440.17999	35
462.12	23
462.89999	40
481.12	13
550.96997	26
677.59003	21
723.83002	12
731.16998	13
767.03003	1000
768.07001	332
802.54999	13

NAME: Phosphatidylserine 22
PRECURSORMZ: 878.497758
PRECURSORTYPE: [M-H]-
FORMULA: C50H74NO10P
Ontology: Phosphatidylserines
INCHIKEY: RJCZACBLQGCNCW-GZSOIYOPNA-N
SMILES: CC\C=C/C\C=C/C\C=C/C\C=C/C\C=C/C\C=C/CCC(=O)OCC(COP(O)(=O)OCC(N)C(O)=O)OC(=O)CC\C=C/C\C=C/C\C=C/C\C=C/C\C=C/C\C=C/CC
RETENTIONTIME: 
CCS: 379.0794439
IONMODE: Negative
INSTRUMENTTYPE: LC-ESI-ITFT
INSTRUMENT: 
COLLISIONENERGY: 30
Comment: registered in MassBank
Num Peaks: 7
283.23999	24
327.25	44
463.01001	227
480.81	19
790.98999	1000
792.04999	6
802.82001	6

NAME: Sphingomyelin d18
PRECURSORMZ: 735.602163
PRECURSORTYPE: [M+CH3COO]-
FORMULA: C39H81N2O6P
Ontology: Phosphosphingolipids
INCHIKEY: QHZIGNLCLJPLCU-AMAPPZPBSA-N
SMILES: CCCCCCCCCCCCCCC[C@H](O)[C@@H](COP([O-])(=O)OCC[N+](C)(C)C)N=C(O)CCCCCCCCCCCCCCC
RETENTIONTIME: 
CCS: -1
IONMODE: Negative
INSTRUMENTTYPE: LC-ESI-ITFT
INSTRUMENT: 
COLLISIONENERGY: 30
Comment: registered in MassBank
Num Peaks: 23
255.53999	25
257.42001	24
281.29001	18
301.16	67
317.07999	24
319.20001	12
328.13	12
332.29001	31
418.95999	31
449.20999	29
463.64999	18
471.20999	27
478.09	12
499.64999	41
558.78003	25
586.19	25
674.31	55
676.15002	249
677.12	14
689.37	1000
702.73999	25
704.35999	10
746.35999	29

NAME: Sphingomyelin d18
PRECURSORMZ: 763.633463
PRECURSORTYPE: [M+CH3COO]-
FORMULA: C41H85N2O6P
Ontology: Phosphosphingolipids
INCHIKEY: JCELSEVNSMXGKA-PVXQIPPMSA-N
SMILES: CCCCCCCCCCCCCCCCCC(O)=N[C@H](COP([O-])(=O)OCC[N+](C)(C)C)[C@@H](O)CCCCCCCCCCCCCCC
RETENTIONTIME: 
CCS: -1
IONMODE: Negative
INSTRUMENTTYPE: LC-ESI-ITFT
INSTRUMENT: 
COLLISIONENERGY: 30
Comment: registered in MassBank
Num Peaks: 16
280.95999	6
283.13	34
284.04999	13
285.20001	15
418.23999	5
418.98001	6
420.04001	19
421.01999	7
422.01001	14
438.22	13
463.42001	6
701.95001	80
703.06	183
704.12	305
705.28998	41
717.37	1000

NAME: Sphingomyelin d18
PRECURSORMZ: 733.586513
PRECURSORTYPE: [M+CH3COO]-
FORMULA: C39H79N2O6P
Ontology: Phosphosphingolipids
INCHIKEY: RWKUXQNLWDTSLO-KHDLYOHESA-N
SMILES: CCCCCCCCCCCCCCCC(O)=N[C@H](COP([O-])(=O)OCC[N+](C)(C)C)[C@@H](O)\C=C\CCCCCCCCCCCCC
RETENTIONTIME: 
CCS: -1
IONMODE: Negative
INSTRUMENTTYPE: LC-ESI-ITFT
INSTRUMENT: 
COLLISIONENERGY: 30
Comment: registered in MassBank
Num Peaks: 19
243.2	12
255.14999	419
269.23999	34
283.04999	376
301.10999	9
302.94	28
309.01001	11
315.17001	32
327.10001	611
329.88	8
436.06	6
437.16	19
452.17999	325
523.77002	74
583.53998	13
629.29999	7
676.65002	21
687.22998	1000
726.48999	7

NAME: Sphingomyelin d18
PRECURSORMZ: 761.617813
PRECURSORTYPE: [M+CH3COO]-
FORMULA: C41H83N2O6P
Ontology: Phosphosphingolipids
INCHIKEY: LKQLRGMMMAHREN-GDBDMVKWSA-N
SMILES: CCCCCCCCCCCCCCCCCC(O)=N[C@H](COP([O-])(=O)OCC[N+](C)(C)C)[C@@H](O)\C=C\CCCCCCCCCCCCC
RETENTIONTIME: 
CCS: -1
IONMODE: Negative
INSTRUMENTTYPE: LC-ESI-ITFT
INSTRUMENT: 
COLLISIONENERGY: 30
Comment: registered in MassBank
Num Peaks: 2
715.34003	1000
730.23999	5

NAME: Sphingomyelin d18
PRECURSORMZ: 789.649113
PRECURSORTYPE: [M+CH3COO]-
FORMULA: C43H87N2O6P
Ontology: Phosphosphingolipids
INCHIKEY: AADLTHQNYQJHQV-XACAWUTQSA-N
SMILES: CCCCCCCCCCCCCCCCCCCC(O)=N[C@H](COP([O-])(=O)OCC[N+](C)(C)C)[C@@H](O)\C=C\CCCCCCCCCCCCC
RETENTIONTIME: 
CCS: -1
IONMODE: Negative
INSTRUMENTTYPE: LC-ESI-ITFT
INSTRUMENT: 
COLLISIONENERGY: 30
Comment: registered in MassBank
Num Peaks: 8
628.14001	26
683.52002	9
684.63	24
743.40002	1000
744.45001	12
757.53003	36
781.40997	24
786.96997	26

NAME: Sphingomyelin d18
PRECURSORMZ: 817.680413
PRECURSORTYPE: [M+CH3COO]-
FORMULA: C45H91N2O6P
Ontology: Phosphosphingolipids
INCHIKEY: FJJANLYCZUNFSE-QVMKKYBKSA-N
SMILES: CCCCCCCCCCCCCCCCCCCCCC(O)=N[C@H](COP([O-])(=O)OCC[N+](C)(C)C)[C@@H](O)\C=C\CCCCCCCCCCCCC
RETENTIONTIME: 
CCS: -1
IONMODE: Negative
INSTRUMENTTYPE: LC-ESI-ITFT
INSTRUMENT: 
COLLISIONENERGY: 30
Comment: registered in MassBank
Num Peaks: 9
368.38	6
404	6
408.48001	13
625.33002	9
771.40002	1000
786.44	6
808.32001	28
809.26001	36
810.31	22

NAME: Sphingomyelin d18
PRECURSORMZ: 731.570863
PRECURSORTYPE: [M+CH3COO]-
FORMULA: C39H77N2O6P
Ontology: Phosphosphingolipids
INCHIKEY: RYPRHPLEPBYJJE-SFDSNHFWSA-N
SMILES: CCCCCCCCCCCCCCCC(O)=N[C@H](COP([O-])(=O)OCC[N+](C)(C)C)[C@@H](O)\C=C\CC\C=C\CCCCCCCCC
RETENTIONTIME: 
CCS: -1
IONMODE: Negative
INSTRUMENTTYPE: LC-ESI-ITFT
INSTRUMENT: 
COLLISIONENERGY: 30
Comment: registered in MassBank
Num Peaks: 8
283.39999	8
452.42999	16
676.63	8
685.28003	1000
685.89001	9
694.66998	11
699.46002	8
700.46002	6

NAME: Sphingomyelin d18
PRECURSORMZ: 759.602163
PRECURSORTYPE: [M+CH3COO]-
FORMULA: C41H81N2O6P
Ontology: Phosphosphingolipids
INCHIKEY: GCHHFAWECQPLHL-KCJNDVAJSA-N
SMILES: CCCCCCCCCCCCCCCCCC(O)=N[C@H](COP([O-])(=O)OCC[N+](C)(C)C)[C@@H](O)\C=C\CC\C=C\CCCCCCCCC
RETENTIONTIME: 
CCS: -1
IONMODE: Negative
INSTRUMENTTYPE: LC-ESI-ITFT
INSTRUMENT: 
COLLISIONENERGY: 30
Comment: registered in MassBank
Num Peaks: 10
281.20001	17
282.16	6
417.07001	48
418.14001	11
435.16	9
699.08002	118
700.09998	224
701.13	42
713.32001	1000
726.54999	6

NAME: Phosphatidylcholine 14
PRECURSORMZ: 760.549793
PRECURSORTYPE: [M+CH3COO]-
FORMULA: C40H76NO8P
Ontology: Phosphatidylcholines
INCHIKEY: IYYGCMJPRHBGGS-FTRFHSPVNA-N
SMILES: CCCCCCCCCCCCCC(=O)OCC(COP([O-])(=O)OCC[N+](C)(C)C)OC(=O)CC\C=C/C\C=C/CCCCCCCCCC
RETENTIONTIME: 
CCS: -1
IONMODE: Negative
INSTRUMENTTYPE: LC-ESI-ITFT
INSTRUMENT: 
COLLISIONENERGY: 30
Comment: registered in MassBank
Num Peaks: 5
279.12	12
324.73001	5
502.62	5
714.12	1000
728.91998	7

NAME: Phosphatidylcholine 14
PRECURSORMZ: 786.565443
PRECURSORTYPE: [M+CH3COO]-
FORMULA: C42H78NO8P
Ontology: Phosphatidylcholines
INCHIKEY: BYFLSLXMNRHKEZ-YVCMCYLKNA-N
SMILES: CCCCCCCCCCCCCC(=O)OCC(COP([O-])(=O)OCC[N+](C)(C)C)OC(=O)CC\C=C/C\C=C/C\C=C/CCCCCCCCC
RETENTIONTIME: 
CCS: -1
IONMODE: Negative
INSTRUMENTTYPE: LC-ESI-ITFT
INSTRUMENT: 
COLLISIONENERGY: 30
Comment: registered in MassBank
Num Peaks: 11
279.32999	19
301.37	12
304.95001	6
480.17001	7
490.89001	10
652.90002	41
740.15997	1000
741.12	5
755.35999	15
764.08002	773
765.20001	41

NAME: Phosphatidylcholine 14
PRECURSORMZ: 784.549793
PRECURSORTYPE: [M+CH3COO]-
FORMULA: C42H76NO8P
Ontology: Phosphatidylcholines
INCHIKEY: LTAXKUDPWVWJJR-VONYRGFMNA-N
SMILES: CCCCCCCCCCCCCC(=O)OCC(COP([O-])(=O)OCC[N+](C)(C)C)OC(=O)CC\C=C/C\C=C/C\C=C/C\C=C/CCCCCC
RETENTIONTIME: 
CCS: -1
IONMODE: Negative
INSTRUMENTTYPE: LC-ESI-ITFT
INSTRUMENT: 
COLLISIONENERGY: 30
Comment: registered in MassBank
Num Peaks: 5
303.34	13
738.06	1000
738.78998	11
762.34003	16
769.46002	11

NAME: Phosphatidylcholine 14
PRECURSORMZ: 782.534143
PRECURSORTYPE: [M+CH3COO]-
FORMULA: C42H74NO8P
Ontology: Phosphatidylcholines
INCHIKEY: WOZQMKGPSSBBKF-AKCCMISZNA-N
SMILES: CCCCCCCCCCCCCC(=O)OCC(COP([O-])(=O)OCC[N+](C)(C)C)OC(=O)CC\C=C/C\C=C/C\C=C/C\C=C/C\C=C/CCC
RETENTIONTIME: 
CCS: -1
IONMODE: Negative
INSTRUMENTTYPE: LC-ESI-ITFT
INSTRUMENT: 
COLLISIONENERGY: 30
Comment: registered in MassBank
Num Peaks: 10
281.09	17
347.13	12
419.17001	29
505.89999	46
569.54999	26
731.87	12
736.07001	1000
737.06	26
743.85999	87
760.56	12

NAME: Phosphatidylcholine 15
PRECURSORMZ: 750.565443
PRECURSORTYPE: [M+CH3COO]-
FORMULA: C39H78NO8P
Ontology: Phosphatidylcholines
INCHIKEY: LLHISNQVRRYJGL-UHFFFAOYNA-N
SMILES: CCCCCCCCCCCCCCCC(=O)OC(COC(=O)CCCCCCCCCCCCCC)COP([O-])(=O)OCC[N+](C)(C)C
RETENTIONTIME: 
CCS: -1
IONMODE: Negative
INSTRUMENTTYPE: LC-ESI-ITFT
INSTRUMENT: 
COLLISIONENERGY: 30
Comment: registered in MassBank
Num Peaks: 8
254.91	6
259.17999	12
301.19	16
329.26999	15
469.06	5
545.65997	40
704.13	1000
745.72998	7

NAME: Phosphatidylcholine 15
PRECURSORMZ: 748.549793
PRECURSORTYPE: [M+CH3COO]-
FORMULA: C39H76NO8P
Ontology: Phosphatidylcholines
INCHIKEY: IHUFBQDVMMMJHR-SGEDCAFJNA-N
SMILES: CCCCCCCCCCCCCCC(=O)OCC(COP([O-])(=O)OCC[N+](C)(C)C)OC(=O)CC\C=C/CCCCCCCCCCC
RETENTIONTIME: 
CCS: -1
IONMODE: Negative
INSTRUMENTTYPE: LC-ESI-ITFT
INSTRUMENT: 
COLLISIONENERGY: 30
Comment: registered in MassBank
Num Peaks: 14
257.14001	67
267.35001	24
316.32999	24
327.16	75
328.26001	40
328.89999	16
418.17999	32
694.16998	79
694.90002	63
702.06	1000
716.12	36
717.07001	40
724.23999	55
749.01001	79

NAME: Phosphatidylcholine 15
PRECURSORMZ: 774.565443
PRECURSORTYPE: [M+CH3COO]-
FORMULA: C41H78NO8P
Ontology: Phosphatidylcholines
INCHIKEY: OKOJVIBHOSGPIV-JSCMVKKRNA-N
SMILES: CCCCCCCCCCCCCCC(=O)OCC(COP([O-])(=O)OCC[N+](C)(C)C)OC(=O)CC\C=C/C\C=C/CCCCCCCCCC
RETENTIONTIME: 
CCS: -1
IONMODE: Negative
INSTRUMENTTYPE: LC-ESI-ITFT
INSTRUMENT: 
COLLISIONENERGY: 30
Comment: registered in MassBank
Num Peaks: 6
278.82001	6
309.20999	6
715.03998	9
728.08002	1000
728.87	10
742.96997	11

NAME: Phosphatidylcholine 15
PRECURSORMZ: 798.565443
PRECURSORTYPE: [M+CH3COO]-
FORMULA: C43H78NO8P
Ontology: Phosphatidylcholines
INCHIKEY: CLOJCJSOXWBGTM-BSBLZQCJNA-N
SMILES: CCCCCCCCCCCCCCC(=O)OCC(COP([O-])(=O)OCC[N+](C)(C)C)OC(=O)CC\C=C/C\C=C/C\C=C/C\C=C/CCCCCC
RETENTIONTIME: 
CCS: -1
IONMODE: Negative
INSTRUMENTTYPE: LC-ESI-ITFT
INSTRUMENT: 
COLLISIONENERGY: 30
Comment: registered in MassBank
Num Peaks: 11
303.23999	17
447.12	16
544.78003	9
742.54999	11
751.58002	160
752.25	1000
753.29999	21
765.03998	142
766.21997	119
767.34998	18
775.89001	7

NAME: Phosphatidylcholine 15
PRECURSORMZ: 796.549793
PRECURSORTYPE: [M+CH3COO]-
FORMULA: C43H76NO8P
Ontology: Phosphatidylcholines
INCHIKEY: MFZQMCRGTGNKQM-KTWSQXGJNA-N
SMILES: CCCCCCCCCCCCCCC(=O)OCC(COP([O-])(=O)OCC[N+](C)(C)C)OC(=O)CC\C=C/C\C=C/C\C=C/C\C=C/C\C=C/CCC
RETENTIONTIME: 
CCS: -1
IONMODE: Negative
INSTRUMENTTYPE: LC-ESI-ITFT
INSTRUMENT: 
COLLISIONENERGY: 30
Comment: registered in MassBank
Num Peaks: 11
329.20999	9
330.29001	9
341.14001	32
382	17
503.98001	11
558.01001	20
591.12	20
750.07001	1000
750.82001	32
765.20001	30
780.67999	20

NAME: Phosphatidylcholine 15
PRECURSORMZ: 822.565443
PRECURSORTYPE: [M+CH3COO]-
FORMULA: C45H78NO8P
Ontology: Phosphatidylcholines
INCHIKEY: GEINPYKZLFHHIL-BDWYRQGHNA-N
SMILES: CCCCCCCCCCCCCCC(=O)OCC(COP([O-])(=O)OCC[N+](C)(C)C)OC(=O)CC\C=C/C\C=C/C\C=C/C\C=C/C\C=C/C\C=C/CC
RETENTIONTIME: 
CCS: -1
IONMODE: Negative
INSTRUMENTTYPE: LC-ESI-ITFT
INSTRUMENT: 
COLLISIONENERGY: 30
Comment: registered in MassBank
Num Peaks: 7
563.31	9
709.16998	14
768.07001	24
776.14001	1000
790.21997	67
792.03998	10
793.01001	33

NAME: Phosphatidylcholine 16
PRECURSORMZ: 764.581093
PRECURSORTYPE: [M+CH3COO]-
FORMULA: C40H80NO8P
Ontology: Phosphatidylcholines
INCHIKEY: KILNVBDSWZSGLL-UHFFFAOYNA-N
SMILES: CCCCCCCCCCCCCCCC(=O)OCC(COP([O-])(=O)OCC[N+](C)(C)C)OC(=O)CCCCCCCCCCCCCCC
RETENTIONTIME: 
CCS: -1
IONMODE: Negative
INSTRUMENTTYPE: LC-ESI-ITFT
INSTRUMENT: 
COLLISIONENERGY: 30
Comment: registered in MassBank
Num Peaks: 4
255.17999	8
329.19	12
718.14001	1000
733.14001	7

NAME: Phosphatidylcholine 16
PRECURSORMZ: 762.565443
PRECURSORTYPE: [M+CH3COO]-
FORMULA: C40H78NO8P
Ontology: Phosphatidylcholines
INCHIKEY: QAFBBWZLSNOQGW-OHYPFYFLNA-N
SMILES: CCCCCCCCCCCCCCCC(=O)OCC(COP([O-])(=O)OCC[N+](C)(C)C)OC(=O)CC\C=C/CCCCCCCCCCC
RETENTIONTIME: 
CCS: -1
IONMODE: Negative
INSTRUMENTTYPE: LC-ESI-ITFT
INSTRUMENT: 
COLLISIONENERGY: 30
Comment: registered in MassBank
Num Peaks: 6
253.13	8
281.20999	13
329.10999	31
478.23001	11
716.09003	1000
731.08002	7

NAME: Phosphatidylcholine 16
PRECURSORMZ: 790.596743
PRECURSORTYPE: [M+CH3COO]-
FORMULA: C42H82NO8P
Ontology: Phosphatidylcholines
INCHIKEY: QPHGOXQEXDWRIB-YCNYHXFENA-N
SMILES: CCCCCCCCCCCCCCCC(=O)OCC(COP([O-])(=O)OCC[N+](C)(C)C)OC(=O)CC\C=C/CCCCCCCCCCCCC
RETENTIONTIME: 
CCS: -1
IONMODE: Negative
INSTRUMENTTYPE: LC-ESI-ITFT
INSTRUMENT: 
COLLISIONENERGY: 30
Comment: registered in MassBank
Num Peaks: 2
281.14001	7
744.23999	1000

NAME: Phosphatidylcholine 16
PRECURSORMZ: 788.581093
PRECURSORTYPE: [M+CH3COO]-
FORMULA: C42H80NO8P
Ontology: Phosphatidylcholines
INCHIKEY: PWJTWIQVMHNOLN-WGPKDLKGNA-N
SMILES: CCCCCCCCCCCCCCCC(=O)OCC(COP([O-])(=O)OCC[N+](C)(C)C)OC(=O)CC\C=C/C\C=C/CCCCCCCCCC
RETENTIONTIME: 
CCS: -1
IONMODE: Negative
INSTRUMENTTYPE: LC-ESI-ITFT
INSTRUMENT: 
COLLISIONENERGY: 30
Comment: registered in MassBank
Num Peaks: 3
279.13	5
742.12	1000
756.91998	5

NAME: Phosphatidylcholine 16
PRECURSORMZ: 786.565443
PRECURSORTYPE: [M+CH3COO]-
FORMULA: C42H78NO8P
Ontology: Phosphatidylcholines
INCHIKEY: LTFQLMSVQQIRBG-YOKRUPNWNA-N
SMILES: CCCCCCCCCCCCCCCC(=O)OCC(COP([O-])(=O)OCC[N+](C)(C)C)OC(=O)CC\C=C/C\C=C/C\C=C/CCCCCCC
RETENTIONTIME: 
CCS: -1
IONMODE: Negative
INSTRUMENTTYPE: LC-ESI-ITFT
INSTRUMENT: 
COLLISIONENERGY: 30
Comment: registered in MassBank
Num Peaks: 4
277.16	9
740.13	1000
740.77002	5
754.62	6

NAME: Phosphatidylcholine 16
PRECURSORMZ: 814.596743
PRECURSORTYPE: [M+CH3COO]-
FORMULA: C44H82NO8P
Ontology: Phosphatidylcholines
INCHIKEY: XWDUIGPTBYOBBP-BQYMPCJENA-N
SMILES: CCCCCCCCCCCCCCCC(=O)OCC(COP([O-])(=O)OCC[N+](C)(C)C)OC(=O)CC\C=C/C\C=C/C\C=C/CCCCCCCCC
RETENTIONTIME: 
CCS: -1
IONMODE: Negative
INSTRUMENTTYPE: LC-ESI-ITFT
INSTRUMENT: 
COLLISIONENERGY: 30
Comment: registered in MassBank
Num Peaks: 3
305.25	6
768.15002	1000
792.13	9

NAME: Phosphatidylcholine 16
PRECURSORMZ: 812.581093
PRECURSORTYPE: [M+CH3COO]-
FORMULA: C44H80NO8P
Ontology: Phosphatidylcholines
INCHIKEY: YRCYEVIWNSLKRF-RZUUUYDYNA-N
SMILES: CCCCCCCCCCCCCCCC(=O)OCC(COP([O-])(=O)OCC[N+](C)(C)C)OC(=O)CC\C=C/C\C=C/C\C=C/C\C=C/CCCCCC
RETENTIONTIME: 
CCS: -1
IONMODE: Negative
INSTRUMENTTYPE: LC-ESI-ITFT
INSTRUMENT: 
COLLISIONENERGY: 30
Comment: registered in MassBank
Num Peaks: 3
303.23001	12
766.17999	1000
781.08002	5

NAME: Phosphatidylcholine 16
PRECURSORMZ: 810.565443
PRECURSORTYPE: [M+CH3COO]-
FORMULA: C44H78NO8P
Ontology: Phosphatidylcholines
INCHIKEY: RKFHFBWDNSYADY-SNIIIARXNA-N
SMILES: CCCCCCCCCCCCCCCC(=O)OCC(COP([O-])(=O)OCC[N+](C)(C)C)OC(=O)CC\C=C/C\C=C/C\C=C/C\C=C/C\C=C/CCC
RETENTIONTIME: 
CCS: -1
IONMODE: Negative
INSTRUMENTTYPE: LC-ESI-ITFT
INSTRUMENT: 
COLLISIONENERGY: 30
Comment: registered in MassBank
Num Peaks: 3
301.04999	6
764.08002	1000
779.06	8

NAME: Phosphatidylcholine 16
PRECURSORMZ: 838.596743
PRECURSORTYPE: [M+CH3COO]-
FORMULA: C46H82NO8P
Ontology: Phosphatidylcholines
INCHIKEY: MWXAIAMSOXOQJK-TZCDOOIHNA-N
SMILES: CCCCCCCCCCCCCCCC(=O)OCC(COP([O-])(=O)OCC[N+](C)(C)C)OC(=O)CC\C=C/C\C=C/C\C=C/C\C=C/C\C=C/CCCCC
RETENTIONTIME: 
CCS: -1
IONMODE: Negative
INSTRUMENTTYPE: LC-ESI-ITFT
INSTRUMENT: 
COLLISIONENERGY: 30
Comment: registered in MassBank
Num Peaks: 2
791.48999	24
792.22998	1000

NAME: Phosphatidylcholine 16
PRECURSORMZ: 836.581093
PRECURSORTYPE: [M+CH3COO]-
FORMULA: C46H80NO8P
Ontology: Phosphatidylcholines
INCHIKEY: IESVDEZGAHUQJU-SYGPSSPWNA-N
SMILES: CCCCCCCCCCCCCCCC(=O)OCC(COP([O-])(=O)OCC[N+](C)(C)C)OC(=O)CC\C=C/C\C=C/C\C=C/C\C=C/C\C=C/C\C=C/CC
RETENTIONTIME: 
CCS: -1
IONMODE: Negative
INSTRUMENTTYPE: LC-ESI-ITFT
INSTRUMENT: 
COLLISIONENERGY: 30
Comment: registered in MassBank
Num Peaks: 2
790.02002	1000
805.08002	8

NAME: Phosphatidylcholine 16
PRECURSORMZ: 760.549793
PRECURSORTYPE: [M+CH3COO]-
FORMULA: C40H76NO8P
Ontology: Phosphatidylcholines
INCHIKEY: SOUQZYYFGDCZOX-UKDOXLPINA-N
SMILES: CCCCCCCCCCC\C=C/CCC(=O)OCC(COP([O-])(=O)OCC[N+](C)(C)C)OC(=O)CC\C=C/CCCCCCCCCCC
RETENTIONTIME: 
CCS: -1
IONMODE: Negative
INSTRUMENTTYPE: LC-ESI-ITFT
INSTRUMENT: 
COLLISIONENERGY: 30
Comment: registered in MassBank
Num Peaks: 20
276.26999	61
279.26999	38
280.20001	52
283.04001	56
284.16	79
285.09	15
294.14999	38
303.14999	15
303.95999	18
324.97	20
328.10001	34
422.62	15
477.23999	10
636.12	29
714.08002	1000
714.98999	25
726.28003	13
729.17999	31
738.15002	29
752.87	8

NAME: Phosphatidylcholine 16
PRECURSORMZ: 788.581093
PRECURSORTYPE: [M+CH3COO]-
FORMULA: C42H80NO8P
Ontology: Phosphatidylcholines
INCHIKEY: QNRBHVUJSHOYGI-BRMDCIMDNA-N
SMILES: CCCCCCCCCCCCC\C=C/CCC(=O)OC(COC(=O)CC\C=C/CCCCCCCCCCC)COP([O-])(=O)OCC[N+](C)(C)C
RETENTIONTIME: 
CCS: -1
IONMODE: Negative
INSTRUMENTTYPE: LC-ESI-ITFT
INSTRUMENT: 
COLLISIONENERGY: 30
Comment: registered in MassBank
Num Peaks: 11
281.32999	24
282.17001	8
283.32001	8
307.39999	8
308.23999	7
326.95001	27
329.17999	8
504.85999	11
654.90002	9
742.25	1000
743.37	18

NAME: Phosphatidylcholine 16
PRECURSORMZ: 786.565443
PRECURSORTYPE: [M+CH3COO]-
FORMULA: C42H78NO8P
Ontology: Phosphatidylcholines
INCHIKEY: XSSJXFBQZLYYFK-TVGXXSNYNA-N
SMILES: CCCCCCCCCCC\C=C/CCC(=O)OCC(COP([O-])(=O)OCC[N+](C)(C)C)OC(=O)CC\C=C/C\C=C/CCCCCCCCCC
RETENTIONTIME: 
CCS: -1
IONMODE: Negative
INSTRUMENTTYPE: LC-ESI-ITFT
INSTRUMENT: 
COLLISIONENERGY: 30
Comment: registered in MassBank
Num Peaks: 2
279.04999	6
740.10999	1000

NAME: Phosphatidylcholine 16
PRECURSORMZ: 784.549793
PRECURSORTYPE: [M+CH3COO]-
FORMULA: C42H76NO8P
Ontology: Phosphatidylcholines
INCHIKEY: XIVMVZLGWNNXST-DGUBAHAQNA-N
SMILES: CCCCCCCCCCC\C=C/CCC(=O)OCC(COP([O-])(=O)OCC[N+](C)(C)C)OC(=O)CC\C=C/C\C=C/C\C=C/CCCCCCC
RETENTIONTIME: 
CCS: -1
IONMODE: Negative
INSTRUMENTTYPE: LC-ESI-ITFT
INSTRUMENT: 
COLLISIONENERGY: 30
Comment: registered in MassBank
Num Peaks: 9
303.87	16
481.51999	8
500.92001	17
502.29001	16
604.56	18
711.41998	16
727.35999	23
738.17999	1000
762.5	25

NAME: Phosphatidylcholine 16
PRECURSORMZ: 810.565443
PRECURSORTYPE: [M+CH3COO]-
FORMULA: C44H78NO8P
Ontology: Phosphatidylcholines
INCHIKEY: QSBABJGBCMSZOL-RNVRRVRJNA-N
SMILES: CCCCCCCCCCC\C=C/CCC(=O)OCC(COP([O-])(=O)OCC[N+](C)(C)C)OC(=O)CC\C=C/C\C=C/C\C=C/C\C=C/CCCCCC
RETENTIONTIME: 
CCS: -1
IONMODE: Negative
INSTRUMENTTYPE: LC-ESI-ITFT
INSTRUMENT: 
COLLISIONENERGY: 30
Comment: registered in MassBank
Num Peaks: 6
259.42999	6
478.47	5
764.09003	1000
778.02002	6
779.14001	11
787.96997	25

NAME: Phosphatidylcholine 16
PRECURSORMZ: 808.549793
PRECURSORTYPE: [M+CH3COO]-
FORMULA: C44H76NO8P
Ontology: Phosphatidylcholines
INCHIKEY: CRYGVKXXJSFPAW-VDGOIRDXNA-N
SMILES: CCCCCCCCCCC\C=C/CCC(=O)OCC(COP([O-])(=O)OCC[N+](C)(C)C)OC(=O)CC\C=C/C\C=C/C\C=C/C\C=C/C\C=C/CCC
RETENTIONTIME: 
CCS: -1
IONMODE: Negative
INSTRUMENTTYPE: LC-ESI-ITFT
INSTRUMENT: 
COLLISIONENERGY: 30
Comment: registered in MassBank
Num Peaks: 10
660.46002	25
689.82001	59
716.94	37
719.17999	19
749.59998	108
750.45001	22
762.21997	1000
775.96002	46
778.02002	49
815.81	15

NAME: Phosphatidylcholine 16
PRECURSORMZ: 834.565443
PRECURSORTYPE: [M+CH3COO]-
FORMULA: C46H78NO8P
Ontology: Phosphatidylcholines
INCHIKEY: ALJYHFIRPGURAF-DACYDXBYNA-N
SMILES: CCCCCCCCCCC\C=C/CCC(=O)OCC(COP([O-])(=O)OCC[N+](C)(C)C)OC(=O)CC\C=C/C\C=C/C\C=C/C\C=C/C\C=C/C\C=C/CC
RETENTIONTIME: 
CCS: -1
IONMODE: Negative
INSTRUMENTTYPE: LC-ESI-ITFT
INSTRUMENT: 
COLLISIONENERGY: 30
Comment: registered in MassBank
Num Peaks: 2
788.13	1000
802.85999	10

NAME: Phosphatidylcholine 17
PRECURSORMZ: 802.596743
PRECURSORTYPE: [M+CH3COO]-
FORMULA: C43H82NO8P
Ontology: Phosphatidylcholines
INCHIKEY: OQJXXHSQJJIDBN-QIPJBBGZNA-N
SMILES: CCCCCCCCCCCCCCCCC(=O)OCC(COP([O-])(=O)OCC[N+](C)(C)C)OC(=O)CC\C=C/C\C=C/CCCCCCCCCC
RETENTIONTIME: 
CCS: -1
IONMODE: Negative
INSTRUMENTTYPE: LC-ESI-ITFT
INSTRUMENT: 
COLLISIONENERGY: 30
Comment: registered in MassBank
Num Peaks: 2
279.10001	9
756.09003	1000

NAME: Phosphatidylcholine 17
PRECURSORMZ: 828.612393
PRECURSORTYPE: [M+CH3COO]-
FORMULA: C45H84NO8P
Ontology: Phosphatidylcholines
INCHIKEY: WONILIINQKCSNA-XXLZVXFVNA-N
SMILES: CCCCCCCCCCCCCCCCC(=O)OCC(COP([O-])(=O)OCC[N+](C)(C)C)OC(=O)CC\C=C/C\C=C/C\C=C/CCCCCCCCC
RETENTIONTIME: 
CCS: -1
IONMODE: Negative
INSTRUMENTTYPE: LC-ESI-ITFT
INSTRUMENT: 
COLLISIONENERGY: 30
Comment: registered in MassBank
Num Peaks: 12
284.20999	6
296.70999	5
419	21
420.07001	28
546.20001	8
572.91998	14
731.97998	18
769.16998	35
774.09003	18
782.22998	1000
791.56	7
796.98999	10

NAME: Phosphatidylcholine 17
PRECURSORMZ: 826.596743
PRECURSORTYPE: [M+CH3COO]-
FORMULA: C45H82NO8P
Ontology: Phosphatidylcholines
INCHIKEY: YGNXCWOMJZJVBI-QEKDUOKRNA-N
SMILES: CCCCCCCCCCCCCCCCC(=O)OCC(COP([O-])(=O)OCC[N+](C)(C)C)OC(=O)CC\C=C/C\C=C/C\C=C/C\C=C/CCCCCC
RETENTIONTIME: 
CCS: -1
IONMODE: Negative
INSTRUMENTTYPE: LC-ESI-ITFT
INSTRUMENT: 
COLLISIONENERGY: 30
Comment: registered in MassBank
Num Peaks: 4
778.31	9
780.15997	1000
793.04999	18
794.01001	6

NAME: Phosphatidylcholine 17
PRECURSORMZ: 824.581093
PRECURSORTYPE: [M+CH3COO]-
FORMULA: C45H80NO8P
Ontology: Phosphatidylcholines
INCHIKEY: QNXFYUSBFXCOSM-ZXKFMESCNA-N
SMILES: CCCCCCCCCCCCCCCCC(=O)OCC(COP([O-])(=O)OCC[N+](C)(C)C)OC(=O)CC\C=C/C\C=C/C\C=C/C\C=C/C\C=C/CCC
RETENTIONTIME: 
CCS: -1
IONMODE: Negative
INSTRUMENTTYPE: LC-ESI-ITFT
INSTRUMENT: 
COLLISIONENERGY: 30
Comment: registered in MassBank
Num Peaks: 7
281.20001	36
301.35999	9
778.10999	1000
778.79999	21
792.07001	517
793.09998	39
795.07001	11

NAME: Phosphatidylcholine 17
PRECURSORMZ: 850.596743
PRECURSORTYPE: [M+CH3COO]-
FORMULA: C47H82NO8P
Ontology: Phosphatidylcholines
INCHIKEY: KSRURLYJRNYEOH-CRVSLQDRNA-N
SMILES: CCCCCCCCCCCCCCCCC(=O)OCC(COP([O-])(=O)OCC[N+](C)(C)C)OC(=O)CC\C=C/C\C=C/C\C=C/C\C=C/C\C=C/C\C=C/CC
RETENTIONTIME: 
CCS: -1
IONMODE: Negative
INSTRUMENTTYPE: LC-ESI-ITFT
INSTRUMENT: 
COLLISIONENERGY: 30
Comment: registered in MassBank
Num Peaks: 2
791.03003	54
804.15997	1000

NAME: Phosphatidylcholine 17
PRECURSORMZ: 800.581093
PRECURSORTYPE: [M+CH3COO]-
FORMULA: C43H80NO8P
Ontology: Phosphatidylcholines
INCHIKEY: FNRBLPPAKRRBCG-QGRKPBPINA-N
SMILES: CCCCCCCCCCCC\C=C/CCC(=O)OCC(COP([O-])(=O)OCC[N+](C)(C)C)OC(=O)CC\C=C/C\C=C/CCCCCCCCCC
RETENTIONTIME: 
CCS: -1
IONMODE: Negative
INSTRUMENTTYPE: LC-ESI-ITFT
INSTRUMENT: 
COLLISIONENERGY: 30
Comment: registered in MassBank
Num Peaks: 4
740.56	19
741.21997	9
754.12	1000
769.53998	5

NAME: Phosphatidylcholine 17
PRECURSORMZ: 798.565443
PRECURSORTYPE: [M+CH3COO]-
FORMULA: C43H78NO8P
Ontology: Phosphatidylcholines
INCHIKEY: GTDQVCDADITTFR-IXGWNOPWNA-N
SMILES: CCCCCCCCCC\C=C/C\C=C/CCC(=O)OC(COC(=O)CC\C=C/C\C=C/CCCCCCCCC)COP([O-])(=O)OCC[N+](C)(C)C
RETENTIONTIME: 
CCS: -1
IONMODE: Negative
INSTRUMENTTYPE: LC-ESI-ITFT
INSTRUMENT: 
COLLISIONENERGY: 30
Comment: registered in MassBank
Num Peaks: 11
279.12	19
303.37	16
347.10001	19
751.57001	53
752.20001	1000
753.20001	24
762.46997	19
765.53003	16
766.34998	61
777.16998	53
810.47998	24

NAME: Phosphatidylcholine 18
PRECURSORMZ: 792.612393
PRECURSORTYPE: [M+CH3COO]-
FORMULA: C42H84NO8P
Ontology: Phosphatidylcholines
INCHIKEY: BYSIMVBIJVBVPA-UHFFFAOYNA-N
SMILES: CCCCCCCCCCCCCCCCCC(=O)OCC(COP([O-])(=O)OCC[N+](C)(C)C)OC(=O)CCCCCCCCCCCCCCC
RETENTIONTIME: 
CCS: -1
IONMODE: Negative
INSTRUMENTTYPE: LC-ESI-ITFT
INSTRUMENT: 
COLLISIONENERGY: 30
Comment: registered in MassBank
Num Peaks: 4
255.25	6
311.10001	5
329.14001	6
746.14001	1000

NAME: Phosphatidylcholine 18
PRECURSORMZ: 818.628043
PRECURSORTYPE: [M+CH3COO]-
FORMULA: C44H86NO8P
Ontology: Phosphatidylcholines
INCHIKEY: OBRNLVIDOVBLPU-FPODKLOTNA-N
SMILES: CCCCCCCCCCCCCCCCCC(=O)OCC(COP([O-])(=O)OCC[N+](C)(C)C)OC(=O)CC\C=C/CCCCCCCCCCCCC
RETENTIONTIME: 
CCS: -1
IONMODE: Negative
INSTRUMENTTYPE: LC-ESI-ITFT
INSTRUMENT: 
COLLISIONENERGY: 30
Comment: registered in MassBank
Num Peaks: 3
281.10999	9
772.12	1000
787.26001	6

NAME: Phosphatidylcholine 18
PRECURSORMZ: 816.612393
PRECURSORTYPE: [M+CH3COO]-
FORMULA: C44H84NO8P
Ontology: Phosphatidylcholines
INCHIKEY: BHAATSGDDOXMJD-FOXSRGEXNA-N
SMILES: CCCCCCCCCCCCCCCCCC(=O)OCC(COP([O-])(=O)OCC[N+](C)(C)C)OC(=O)CC\C=C/C\C=C/CCCCCCCCCC
RETENTIONTIME: 
CCS: -1
IONMODE: Negative
INSTRUMENTTYPE: LC-ESI-ITFT
INSTRUMENT: 
COLLISIONENERGY: 30
Comment: registered in MassBank
Num Peaks: 3
279.07001	10
770.26001	1000
785.08002	8

NAME: Phosphatidylcholine 18
PRECURSORMZ: 814.596743
PRECURSORTYPE: [M+CH3COO]-
FORMULA: C44H82NO8P
Ontology: Phosphatidylcholines
INCHIKEY: FAUTUPCMPPIYHO-UEZFOCAYNA-N
SMILES: CCCCCCCCCCCCCCCCCC(=O)OCC(COP([O-])(=O)OCC[N+](C)(C)C)OC(=O)CC\C=C/C\C=C/C\C=C/CCCCCCC
RETENTIONTIME: 
CCS: -1
IONMODE: Negative
INSTRUMENTTYPE: LC-ESI-ITFT
INSTRUMENT: 
COLLISIONENERGY: 30
Comment: registered in MassBank
Num Peaks: 2
768.09998	1000
783.17999	6

NAME: Phosphatidylcholine 18
PRECURSORMZ: 842.628043
PRECURSORTYPE: [M+CH3COO]-
FORMULA: C46H86NO8P
Ontology: Phosphatidylcholines
INCHIKEY: JKGNHUXTJMEAQU-YDXMYUDNNA-N
SMILES: CCCCCCCCCCCCCCCCCC(=O)OCC(COP([O-])(=O)OCC[N+](C)(C)C)OC(=O)CC\C=C/C\C=C/C\C=C/CCCCCCCCC
RETENTIONTIME: 
CCS: -1
IONMODE: Negative
INSTRUMENTTYPE: LC-ESI-ITFT
INSTRUMENT: 
COLLISIONENERGY: 30
Comment: registered in MassBank
Num Peaks: 2
305	8
796.26001	1000

NAME: Phosphatidylcholine 18
PRECURSORMZ: 840.612393
PRECURSORTYPE: [M+CH3COO]-
FORMULA: C46H84NO8P
Ontology: Phosphatidylcholines
INCHIKEY: FALSXTSFRXGEBP-KKHNUOCRNA-N
SMILES: CCCCCCCCCCCCCCCCCC(=O)OCC(COP([O-])(=O)OCC[N+](C)(C)C)OC(=O)CC\C=C/C\C=C/C\C=C/C\C=C/CCCCCC
RETENTIONTIME: 
CCS: -1
IONMODE: Negative
INSTRUMENTTYPE: LC-ESI-ITFT
INSTRUMENT: 
COLLISIONENERGY: 30
Comment: registered in MassBank
Num Peaks: 2
794.21997	1000
809.03003	6

NAME: Phosphatidylcholine 18
PRECURSORMZ: 838.596743
PRECURSORTYPE: [M+CH3COO]-
FORMULA: C46H82NO8P
Ontology: Phosphatidylcholines
INCHIKEY: QFBBGGXUDNWUMX-NBFUFYKZNA-N
SMILES: CCCCCCCCCCCCCCCCCC(=O)OCC(COP([O-])(=O)OCC[N+](C)(C)C)OC(=O)CC\C=C/C\C=C/C\C=C/C\C=C/C\C=C/CCC
RETENTIONTIME: 
CCS: -1
IONMODE: Negative
INSTRUMENTTYPE: LC-ESI-ITFT
INSTRUMENT: 
COLLISIONENERGY: 30
Comment: registered in MassBank
Num Peaks: 4
257.01001	6
284.62	8
301.20999	9
792.16998	1000

NAME: Phosphatidylcholine 18
PRECURSORMZ: 866.628043
PRECURSORTYPE: [M+CH3COO]-
FORMULA: C48H86NO8P
Ontology: Phosphatidylcholines
INCHIKEY: GLPAGCOJQYNMCC-QBFOOBQRNA-N
SMILES: CCCCCCCCCCCCCCCCCC(=O)OCC(COP([O-])(=O)OCC[N+](C)(C)C)OC(=O)CC\C=C/C\C=C/C\C=C/C\C=C/C\C=C/CCCCC
RETENTIONTIME: 
CCS: -1
IONMODE: Negative
INSTRUMENTTYPE: LC-ESI-ITFT
INSTRUMENT: 
COLLISIONENERGY: 30
Comment: registered in MassBank
Num Peaks: 4
329.12	9
731.70001	8
818.92999	10
820.19	1000

NAME: Phosphatidylcholine 18
PRECURSORMZ: 864.612393
PRECURSORTYPE: [M+CH3COO]-
FORMULA: C48H84NO8P
Ontology: Phosphatidylcholines
INCHIKEY: FAUYAENFVCNTAL-UFTZFNJNNA-N
SMILES: CCCCCCCCCCCCCCCCCC(=O)OCC(COP([O-])(=O)OCC[N+](C)(C)C)OC(=O)CC\C=C/C\C=C/C\C=C/C\C=C/C\C=C/C\C=C/CC
RETENTIONTIME: 
CCS: -1
IONMODE: Negative
INSTRUMENTTYPE: LC-ESI-ITFT
INSTRUMENT: 
COLLISIONENERGY: 30
Comment: registered in MassBank
Num Peaks: 3
552.21002	13
818.08002	1000
833.32001	19

NAME: Phosphatidylcholine 18
PRECURSORMZ: 814.596743
PRECURSORTYPE: [M+CH3COO]-
FORMULA: C44H82NO8P
Ontology: Phosphatidylcholines
INCHIKEY: HZHAEVXGLQPJBM-KJZSVCAKNA-N
SMILES: CCCCCCCCCCCCC\C=C/CCC(=O)OCC(COP([O-])(=O)OCC[N+](C)(C)C)OC(=O)CC\C=C/C\C=C/CCCCCCCCCC
RETENTIONTIME: 
CCS: -1
IONMODE: Negative
INSTRUMENTTYPE: LC-ESI-ITFT
INSTRUMENT: 
COLLISIONENERGY: 30
Comment: registered in MassBank
Num Peaks: 6
279.20999	5
281.12	8
767.58002	102
768.23999	1000
783.03998	11
792.15002	7

NAME: Phosphatidylcholine 18
PRECURSORMZ: 838.596743
PRECURSORTYPE: [M+CH3COO]-
FORMULA: C46H82NO8P
Ontology: Phosphatidylcholines
INCHIKEY: HYDKDXOLAXLJKA-ICTLDNOWNA-N
SMILES: CCCCCCCCCCCCC\C=C/CCC(=O)OCC(COP([O-])(=O)OCC[N+](C)(C)C)OC(=O)CC\C=C/C\C=C/C\C=C/C\C=C/CCCCCC
RETENTIONTIME: 
CCS: -1
IONMODE: Negative
INSTRUMENTTYPE: LC-ESI-ITFT
INSTRUMENT: 
COLLISIONENERGY: 30
Comment: registered in MassBank
Num Peaks: 3
327.22	8
792.17999	1000
807.02002	30

NAME: Phosphatidylcholine 18
PRECURSORMZ: 862.596743
PRECURSORTYPE: [M+CH3COO]-
FORMULA: C48H82NO8P
Ontology: Phosphatidylcholines
INCHIKEY: SXQSZXLPXRGKHG-SUMKQPSKNA-N
SMILES: CCCCCCCCCCCCC\C=C/CCC(=O)OCC(COP([O-])(=O)OCC[N+](C)(C)C)OC(=O)CC\C=C/C\C=C/C\C=C/C\C=C/C\C=C/C\C=C/CC
RETENTIONTIME: 
CCS: -1
IONMODE: Negative
INSTRUMENTTYPE: LC-ESI-ITFT
INSTRUMENT: 
COLLISIONENERGY: 30
Comment: registered in MassBank
Num Peaks: 2
816.10999	1000
830.88	7

NAME: Phosphatidylcholine 18
PRECURSORMZ: 838.596743
PRECURSORTYPE: [M+CH3COO]-
FORMULA: C46H82NO8P
Ontology: Phosphatidylcholines
INCHIKEY: IIFIFYHDUBTVOC-YJECRCNZNA-N
SMILES: CCCCCCCCCC\C=C/C\C=C/CCC(=O)OCC(COP([O-])(=O)OCC[N+](C)(C)C)OC(=O)CC\C=C/C\C=C/C\C=C/CCCCCCCCC
RETENTIONTIME: 
CCS: -1
IONMODE: Negative
INSTRUMENTTYPE: LC-ESI-ITFT
INSTRUMENT: 
COLLISIONENERGY: 30
Comment: registered in MassBank
Num Peaks: 3
555.53998	66
792.21002	1000
816.15997	191

NAME: Phosphatidylcholine 18
PRECURSORMZ: 834.565443
PRECURSORTYPE: [M+CH3COO]-
FORMULA: C46H78NO8P
Ontology: Phosphatidylcholines
INCHIKEY: XAYMJCDXSDRVCT-KHVPVUJCNA-N
SMILES: CCCCCCCCCC\C=C/C\C=C/CCC(=O)OCC(COP([O-])(=O)OCC[N+](C)(C)C)OC(=O)CC\C=C/C\C=C/C\C=C/C\C=C/C\C=C/CCC
RETENTIONTIME: 
CCS: -1
IONMODE: Negative
INSTRUMENTTYPE: LC-ESI-ITFT
INSTRUMENT: 
COLLISIONENERGY: 30
Comment: registered in MassBank
Num Peaks: 2
788.09003	1000
788.76001	6

NAME: Phosphatidylcholine 18
PRECURSORMZ: 810.565443
PRECURSORTYPE: [M+CH3COO]-
FORMULA: C44H78NO8P
Ontology: Phosphatidylcholines
INCHIKEY: JEJPTXPTKMRSCT-VNUOCOMJNA-N
SMILES: CCCCCCCCCC\C=C/C\C=C/CCC(=O)OC(COC(=O)CC\C=C/C\C=C/C\C=C/CCCCCCC)COP([O-])(=O)OCC[N+](C)(C)C
RETENTIONTIME: 
CCS: -1
IONMODE: Negative
INSTRUMENTTYPE: LC-ESI-ITFT
INSTRUMENT: 
COLLISIONENERGY: 30
Comment: registered in MassBank
Num Peaks: 3
764.16998	1000
787.98999	73
788.64001	6

NAME: Phosphatidylcholine 19
PRECURSORMZ: 832.643694
PRECURSORTYPE: [M+CH3COO]-
FORMULA: C45H88NO8P
Ontology: Phosphatidylcholines
INCHIKEY: QKEFIMCGHFOKRT-YJKCNMNRNA-N
SMILES: CCCCCCCCCCCCCCCCCCC(=O)OCC(COP([O-])(=O)OCC[N+](C)(C)C)OC(=O)CC\C=C/CCCCCCCCCCCCC
RETENTIONTIME: 
CCS: -1
IONMODE: Negative
INSTRUMENTTYPE: LC-ESI-ITFT
INSTRUMENT: 
COLLISIONENERGY: 30
Comment: registered in MassBank
Num Peaks: 6
282.92001	27
438.82001	78
545.90997	24
772.96997	51
786.28998	1000
817.01001	18

NAME: Phosphatidylcholine 19
PRECURSORMZ: 830.628043
PRECURSORTYPE: [M+CH3COO]-
FORMULA: C45H86NO8P
Ontology: Phosphatidylcholines
INCHIKEY: BESSFRQTRGTUBA-XJKRCVSZNA-N
SMILES: CCCCCCCCCCCCCCCCCCC(=O)OCC(COP([O-])(=O)OCC[N+](C)(C)C)OC(=O)CC\C=C/C\C=C/CCCCCCCCCC
RETENTIONTIME: 
CCS: -1
IONMODE: Negative
INSTRUMENTTYPE: LC-ESI-ITFT
INSTRUMENT: 
COLLISIONENERGY: 30
Comment: registered in MassBank
Num Peaks: 3
279.14999	8
784.26001	1000
799.20001	7

NAME: Phosphatidylcholine 19
PRECURSORMZ: 878.628043
PRECURSORTYPE: [M+CH3COO]-
FORMULA: C49H86NO8P
Ontology: Phosphatidylcholines
INCHIKEY: MCBZZOAHAMROOU-DSFOIJQZNA-N
SMILES: CCCCCCCCCCCCCCCCCCC(=O)OCC(COP([O-])(=O)OCC[N+](C)(C)C)OC(=O)CC\C=C/C\C=C/C\C=C/C\C=C/C\C=C/C\C=C/CC
RETENTIONTIME: 
CCS: -1
IONMODE: Negative
INSTRUMENTTYPE: LC-ESI-ITFT
INSTRUMENT: 
COLLISIONENERGY: 30
Comment: registered in MassBank
Num Peaks: 6
508.42001	14
770.21002	66
818.76001	37
824.16998	20
832.20001	1000
888.71997	23

NAME: Phosphatidylcholine 19
PRECURSORMZ: 828.612393
PRECURSORTYPE: [M+CH3COO]-
FORMULA: C45H84NO8P
Ontology: Phosphatidylcholines
INCHIKEY: BLCTXUGKOYYBFA-DFWRNDSJNA-N
SMILES: CCCCCCCCCCCCCC\C=C/CCC(=O)OCC(COP([O-])(=O)OCC[N+](C)(C)C)OC(=O)CC\C=C/C\C=C/CCCCCCCCCC
RETENTIONTIME: 
CCS: -1
IONMODE: Negative
INSTRUMENTTYPE: LC-ESI-ITFT
INSTRUMENT: 
COLLISIONENERGY: 30
Comment: registered in MassBank
Num Peaks: 31
261.78	42
279.70001	52
283.10999	526
284.07999	89
327.03	16
419.07001	539
420.17999	97
460.13	26
462.92999	283
463.95999	8
505.78	65
507.32999	18
546.06	785
547.20001	94
549.82001	37
554.04999	26
590.28003	293
591.21997	45
633.08002	26
651.23999	55
702.53003	16
710.03998	29
752.15997	21
769.04999	846
770.13	450
773.78003	31
782.13	1000
782.76001	13
796.09003	26
797	13
835.65997	21

NAME: Phosphatidylcholine 20
PRECURSORMZ: 844.643694
PRECURSORTYPE: [M+CH3COO]-
FORMULA: C46H88NO8P
Ontology: Phosphatidylcholines
INCHIKEY: GUNFNSQQERLYDH-ZUOCNPMVNA-N
SMILES: CCCCCCCCCCCCCCCCCCCC(=O)OCC(COP([O-])(=O)OCC[N+](C)(C)C)OC(=O)CC\C=C/C\C=C/CCCCCCCCCC
RETENTIONTIME: 
CCS: -1
IONMODE: Negative
INSTRUMENTTYPE: LC-ESI-ITFT
INSTRUMENT: 
COLLISIONENERGY: 30
Comment: registered in MassBank
Num Peaks: 4
416.69	19
486.07999	8
777.94	14
798.25	1000

NAME: Phosphatidylcholine 20
PRECURSORMZ: 868.643694
PRECURSORTYPE: [M+CH3COO]-
FORMULA: C48H88NO8P
Ontology: Phosphatidylcholines
INCHIKEY: LKDQVYYANCMMNT-CTMZMWSNNA-N
SMILES: CCCCCCCCCCCCCCCCCCCC(=O)OCC(COP([O-])(=O)OCC[N+](C)(C)C)OC(=O)CC\C=C/C\C=C/C\C=C/C\C=C/CCCCCC
RETENTIONTIME: 
CCS: -1
IONMODE: Negative
INSTRUMENTTYPE: LC-ESI-ITFT
INSTRUMENT: 
COLLISIONENERGY: 30
Comment: registered in MassBank
Num Peaks: 2
822.27002	1000
837.03998	31

NAME: Phosphatidylcholine 20
PRECURSORMZ: 892.643694
PRECURSORTYPE: [M+CH3COO]-
FORMULA: C50H88NO8P
Ontology: Phosphatidylcholines
INCHIKEY: WAFWSBFKIPCFOF-ZOHKZEOUNA-N
SMILES: CCCCCCCCCCCCCCCCCCCC(=O)OCC(COP([O-])(=O)OCC[N+](C)(C)C)OC(=O)CC\C=C/C\C=C/C\C=C/C\C=C/C\C=C/C\C=C/CC
RETENTIONTIME: 
CCS: -1
IONMODE: Negative
INSTRUMENTTYPE: LC-ESI-ITFT
INSTRUMENT: 
COLLISIONENERGY: 30
Comment: registered in MassBank
Num Peaks: 3
838.59998	26
846.21997	1000
860.25	20

NAME: Phosphatidylcholine 20
PRECURSORMZ: 890.628043
PRECURSORTYPE: [M+CH3COO]-
FORMULA: C50H86NO8P
Ontology: Phosphatidylcholines
INCHIKEY: NDXZRODTPALTBU-HCJNTHTKNA-N
SMILES: CCCCCCCCCCCCCCC\C=C/CCC(=O)OCC(COP([O-])(=O)OCC[N+](C)(C)C)OC(=O)CC\C=C/C\C=C/C\C=C/C\C=C/C\C=C/C\C=C/CC
RETENTIONTIME: 
CCS: -1
IONMODE: Negative
INSTRUMENTTYPE: LC-ESI-ITFT
INSTRUMENT: 
COLLISIONENERGY: 30
Comment: registered in MassBank
Num Peaks: 11
438.5	43
505.10999	20
801.59998	60
830.14001	40
843.60999	96
844.25	1000
852.45001	56
858.03998	56
859.06	30
861.13	33
874.67999	13

NAME: Phosphatidylcholine 20
PRECURSORMZ: 888.612393
PRECURSORTYPE: [M+CH3COO]-
FORMULA: C50H84NO8P
Ontology: Phosphatidylcholines
INCHIKEY: IFGVQRXZWAJKEC-BXNVUMEENA-N
SMILES: CCCCCCCCCCCC\C=C/C\C=C/CCC(=O)OCC(COP([O-])(=O)OCC[N+](C)(C)C)OC(=O)CC\C=C/C\C=C/C\C=C/C\C=C/C\C=C/C\C=C/CC
RETENTIONTIME: 
CCS: -1
IONMODE: Negative
INSTRUMENTTYPE: LC-ESI-ITFT
INSTRUMENT: 
COLLISIONENERGY: 30
Comment: registered in MassBank
Num Peaks: 3
818.20001	72
842.15997	1000
886.21002	43

NAME: Phosphatidylcholine 22
PRECURSORMZ: 872.674994
PRECURSORTYPE: [M+CH3COO]-
FORMULA: C48H92NO8P
Ontology: Phosphatidylcholines
INCHIKEY: WRWYRAWKRKLJLU-VTFKHGFONA-N
SMILES: CCCCCCCCCCCCCCCCCCCCCC(=O)OCC(COP([O-])(=O)OCC[N+](C)(C)C)OC(=O)CC\C=C/C\C=C/CCCCCCCCCC
RETENTIONTIME: 
CCS: -1
IONMODE: Negative
INSTRUMENTTYPE: LC-ESI-ITFT
INSTRUMENT: 
COLLISIONENERGY: 30
Comment: registered in MassBank
Num Peaks: 4
781.98999	65
797.19	88
826.16998	1000
864.21997	37

NAME: Phosphatidylcholine alkenyl 16
PRECURSORMZ: 748.586179
PRECURSORTYPE: [M+CH3COO]-
FORMULA: C40H80NO7P
Ontology: 1-(1Z-alkenyl),2-acyl-glycerophosphocholines
INCHIKEY: PEWXKAOBUSBJLD-LVYIWIAJNA-N
SMILES: CCCCCCCCCCCCCCCC(=O)OC(CO\C=C\CCCCCCCCCCCCCC)COP([O-])(=O)OCC[N+](C)(C)C
RETENTIONTIME: 
CCS: -1
IONMODE: Negative
INSTRUMENTTYPE: LC-ESI-ITFT
INSTRUMENT: 
COLLISIONENERGY: 30
Comment: registered in MassBank
Num Peaks: 25
254.7	14
283.13	500
284.01999	67
302.51999	9
304.29999	9
327.14001	1000
328.12	88
329.17001	146
330.20999	11
405.91	25
418.84	7
422.98999	14
446.32999	23
448.10999	144
449.20999	13
464.34	67
466.17999	942
467.14999	142
537.08002	32
684.64001	13
694.76001	16
700.51001	13
702.13	784
702.76001	13
715.76001	32

NAME: Phosphatidylcholine alkenyl 16
PRECURSORMZ: 796.586179
PRECURSORTYPE: [M+CH3COO]-
FORMULA: C44H80NO7P
Ontology: 1-(1Z-alkenyl),2-acyl-glycerophosphocholines
INCHIKEY: WPFUZBNWEKXHJI-TUJGGYRWNA-N
SMILES: CCCCCCCCCCCCCC\C=C\OCC(COP([O-])(=O)OCC[N+](C)(C)C)OC(=O)CC\C=C/C\C=C/C\C=C/C\C=C/CCCCCC
RETENTIONTIME: 
CCS: -1
IONMODE: Negative
INSTRUMENTTYPE: LC-ESI-ITFT
INSTRUMENT: 
COLLISIONENERGY: 30
Comment: registered in MassBank
Num Peaks: 6
279.16	8
567.16998	7
714.40002	6
735.98999	20
750.15997	1000
803.90002	12

NAME: Phosphatidylcholine alkenyl 16
PRECURSORMZ: 820.586179
PRECURSORTYPE: [M+CH3COO]-
FORMULA: C46H80NO7P
Ontology: 1-(1Z-alkenyl),2-acyl-glycerophosphocholines
INCHIKEY: QICWUUGBNFIZAZ-OUHBEAGRNA-N
SMILES: CCCCCCCCCCCCCC\C=C\OCC(COP([O-])(=O)OCC[N+](C)(C)C)OC(=O)CC\C=C/C\C=C/C\C=C/C\C=C/C\C=C/C\C=C/CC
RETENTIONTIME: 
CCS: -1
IONMODE: Negative
INSTRUMENTTYPE: LC-ESI-ITFT
INSTRUMENT: 
COLLISIONENERGY: 30
Comment: registered in MassBank
Num Peaks: 7
327.19	6
432.26999	7
738.28998	23
765.84998	29
774.15002	1000
789.56	10
791.48999	6

NAME: Phosphatidylcholine alkenyl 18
PRECURSORMZ: 824.617479
PRECURSORTYPE: [M+CH3COO]-
FORMULA: C46H84NO7P
Ontology: 1-(1Z-alkenyl),2-acyl-glycerophosphocholines
INCHIKEY: HCYYHDMAKLYNDP-AYYWLCDQNA-N
SMILES: CCCCCCCCCCCCCCCC\C=C\OCC(COP([O-])(=O)OCC[N+](C)(C)C)OC(=O)CC\C=C/C\C=C/C\C=C/C\C=C/CCCCCC
RETENTIONTIME: 
CCS: -1
IONMODE: Negative
INSTRUMENTTYPE: LC-ESI-ITFT
INSTRUMENT: 
COLLISIONENERGY: 30
Comment: registered in MassBank
Num Peaks: 9
329.09	31
441.07001	17
444.87	19
730.83002	22
742.09998	31
743.19	33
771.07001	50
778.22998	1000
838.32001	14

NAME: Phosphatidylcholine alkyl 16
PRECURSORMZ: 750.601829
PRECURSORTYPE: [M+CH3COO]-
FORMULA: C40H82NO7P
Ontology: 1-alkyl,2-acylglycero-3-phosphocholines
INCHIKEY: WOTHHEHCEYHCFE-UHFFFAOYNA-N
SMILES: CCCCCCCCCCCCCCCCOCC(COP([O-])(=O)OCC[N+](C)(C)C)OC(=O)CCCCCCCCCCCCCCC
RETENTIONTIME: 
CCS: -1
IONMODE: Negative
INSTRUMENTTYPE: LC-ESI-ITFT
INSTRUMENT: 
COLLISIONENERGY: 30
Comment: registered in MassBank
Num Peaks: 7
255.08	11
285	13
328.97	91
330.20001	54
359.20001	12
466.37	84
704.23999	1000

NAME: Phosphatidylcholine alkyl 16
PRECURSORMZ: 774.601829
PRECURSORTYPE: [M+CH3COO]-
FORMULA: C42H82NO7P
Ontology: 1-alkyl,2-acylglycero-3-phosphocholines
INCHIKEY: CBJWWPFFZRSLMX-WGPKDLKGNA-N
SMILES: CCCCCCCCCCCCCCCCOCC(COP([O-])(=O)OCC[N+](C)(C)C)OC(=O)CC\C=C/C\C=C/CCCCCCCCCC
RETENTIONTIME: 
CCS: -1
IONMODE: Negative
INSTRUMENTTYPE: LC-ESI-ITFT
INSTRUMENT: 
COLLISIONENERGY: 30
Comment: registered in MassBank
Num Peaks: 6
279.29001	30
284.07001	9
401.79001	8
700.19	12
728.16998	1000
741.96002	8

NAME: Phosphatidylcholine alkyl 16
PRECURSORMZ: 798.601829
PRECURSORTYPE: [M+CH3COO]-
FORMULA: C44H82NO7P
Ontology: 1-alkyl,2-acylglycero-3-phosphocholines
INCHIKEY: MHOAZZSMGQCHNX-GJWWTBRZNA-N
SMILES: CCCCCCCCCCCCCCCCOCC(COP([O-])(=O)OCC[N+](C)(C)C)OC(=O)CC\C=C/C\C=C/C\C=C/C\C=C/CCCCCC
RETENTIONTIME: 
CCS: -1
IONMODE: Negative
INSTRUMENTTYPE: LC-ESI-ITFT
INSTRUMENT: 
COLLISIONENERGY: 30
Comment: registered in MassBank
Num Peaks: 8
301.26999	6
303.22	13
728.58002	7
743.83002	12
752.19	1000
753.07001	24
765.31	9
767.21997	17

NAME: Phosphatidylcholine alkyl 16
PRECURSORMZ: 824.617479
PRECURSORTYPE: [M+CH3COO]-
FORMULA: C46H84NO7P
Ontology: 1-alkyl,2-acylglycero-3-phosphocholines
INCHIKEY: JMQLAFWVISATAG-PEUCRCJUNA-N
SMILES: CCCCCCCCCCCCCCCCOCC(COP([O-])(=O)OCC[N+](C)(C)C)OC(=O)CC\C=C/C\C=C/C\C=C/C\C=C/C\C=C/CCCCC
RETENTIONTIME: 
CCS: -1
IONMODE: Negative
INSTRUMENTTYPE: LC-ESI-ITFT
INSTRUMENT: 
COLLISIONENERGY: 30
Comment: registered in MassBank
Num Peaks: 6
563.23999	8
720.16998	8
765.25	5
769.96997	15
778.21997	1000
834.14001	13

NAME: Phosphatidylcholine alkyl 16
PRECURSORMZ: 822.601829
PRECURSORTYPE: [M+CH3COO]-
FORMULA: C46H82NO7P
Ontology: 1-alkyl,2-acylglycero-3-phosphocholines
INCHIKEY: QQQQNYAHSSIZBU-XTQGPSINNA-N
SMILES: CCCCCCCCCCCCCCCCOCC(COP([O-])(=O)OCC[N+](C)(C)C)OC(=O)CC\C=C/C\C=C/C\C=C/C\C=C/C\C=C/C\C=C/CC
RETENTIONTIME: 
CCS: -1
IONMODE: Negative
INSTRUMENTTYPE: LC-ESI-ITFT
INSTRUMENT: 
COLLISIONENERGY: 30
Comment: registered in MassBank
Num Peaks: 8
327.42001	8
755.90002	17
757.23999	12
763.47998	7
768.26001	14
776.26001	1000
791.39001	8
798.15997	12

NAME: Phosphatidylcholine alkyl 18
PRECURSORMZ: 778.633129
PRECURSORTYPE: [M+CH3COO]-
FORMULA: C42H86NO7P
Ontology: 1-alkyl,2-acylglycero-3-phosphocholines
INCHIKEY: GTFLTTXDLGEBAI-UHFFFAOYNA-N
SMILES: CCCCCCCCCCCCCCCCCCOCC(COP([O-])(=O)OCC[N+](C)(C)C)OC(=O)CCCCCCCCCCCCCCC
RETENTIONTIME: 
CCS: -1
IONMODE: Negative
INSTRUMENTTYPE: LC-ESI-ITFT
INSTRUMENT: 
COLLISIONENERGY: 30
Comment: registered in MassBank
Num Peaks: 11
329.19	37
332.29001	13
359.06	110
464.04999	39
493.89999	30
702.84003	22
719.22998	95
725.28998	15
730.95001	22
732.14001	1000
742.91998	11

NAME: Phosphatidylcholine alkyl 18
PRECURSORMZ: 802.633129
PRECURSORTYPE: [M+CH3COO]-
FORMULA: C44H86NO7P
Ontology: 1-alkyl,2-acylglycero-3-phosphocholines
INCHIKEY: BXRBEIASHZFHSW-FOXSRGEXNA-N
SMILES: CCCCCCCCCCCCCCCCCCOCC(COP([O-])(=O)OCC[N+](C)(C)C)OC(=O)CC\C=C/C\C=C/CCCCCCCCCC
RETENTIONTIME: 
CCS: -1
IONMODE: Negative
INSTRUMENTTYPE: LC-ESI-ITFT
INSTRUMENT: 
COLLISIONENERGY: 30
Comment: registered in MassBank
Num Peaks: 10
328.28	6
494.34	9
499.97	12
518.15002	13
519.35999	20
707.02002	9
756.15002	1000
757.01001	29
757.70001	8
772.08002	14

NAME: Phosphatidylcholine alkyl 18
PRECURSORMZ: 826.633129
PRECURSORTYPE: [M+CH3COO]-
FORMULA: C46H86NO7P
Ontology: 1-alkyl,2-acylglycero-3-phosphocholines
INCHIKEY: VEJXVXTVFCQWMP-VROGFSTJNA-N
SMILES: CCCCCCCCCCCCCCCCCCOCC(COP([O-])(=O)OCC[N+](C)(C)C)OC(=O)CC\C=C/C\C=C/C\C=C/C\C=C/CCCCCC
RETENTIONTIME: 
CCS: -1
IONMODE: Negative
INSTRUMENTTYPE: LC-ESI-ITFT
INSTRUMENT: 
COLLISIONENERGY: 30
Comment: registered in MassBank
Num Peaks: 7
463.13	17
672	27
751.25	8
772.60999	7
780.21997	1000
781.21002	7
795.09003	27

NAME: Phosphatidylcholine alkyl 18
PRECURSORMZ: 850.633129
PRECURSORTYPE: [M+CH3COO]-
FORMULA: C48H86NO7P
Ontology: 1-alkyl,2-acylglycero-3-phosphocholines
INCHIKEY: QBZALASVZLFAHF-RRHSVIFUNA-N
SMILES: CCCCCCCCCCCCCCCCCCOCC(COP([O-])(=O)OCC[N+](C)(C)C)OC(=O)CC\C=C/C\C=C/C\C=C/C\C=C/C\C=C/C\C=C/CC
RETENTIONTIME: 
CCS: -1
IONMODE: Negative
INSTRUMENTTYPE: LC-ESI-ITFT
INSTRUMENT: 
COLLISIONENERGY: 30
Comment: registered in MassBank
Num Peaks: 7
290.03	32
501.84	22
764.06	285
766.09998	32
784.13	360
804.14001	1000
820.53998	102

NAME: Phosphatidylcholine alkyl 18
PRECURSORMZ: 776.617479
PRECURSORTYPE: [M+CH3COO]-
FORMULA: C42H84NO7P
Ontology: 1-alkyl,2-acylglycero-3-phosphocholines
INCHIKEY: ITFYCOXGRQISEW-HYOGKJQXNA-N
SMILES: CCCCCCCCCCCCCCCC(=O)OC(COCCC\C=C/CCCCCCCCCCCCC)COP([O-])(=O)OCC[N+](C)(C)C
RETENTIONTIME: 
CCS: -1
IONMODE: Negative
INSTRUMENTTYPE: LC-ESI-ITFT
INSTRUMENT: 
COLLISIONENERGY: 30
Comment: registered in MassBank
Num Peaks: 2
655.92999	10
730.29999	1000

NAME: Phosphatidylcholine lyso 15
PRECURSORMZ: 512.335778
PRECURSORTYPE: [M+CH3COO]-
FORMULA: C23H48NO7P
Ontology: 2-acyl-sn-glycero-3-phosphocholines
INCHIKEY: AGHWJZIEMKQLQP-UHFFFAOYNA-N
SMILES: CCCCCCCCCCCCCCC(=O)OC(CO)COP([O-])(=O)OCC[N+](C)(C)C
RETENTIONTIME: 
CCS: -1
IONMODE: Negative
INSTRUMENTTYPE: LC-ESI-ITFT
INSTRUMENT: 
COLLISIONENERGY: 30
Comment: registered in MassBank
Num Peaks: 6
372.70001	11
386.13	7
466.13	1000
466.98001	8
496.04001	5
528.52002	5

NAME: Phosphatidylcholine lyso 16
PRECURSORMZ: 526.351428
PRECURSORTYPE: [M+CH3COO]-
FORMULA: C24H50NO7P
Ontology: 2-acyl-sn-glycero-3-phosphocholines
INCHIKEY: NEGQHKSYEYVFTD-UHFFFAOYNA-N
SMILES: CCCCCCCCCCCCCCCC(=O)OC(CO)COP([O-])(=O)OCC[N+](C)(C)C
RETENTIONTIME: 
CCS: -1
IONMODE: Negative
INSTRUMENTTYPE: LC-ESI-ITFT
INSTRUMENT: 
COLLISIONENERGY: 30
Comment: registered in MassBank
Num Peaks: 1
480.16	1000

NAME: Phosphatidylcholine lyso 16
PRECURSORMZ: 524.335778
PRECURSORTYPE: [M+CH3COO]-
FORMULA: C24H48NO7P
Ontology: 2-acyl-sn-glycero-3-phosphocholines
INCHIKEY: GMEZONVWGDDWOJ-NXVVXOECNA-N
SMILES: CCCCCCCCCCC\C=C/CCC(=O)OC(CO)COP([O-])(=O)OCC[N+](C)(C)C
RETENTIONTIME: 
CCS: -1
IONMODE: Negative
INSTRUMENTTYPE: LC-ESI-ITFT
INSTRUMENT: 
COLLISIONENERGY: 30
Comment: registered in MassBank
Num Peaks: 4
389.37	6
410.14001	10
478.12	1000
531.12	6

NAME: Phosphatidylcholine lyso 17
PRECURSORMZ: 540.367078
PRECURSORTYPE: [M+CH3COO]-
FORMULA: C25H52NO7P
Ontology: 2-acyl-sn-glycero-3-phosphocholines
INCHIKEY: ODFZXVWAVNPFPM-UHFFFAOYNA-N
SMILES: CCCCCCCCCCCCCCCCC(=O)OC(CO)COP([O-])(=O)OCC[N+](C)(C)C
RETENTIONTIME: 
CCS: -1
IONMODE: Negative
INSTRUMENTTYPE: LC-ESI-ITFT
INSTRUMENT: 
COLLISIONENERGY: 30
Comment: registered in MassBank
Num Peaks: 12
392.87	7
448.95001	10
465.42999	7
468.82999	7
469.53	9
477.69	20
486.20001	18
493.60999	210
494.23999	1000
507.78	27
508.41	5
536.45001	5

NAME: Phosphatidylcholine lyso 18
PRECURSORMZ: 554.382728
PRECURSORTYPE: [M+CH3COO]-
FORMULA: C26H54NO7P
Ontology: 2-acyl-sn-glycero-3-phosphocholines
INCHIKEY: IQGPMZRCLCCXAG-UHFFFAOYNA-N
SMILES: CCCCCCCCCCCCCCCCCC(=O)OC(CO)COP([O-])(=O)OCC[N+](C)(C)C
RETENTIONTIME: 
CCS: -1
IONMODE: Negative
INSTRUMENTTYPE: LC-ESI-ITFT
INSTRUMENT: 
COLLISIONENERGY: 30
Comment: registered in MassBank
Num Peaks: 1
508.12	1000

NAME: Phosphatidylcholine lyso 18
PRECURSORMZ: 552.367078
PRECURSORTYPE: [M+CH3COO]-
FORMULA: C26H52NO7P
Ontology: 2-acyl-sn-glycero-3-phosphocholines
INCHIKEY: WZSWWJLIQCVBRG-ZCXUNETKNA-N
SMILES: CCCCCCCCCCCCC\C=C/CCC(=O)OC(CO)COP([O-])(=O)OCC[N+](C)(C)C
RETENTIONTIME: 
CCS: -1
IONMODE: Negative
INSTRUMENTTYPE: LC-ESI-ITFT
INSTRUMENT: 
COLLISIONENERGY: 30
Comment: registered in MassBank
Num Peaks: 2
505.94	1000
506.60999	6

NAME: Phosphatidylcholine lyso 18
PRECURSORMZ: 550.351428
PRECURSORTYPE: [M+CH3COO]-
FORMULA: C26H50NO7P
Ontology: 2-acyl-sn-glycero-3-phosphocholines
INCHIKEY: HQNGWMLDFPEZSR-NFYLBXPENA-N
SMILES: CCCCCCCCCC\C=C/C\C=C/CCC(=O)OC(CO)COP([O-])(=O)OCC[N+](C)(C)C
RETENTIONTIME: 
CCS: -1
IONMODE: Negative
INSTRUMENTTYPE: LC-ESI-ITFT
INSTRUMENT: 
COLLISIONENERGY: 30
Comment: registered in MassBank
Num Peaks: 2
504.09	1000
528.16998	21

NAME: Phosphatidylcholine lyso 18
PRECURSORMZ: 548.335778
PRECURSORTYPE: [M+CH3COO]-
FORMULA: C26H48NO7P
Ontology: 2-acyl-sn-glycero-3-phosphocholines
INCHIKEY: JPMIFOSJPGRLCB-IHDWIWDKNA-N
SMILES: CCCCCCC\C=C/C\C=C/C\C=C/CCC(=O)OC(CO)COP([O-])(=O)OCC[N+](C)(C)C
RETENTIONTIME: 
CCS: -1
IONMODE: Negative
INSTRUMENTTYPE: LC-ESI-ITFT
INSTRUMENT: 
COLLISIONENERGY: 30
Comment: registered in MassBank
Num Peaks: 11
420.39001	13
450.70001	18
454.95001	10
492.57999	24
494.13	18
502.06	1000
516.15002	10
520.92999	7
533.06	7
534.62	10
555.97998	7

NAME: Phosphatidylcholine lyso 19
PRECURSORMZ: 568.398378
PRECURSORTYPE: [M+CH3COO]-
FORMULA: C27H56NO7P
Ontology: 2-acyl-sn-glycero-3-phosphocholines
INCHIKEY: FPTNXEGPLIELIU-UHFFFAOYNA-N
SMILES: CCCCCCCCCCCCCCCCCCC(=O)OC(CO)COP([O-])(=O)OCC[N+](C)(C)C
RETENTIONTIME: 
CCS: -1
IONMODE: Negative
INSTRUMENTTYPE: LC-ESI-ITFT
INSTRUMENT: 
COLLISIONENERGY: 30
Comment: registered in MassBank
Num Peaks: 5
366.62	22
367.67001	16
509.16	18
522.12	1000
536.51001	67

NAME: Phosphatidylcholine lyso 20
PRECURSORMZ: 582.414028
PRECURSORTYPE: [M+CH3COO]-
FORMULA: C28H58NO7P
Ontology: 2-acyl-sn-glycero-3-phosphocholines
INCHIKEY: WQBSSUPHAAAVSW-UHFFFAOYNA-N
SMILES: CCCCCCCCCCCCCCCCCCCC(=O)OC(CO)COP([O-])(=O)OCC[N+](C)(C)C
RETENTIONTIME: 
CCS: -1
IONMODE: Negative
INSTRUMENTTYPE: LC-ESI-ITFT
INSTRUMENT: 
COLLISIONENERGY: 30
Comment: registered in MassBank
Num Peaks: 6
454.75	14
511.94	7
536.10999	1000
550.65997	8
566.72998	13
578.15002	17

NAME: Phosphatidylcholine lyso 20
PRECURSORMZ: 580.398378
PRECURSORTYPE: [M+CH3COO]-
FORMULA: C28H56NO7P
Ontology: 2-acyl-sn-glycero-3-phosphocholines
INCHIKEY: IDRKESNUEGURSD-VXPUYCOJNA-N
SMILES: CCCCCCCCCCCCCCC\C=C/CCC(=O)OC(CO)COP([O-])(=O)OCC[N+](C)(C)C
RETENTIONTIME: 
CCS: -1
IONMODE: Negative
INSTRUMENTTYPE: LC-ESI-ITFT
INSTRUMENT: 
COLLISIONENERGY: 30
Comment: registered in MassBank
Num Peaks: 9
245.09	26
281.12	5
409.67999	13
433.67001	11
451.87	16
504.26999	18
520.96002	29
534.15002	1000
575.91998	29

NAME: Phosphatidylcholine lyso 20
PRECURSORMZ: 578.382728
PRECURSORTYPE: [M+CH3COO]-
FORMULA: C28H54NO7P
Ontology: 2-acyl-sn-glycero-3-phosphocholines
INCHIKEY: UYFMNJBGVSPBGJ-LTXDKZCQNA-N
SMILES: CCCCCCCCCCCC\C=C/C\C=C/CCC(=O)OC(CO)COP([O-])(=O)OCC[N+](C)(C)C
RETENTIONTIME: 
CCS: -1
IONMODE: Negative
INSTRUMENTTYPE: LC-ESI-ITFT
INSTRUMENT: 
COLLISIONENERGY: 30
Comment: registered in MassBank
Num Peaks: 8
464.20001	11
516.21997	30
518.10999	13
523.79999	34
527.47998	28
531.35999	41
532.10999	1000
563.37	41

NAME: Phosphatidylcholine lyso 20
PRECURSORMZ: 576.367078
PRECURSORTYPE: [M+CH3COO]-
FORMULA: C28H52NO7P
Ontology: 2-acyl-sn-glycero-3-phosphocholines
INCHIKEY: BLWVEPQPFFTFIJ-BYBPBHJYNA-N
SMILES: CCCCCCCCC\C=C/C\C=C/C\C=C/CCC(=O)OC(CO)COP([O-])(=O)OCC[N+](C)(C)C
RETENTIONTIME: 
CCS: -1
IONMODE: Negative
INSTRUMENTTYPE: LC-ESI-ITFT
INSTRUMENT: 
COLLISIONENERGY: 30
Comment: registered in MassBank
Num Peaks: 5
305.28	6
530	1000
530.79999	5
544.46997	7
574.21997	8

NAME: Phosphatidylcholine lyso 20
PRECURSORMZ: 574.351428
PRECURSORTYPE: [M+CH3COO]-
FORMULA: C28H50NO7P
Ontology: 2-acyl-sn-glycero-3-phosphocholines
INCHIKEY: XHKVQFBZSMLFNL-AILJCPQKNA-N
SMILES: CCCCCC\C=C/C\C=C/C\C=C/C\C=C/CCC(=O)OC(CO)COP([O-])(=O)OCC[N+](C)(C)C
RETENTIONTIME: 
CCS: -1
IONMODE: Negative
INSTRUMENTTYPE: LC-ESI-ITFT
INSTRUMENT: 
COLLISIONENERGY: 30
Comment: registered in MassBank
Num Peaks: 3
528.02002	1000
542.98999	6
552.16998	12

NAME: Phosphatidylcholine lyso 20
PRECURSORMZ: 572.335778
PRECURSORTYPE: [M+CH3COO]-
FORMULA: C28H48NO7P
Ontology: 2-acyl-sn-glycero-3-phosphocholines
INCHIKEY: OYUDYTIZCLNYHF-NEUKSRIFNA-N
SMILES: CCC\C=C/C\C=C/C\C=C/C\C=C/C\C=C/CCC(=O)OC(CO)COP([O-])(=O)OCC[N+](C)(C)C
RETENTIONTIME: 
CCS: -1
IONMODE: Negative
INSTRUMENTTYPE: LC-ESI-ITFT
INSTRUMENT: 
COLLISIONENERGY: 30
Comment: registered in MassBank
Num Peaks: 10
394.64999	6
422.82999	5
456.26999	35
457.82001	21
458.91	17
518.09003	7
525.33002	16
526	1000
540.15997	8
540.94	6

NAME: Phosphatidylcholine lyso 22
PRECURSORMZ: 610.445328
PRECURSORTYPE: [M+CH3COO]-
FORMULA: C30H62NO7P
Ontology: 2-acyl-sn-glycero-3-phosphocholines
INCHIKEY: NTLXEWYXJAAKIX-UHFFFAOYNA-N
SMILES: CCCCCCCCCCCCCCCCCCCCCC(=O)OC(CO)COP([O-])(=O)OCC[N+](C)(C)C
RETENTIONTIME: 
CCS: -1
IONMODE: Negative
INSTRUMENTTYPE: LC-ESI-ITFT
INSTRUMENT: 
COLLISIONENERGY: 30
Comment: registered in MassBank
Num Peaks: 3
469.31	29
556.28998	36
564.21002	1000

NAME: Phosphatidylcholine lyso 22
PRECURSORMZ: 598.351428
PRECURSORTYPE: [M+CH3COO]-
FORMULA: C30H50NO7P
Ontology: 2-acyl-sn-glycero-3-phosphocholines
INCHIKEY: FTLVGMFFHDRYDI-WSDBEMKQNA-N
SMILES: CC\C=C/C\C=C/C\C=C/C\C=C/C\C=C/C\C=C/CCC(=O)OC(CO)COP([O-])(=O)OCC[N+](C)(C)C
RETENTIONTIME: 
CCS: -1
IONMODE: Negative
INSTRUMENTTYPE: LC-ESI-ITFT
INSTRUMENT: 
COLLISIONENERGY: 30
Comment: registered in MassBank
Num Peaks: 3
551.96002	1000
552.60999	6
566.72998	10

NAME: Phosphatidylethanolamine 15
PRECURSORMZ: 724.492278
PRECURSORTYPE: [M-H]-
FORMULA: C40H72NO8P
Ontology: Phosphatidylethanolamines
INCHIKEY: LXBLQTXTKDXBMT-UTYDGVOLNA-N
SMILES: CCCCCCCCCCCCCCC(=O)OCC(COP(O)(=O)OCCN)OC(=O)CC\C=C/C\C=C/C\C=C/C\C=C/CCCCCC
RETENTIONTIME: 
CCS: -1
IONMODE: Negative
INSTRUMENTTYPE: LC-ESI-ITFT
INSTRUMENT: 
COLLISIONENERGY: 30
Comment: registered in MassBank
Num Peaks: 13
213.55	23
240.96001	446
242.19	16
259.35999	124
260.22	39
268.32999	31
281.32999	31
303.12	1000
304.06	136
437.98001	167
439.07999	16
497.73001	23
643.03003	58

NAME: Phosphatidylethanolamine 15
PRECURSORMZ: 748.492278
PRECURSORTYPE: [M-H]-
FORMULA: C42H72NO8P
Ontology: Phosphatidylethanolamines
INCHIKEY: WIJRNOBSWIZHST-JTURFRPLNA-N
SMILES: CCCCCCCCCCCCCCC(=O)OCC(COP(O)(=O)OCCN)OC(=O)CC\C=C/C\C=C/C\C=C/C\C=C/C\C=C/C\C=C/CC
RETENTIONTIME: 
CCS: 383.7427226
IONMODE: Negative
INSTRUMENTTYPE: LC-ESI-ITFT
INSTRUMENT: 
COLLISIONENERGY: 30
Comment: registered in MassBank
Num Peaks: 13
241.19	603
242.03999	82
283.14999	757
284.10001	155
327.09	1000
328.03	60
420.28	32
437.94	369
438.98001	28
463.20001	50
524.15997	60
538.31	41
705.60999	22

NAME: Phosphatidylethanolamine 16
PRECURSORMZ: 688.492278
PRECURSORTYPE: [M-H]-
FORMULA: C37H72NO8P
Ontology: Phosphatidylethanolamines
INCHIKEY: NJQOUKFMDSLWNH-LCUIJRPUNA-N
SMILES: CCCCCCCCCCCCCCCC(=O)OCC(COP(O)(=O)OCCN)OC(=O)CC\C=C/CCCCCCCCCCC
RETENTIONTIME: 
CCS: -1
IONMODE: Negative
INSTRUMENTTYPE: LC-ESI-ITFT
INSTRUMENT: 
COLLISIONENERGY: 30
Comment: registered in MassBank
Num Peaks: 8
253.07001	1000
254.09	109
255.16	485
256.14999	20
281.26001	15
391.01999	12
432.14001	14
449.01001	69

NAME: Phosphatidylethanolamine 16
PRECURSORMZ: 716.523578
PRECURSORTYPE: [M-H]-
FORMULA: C39H76NO8P
Ontology: Phosphatidylethanolamines
INCHIKEY: RECBGBLFDMTQRS-SGEDCAFJNA-N
SMILES: CCCCCCCCCCCCCCCC(=O)OCC(COP(O)(=O)OCCN)OC(=O)CC\C=C/CCCCCCCCCCCCC
RETENTIONTIME: 
CCS: -1
IONMODE: Negative
INSTRUMENTTYPE: LC-ESI-ITFT
INSTRUMENT: 
COLLISIONENERGY: 30
Comment: registered in MassBank
Num Peaks: 5
255.09	284
256.07999	6
281.07999	1000
282.14001	14
434.06	8

NAME: Phosphatidylethanolamine 16
PRECURSORMZ: 714.507928
PRECURSORTYPE: [M-H]-
FORMULA: C39H74NO8P
Ontology: Phosphatidylethanolamines
INCHIKEY: JXRDSKPCJNWQEG-BAOXYHDDNA-N
SMILES: CCCCCCCCCCCCCCCC(=O)OCC(COP(O)(=O)OCCN)OC(=O)CC\C=C/C\C=C/CCCCCCCCCC
RETENTIONTIME: 
CCS: -1
IONMODE: Negative
INSTRUMENTTYPE: LC-ESI-ITFT
INSTRUMENT: 
COLLISIONENERGY: 30
Comment: registered in MassBank
Num Peaks: 4
255.00999	286
261.17999	5
279.04999	1000
434.04001	9

NAME: Phosphatidylethanolamine 16
PRECURSORMZ: 712.492278
PRECURSORTYPE: [M-H]-
FORMULA: C39H72NO8P
Ontology: Phosphatidylethanolamines
INCHIKEY: BXKYCESYRFZXHJ-FFPWFUNSNA-N
SMILES: CCCCCCCCCCCCCCCC(=O)OCC(COP(O)(=O)OCCN)OC(=O)CC\C=C/C\C=C/C\C=C/CCCCCCC
RETENTIONTIME: 
CCS: -1
IONMODE: Negative
INSTRUMENTTYPE: LC-ESI-ITFT
INSTRUMENT: 
COLLISIONENERGY: 30
Comment: registered in MassBank
Num Peaks: 7
233.17999	9
255.03	301
256.34	8
277.07001	1000
278.13	135
279.20001	8
391.20999	9

NAME: Phosphatidylethanolamine 16
PRECURSORMZ: 744.554879
PRECURSORTYPE: [M-H]-
FORMULA: C41H80NO8P
Ontology: Phosphatidylethanolamines
INCHIKEY: QRLWPEYQYHTNGC-HYOGKJQXNA-N
SMILES: CCCCCCCCCCCCCCC\C=C/CCC(=O)OC(COC(=O)CCCCCCCCCCCCCCC)COP(O)(=O)OCCN
RETENTIONTIME: 
CCS: -1
IONMODE: Negative
INSTRUMENTTYPE: LC-ESI-ITFT
INSTRUMENT: 
COLLISIONENERGY: 30
Comment: registered in MassBank
Num Peaks: 15
255.09	240
256.42001	11
281.38	7
283.29001	36
309.16	1000
310.14999	143
390.98001	5
434.60001	7
452.01999	84
453.10001	9
466.81	13
480.20999	5
680.84998	66
721.90002	16
723.72998	16

NAME: Phosphatidylethanolamine 16
PRECURSORMZ: 740.523578
PRECURSORTYPE: [M-H]-
FORMULA: C41H76NO8P
Ontology: Phosphatidylethanolamines
INCHIKEY: FOZMADPVSAYPHH-PNECARMWNA-N
SMILES: CCCCCCCCCCCCCCCC(=O)OCC(COP(O)(=O)OCCN)OC(=O)CC\C=C/C\C=C/C\C=C/CCCCCCCCC
RETENTIONTIME: 
CCS: -1
IONMODE: Negative
INSTRUMENTTYPE: LC-ESI-ITFT
INSTRUMENT: 
COLLISIONENERGY: 30
Comment: registered in MassBank
Num Peaks: 12
255.16	293
256.26001	16
261.20001	6
279.01001	34
281.14999	11
305.04999	1000
306.09	100
434.10999	6
452.09	131
453.03	8
483.98001	7
502.19	17

NAME: Phosphatidylethanolamine 16
PRECURSORMZ: 738.507928
PRECURSORTYPE: [M-H]-
FORMULA: C41H74NO8P
Ontology: Phosphatidylethanolamines
INCHIKEY: ARFPLDYYIYCLNV-WRDNLCFKNA-N
SMILES: CCCCCCCCCCCCCCCC(=O)OCC(COP(O)(=O)OCCN)OC(=O)CC\C=C/C\C=C/C\C=C/C\C=C/CCCCCC
RETENTIONTIME: 
CCS: -1
IONMODE: Negative
INSTRUMENTTYPE: LC-ESI-ITFT
INSTRUMENT: 
COLLISIONENERGY: 30
Comment: registered in MassBank
Num Peaks: 8
255.11	350
259.07999	80
301.22	7
303.01001	1000
434.07001	14
452	251
481.87	9
500.03	28

NAME: Phosphatidylethanolamine 16
PRECURSORMZ: 736.492278
PRECURSORTYPE: [M-H]-
FORMULA: C41H72NO8P
Ontology: Phosphatidylethanolamines
INCHIKEY: QLFZCNOCZYRVAU-JPOVHVJANA-N
SMILES: CCCCCCCCCCCCCCCC(=O)OCC(COP(O)(=O)OCCN)OC(=O)CC\C=C/C\C=C/C\C=C/C\C=C/C\C=C/CCC
RETENTIONTIME: 
CCS: -1
IONMODE: Negative
INSTRUMENTTYPE: LC-ESI-ITFT
INSTRUMENT: 
COLLISIONENERGY: 30
Comment: registered in MassBank
Num Peaks: 12
255.06	557
256.07001	24
257.10001	252
265.23999	7
283.14001	12
301.03	1000
302.04999	53
434.13	16
452.12	332
453.09	16
479.97	16
498	26

NAME: Phosphatidylethanolamine 16
PRECURSORMZ: 766.539229
PRECURSORTYPE: [M-H]-
FORMULA: C43H78NO8P
Ontology: Phosphatidylethanolamines
INCHIKEY: WRJMLLZQXDAGES-ASOJYNRJNA-N
SMILES: CCCCCCCCCCCCCCCC(=O)OCC(COP(O)(=O)OCCN)OC(=O)CC\C=C/C\C=C/C\C=C/C\C=C/CCCCCCCC
RETENTIONTIME: 
CCS: -1
IONMODE: Negative
INSTRUMENTTYPE: LC-ESI-ITFT
INSTRUMENT: 
COLLISIONENERGY: 30
Comment: registered in MassBank
Num Peaks: 21
255.05	489
256.37	10
269.44	12
281.39001	82
283.26999	74
287.23999	25
303.10001	35
304.07001	12
305.12	171
307.19	60
331.17001	1000
332.20001	146
434.10999	15
435.38	40
452.17999	136
480.10999	32
481.26001	35
527.78998	22
532.60999	22
685.47998	35
749.34003	10

NAME: Phosphatidylethanolamine 16
PRECURSORMZ: 762.507928
PRECURSORTYPE: [M-H]-
FORMULA: C43H74NO8P
Ontology: Phosphatidylethanolamines
INCHIKEY: MPWUZHVZZKSTPV-LGFBOSHVNA-N
SMILES: CCCCCCCCCCCCCCCC(=O)OCC(COP(O)(=O)OCCN)OC(=O)CC\C=C/C\C=C/C\C=C/C\C=C/C\C=C/C\C=C/CC
RETENTIONTIME: 
CCS: 364.4650752
IONMODE: Negative
INSTRUMENTTYPE: LC-ESI-ITFT
INSTRUMENT: 
COLLISIONENERGY: 30
Comment: registered in MassBank
Num Peaks: 14
229.14	23
249.21001	10
255.09	617
256.20999	71
283.07001	462
284.03	77
327.01001	1000
328.10999	138
434.28	28
435.09	8
452.04001	409
453.14999	53
505.78	23
523.90997	42

NAME: Phosphatidylethanolamine 16
PRECURSORMZ: 712.492278
PRECURSORTYPE: [M-H]-
FORMULA: C39H72NO8P
Ontology: Phosphatidylethanolamines
INCHIKEY: FRABUNWXDQTBFH-XTKKSKBQNA-N
SMILES: CCCCCCCCCCC\C=C/CCC(=O)OCC(COP(O)(=O)OCCN)OC(=O)CC\C=C/C\C=C/CCCCCCCCCC
RETENTIONTIME: 
CCS: -1
IONMODE: Negative
INSTRUMENTTYPE: LC-ESI-ITFT
INSTRUMENT: 
COLLISIONENERGY: 30
Comment: registered in MassBank
Num Peaks: 8
253.07001	300
254.21001	33
260.92999	11
279.09	1000
280.20001	62
388.53	8
429.39999	13
432.20999	6

NAME: Phosphatidylethanolamine 16
PRECURSORMZ: 736.492278
PRECURSORTYPE: [M-H]-
FORMULA: C41H72NO8P
Ontology: Phosphatidylethanolamines
INCHIKEY: TUAWQIYXFSBSNQ-RQDZWXAXNA-N
SMILES: CCCCCCCCCCC\C=C/CCC(=O)OCC(COP(O)(=O)OCCN)OC(=O)CC\C=C/C\C=C/C\C=C/C\C=C/CCCCCC
RETENTIONTIME: 
CCS: -1
IONMODE: Negative
INSTRUMENTTYPE: LC-ESI-ITFT
INSTRUMENT: 
COLLISIONENERGY: 30
Comment: registered in MassBank
Num Peaks: 18
253.10001	465
254.11	32
259.13	68
259.98999	6
281.14001	12
285.25	14
303.07001	1000
304.14001	172
432.10999	23
433.25	9
450	235
451.34	11
454.91	11
482.14001	24
483	10
499.85001	12
592.89001	39
662.26001	11

NAME: Phosphatidylethanolamine 16
PRECURSORMZ: 734.476628
PRECURSORTYPE: [M-H]-
FORMULA: C41H70NO8P
Ontology: Phosphatidylethanolamines
INCHIKEY: ACLGJPXDLXCCME-YJWVUPOONA-N
SMILES: CCCCCCCCCCC\C=C/CCC(=O)OCC(COP(O)(=O)OCCN)OC(=O)CC\C=C/C\C=C/C\C=C/C\C=C/C\C=C/CCC
RETENTIONTIME: 
CCS: -1
IONMODE: Negative
INSTRUMENTTYPE: LC-ESI-ITFT
INSTRUMENT: 
COLLISIONENERGY: 30
Comment: registered in MassBank
Num Peaks: 15
253.11	918
253.86	158
255.41	38
256.92001	185
258.19	60
301.09	1000
301.97	92
303.07001	33
450.07999	793
502.89999	76
635.47998	158
636.41998	22
646.40002	33
651.98999	71
693.06	65

NAME: Phosphatidylethanolamine 16
PRECURSORMZ: 760.492278
PRECURSORTYPE: [M-H]-
FORMULA: C43H72NO8P
Ontology: Phosphatidylethanolamines
INCHIKEY: ZJBSZOUPRJVSRB-SIEWZCRLNA-N
SMILES: CCCCCCCCCCC\C=C/CCC(=O)OCC(COP(O)(=O)OCCN)OC(=O)CC\C=C/C\C=C/C\C=C/C\C=C/C\C=C/C\C=C/CC
RETENTIONTIME: 
CCS: -1
IONMODE: Negative
INSTRUMENTTYPE: LC-ESI-ITFT
INSTRUMENT: 
COLLISIONENERGY: 30
Comment: registered in MassBank
Num Peaks: 21
229.17999	10
253.14999	657
254.14	87
257.14999	16
259.10001	17
279.13	44
283.12	477
284.14001	107
300.87	9
303	5
308.91	24
327.10001	1000
328.17999	103
432.20001	25
433.14999	10
450.07001	358
451.10001	72
505.98999	17
523.83002	34
524.90997	9
686.32001	5

NAME: Phosphatidylethanolamine 17
PRECURSORMZ: 728.523578
PRECURSORTYPE: [M-H]-
FORMULA: C40H76NO8P
Ontology: Phosphatidylethanolamines
INCHIKEY: FGLSWIGNKJQROW-FTRFHSPVNA-N
SMILES: CCCCCCCCCCCCCCCCC(=O)OCC(COP(O)(=O)OCCN)OC(=O)CC\C=C/C\C=C/CCCCCCCCCC
RETENTIONTIME: 
CCS: -1
IONMODE: Negative
INSTRUMENTTYPE: LC-ESI-ITFT
INSTRUMENT: 
COLLISIONENERGY: 30
Comment: registered in MassBank
Num Peaks: 7
269.12	316
270.20001	23
279.10001	1000
280.04999	93
448.16	6
466.12	143
467.01999	15

NAME: Phosphatidylethanolamine 17
PRECURSORMZ: 754.539229
PRECURSORTYPE: [M-H]-
FORMULA: C42H78NO8P
Ontology: Phosphatidylethanolamines
INCHIKEY: VDLZAIRAJICUJV-FMYBJREMNA-N
SMILES: CCCCCCCCCCCCCCCCC(=O)OCC(COP(O)(=O)OCCN)OC(=O)CC\C=C/C\C=C/C\C=C/CCCCCCCCC
RETENTIONTIME: 
CCS: -1
IONMODE: Negative
INSTRUMENTTYPE: LC-ESI-ITFT
INSTRUMENT: 
COLLISIONENERGY: 30
Comment: registered in MassBank
Num Peaks: 15
269.10001	396
270.17001	89
279.10001	10
297.37	16
305.14999	1000
306.20001	134
414.95999	12
466.13	169
467.16	12
485.26001	60
489.56	17
548.90002	12
622.07001	23
672.45001	27
696.33002	29

NAME: Phosphatidylethanolamine 17
PRECURSORMZ: 752.523578
PRECURSORTYPE: [M-H]-
FORMULA: C42H76NO8P
Ontology: Phosphatidylethanolamines
INCHIKEY: LUNHOOJLWJQRDB-VTJLAKARNA-N
SMILES: CCCCCCCCCCCCCCCCC(=O)OCC(COP(O)(=O)OCCN)OC(=O)CC\C=C/C\C=C/C\C=C/C\C=C/CCCCCC
RETENTIONTIME: 
CCS: -1
IONMODE: Negative
INSTRUMENTTYPE: LC-ESI-ITFT
INSTRUMENT: 
COLLISIONENERGY: 30
Comment: registered in MassBank
Num Peaks: 15
259	88
260.17999	23
269.10999	467
270.31	18
303.09	1000
304.20999	101
404.67999	7
448.20001	10
463.98001	8
465.53	21
466.14001	239
467.14001	20
481.98999	12
500.06	18
701.71002	5

NAME: Phosphatidylethanolamine 17
PRECURSORMZ: 778.539229
PRECURSORTYPE: [M-H]-
FORMULA: C44H78NO8P
Ontology: Phosphatidylethanolamines
INCHIKEY: TZKBOGGOMRCSLO-RDCLIOPDNA-N
SMILES: CCCCCCCCCCCCCCCCC(=O)OCC(COP(O)(=O)OCCN)OC(=O)CC\C=C/C\C=C/C\C=C/C\C=C/C\C=C/CCCCC
RETENTIONTIME: 
CCS: -1
IONMODE: Negative
INSTRUMENTTYPE: LC-ESI-ITFT
INSTRUMENT: 
COLLISIONENERGY: 30
Comment: registered in MassBank
Num Peaks: 22
269.17999	555
270.12	88
273.23999	33
285.06	91
295.09	97
303.03	30
310.79001	36
327.14001	52
329.17999	955
330.20001	245
331.10001	24
447.37	18
464.22	33
465.38	61
466.10999	167
467.45999	27
508.17001	39
530.87	36
704.09998	1000
704.72998	182
733.83002	15
734.98999	33

NAME: Phosphatidylethanolamine 17
PRECURSORMZ: 776.523578
PRECURSORTYPE: [M-H]-
FORMULA: C44H76NO8P
Ontology: Phosphatidylethanolamines
INCHIKEY: WVGREBRFGJNLSB-KAFSZNKPNA-N
SMILES: CCCCCCCCCCCCCCCCC(=O)OCC(COP(O)(=O)OCCN)OC(=O)CC\C=C/C\C=C/C\C=C/C\C=C/C\C=C/C\C=C/CC
RETENTIONTIME: 
CCS: -1
IONMODE: Negative
INSTRUMENTTYPE: LC-ESI-ITFT
INSTRUMENT: 
COLLISIONENERGY: 30
Comment: registered in MassBank
Num Peaks: 25
229.22	22
231.42	6
248.92	13
269.16	632
270.14999	72
281.01999	19
283.16	693
284.12	24
305.95001	16
327.03	1000
328.14999	188
331.17001	29
332.20001	18
406.23001	9
447.41	11
448.12	46
453.01999	18
466.04999	519
467.03	90
505.89999	52
524.10999	31
525.03003	7
626.78998	10
715.76001	16
717.57001	8

NAME: Phosphatidylethanolamine 17
PRECURSORMZ: 726.507928
PRECURSORTYPE: [M-H]-
FORMULA: C40H74NO8P
Ontology: Phosphatidylethanolamines
INCHIKEY: NXIAGSLBMLOYBM-ONGBHLIUNA-N
SMILES: CCCCCCCCCCCC\C=C/CCC(=O)OCC(COP(O)(=O)OCCN)OC(=O)CC\C=C/C\C=C/CCCCCCCCCC
RETENTIONTIME: 
CCS: -1
IONMODE: Negative
INSTRUMENTTYPE: LC-ESI-ITFT
INSTRUMENT: 
COLLISIONENERGY: 30
Comment: registered in MassBank
Num Peaks: 11
265.10001	37
267.16	308
268.12	150
279.09	1000
280.14001	107
389.92999	21
457.84	14
464.06	181
476.07999	14
564.88	8
707.76001	27

NAME: Phosphatidylethanolamine 17
PRECURSORMZ: 774.507928
PRECURSORTYPE: [M-H]-
FORMULA: C44H74NO8P
Ontology: Phosphatidylethanolamines
INCHIKEY: PKKFLKWXJRZTFJ-YZIPONAMNA-N
SMILES: CCCCCCCCCCCC\C=C/CCC(=O)OCC(COP(O)(=O)OCCN)OC(=O)CC\C=C/C\C=C/C\C=C/C\C=C/C\C=C/C\C=C/CC
RETENTIONTIME: 
CCS: -1
IONMODE: Negative
INSTRUMENTTYPE: LC-ESI-ITFT
INSTRUMENT: 
COLLISIONENERGY: 30
Comment: registered in MassBank
Num Peaks: 17
229.08	95
267.09	787
268.39999	62
280.98999	41
283.17001	440
283.98999	100
327.10001	1000
328.20001	157
403.26001	31
404.94	28
447.34	31
464.01999	360
465.12	87
524.07001	15
627.28003	57
638.28003	41
700.15002	46

NAME: Phosphatidylethanolamine 18
PRECURSORMZ: 718.539229
PRECURSORTYPE: [M-H]-
FORMULA: C39H78NO8P
Ontology: Phosphatidylethanolamines
INCHIKEY: JRTZGTYHEHCHTM-UHFFFAOYNA-N
SMILES: CCCCCCCCCCCCCCCCCC(=O)OCC(COP(O)(=O)OCCN)OC(=O)CCCCCCCCCCCCCCC
RETENTIONTIME: 
CCS: 342.469734
IONMODE: Negative
INSTRUMENTTYPE: LC-ESI-ITFT
INSTRUMENT: 
COLLISIONENERGY: 30
Comment: registered in MassBank
Num Peaks: 5
255.06	1000
256.07999	98
265.26999	20
283.17999	491
434.29001	26

NAME: Phosphatidylethanolamine 18
PRECURSORMZ: 746.570529
PRECURSORTYPE: [M-H]-
FORMULA: C41H82NO8P
Ontology: Phosphatidylethanolamines
INCHIKEY: LVNGJLRDBYCPGB-UHFFFAOYNA-N
SMILES: CCCCCCCCCCCCCCCCCC(=O)OCC(COP(O)(=O)OCCN)OC(=O)CCCCCCCCCCCCCCCCC
RETENTIONTIME: 
CCS: 348.7175943
IONMODE: Negative
INSTRUMENTTYPE: LC-ESI-ITFT
INSTRUMENT: 
COLLISIONENERGY: 30
Comment: registered in MassBank
Num Peaks: 15
282.97	1000
302.79999	92
381.39999	128
462.78	46
480.25	55
490.91	64
509.25	156
582.90997	220
658.96002	64
663.29999	110
664.29999	28
682.88	174
686.53003	202
700.87	37
702.46002	92

NAME: Phosphatidylethanolamine 18
PRECURSORMZ: 744.554879
PRECURSORTYPE: [M-H]-
FORMULA: C41H80NO8P
Ontology: Phosphatidylethanolamines
INCHIKEY: YNUVHPZRNQDFHS-HYOGKJQXNA-N
SMILES: CCCCCCCCCCCCCCCCCC(=O)OCC(COP(O)(=O)OCCN)OC(=O)CC\C=C/CCCCCCCCCCCCC
RETENTIONTIME: 
CCS: -1
IONMODE: Negative
INSTRUMENTTYPE: LC-ESI-ITFT
INSTRUMENT: 
COLLISIONENERGY: 30
Comment: registered in MassBank
Num Peaks: 11
281.13	1000
282.07999	72
283.14999	339
284.17999	24
460.06	11
461.95999	7
462.92999	5
478.07999	14
480.14001	126
481.20999	14
680.92999	8

NAME: Phosphatidylethanolamine 18
PRECURSORMZ: 742.539229
PRECURSORTYPE: [M-H]-
FORMULA: C41H78NO8P
Ontology: Phosphatidylethanolamines
INCHIKEY: CJVLBVKIFVTUPS-JSCMVKKRNA-N
SMILES: CCCCCCCCCCCCCCCCCC(=O)OCC(COP(O)(=O)OCCN)OC(=O)CC\C=C/C\C=C/CCCCCCCCCC
RETENTIONTIME: 
CCS: -1
IONMODE: Negative
INSTRUMENTTYPE: LC-ESI-ITFT
INSTRUMENT: 
COLLISIONENERGY: 30
Comment: registered in MassBank
Num Peaks: 6
279.14001	1000
283.14001	372
457.89999	8
462.07001	12
476.04999	11
480.07999	163

NAME: Phosphatidylethanolamine 18
PRECURSORMZ: 740.523578
PRECURSORTYPE: [M-H]-
FORMULA: C41H76NO8P
Ontology: Phosphatidylethanolamines
INCHIKEY: LXDJYUCSACQJRW-FQQNHZGCNA-N
SMILES: CCCCCCCCCCCCCCCCCC(=O)OCC(COP(O)(=O)OCCN)OC(=O)CC\C=C/C\C=C/C\C=C/CCCCCCC
RETENTIONTIME: 
CCS: -1
IONMODE: Negative
INSTRUMENTTYPE: LC-ESI-ITFT
INSTRUMENT: 
COLLISIONENERGY: 30
Comment: registered in MassBank
Num Peaks: 16
256.19	23
257.22	7
259.35999	11
274.89999	5
277.01999	1000
278.17999	90
279.20001	12
281.04999	22
283.13	365
284.07001	20
305.17999	83
306.19	24
410.35999	6
478.13	10
480.04001	218
481.04001	101

NAME: Phosphatidylethanolamine 18
PRECURSORMZ: 772.586179
PRECURSORTYPE: [M-H]-
FORMULA: C43H84NO8P
Ontology: Phosphatidylethanolamines
INCHIKEY: HCYMNYLUWGMUCG-GCUVURNUNA-N
SMILES: CCCCCCCCCCCCCCCCCC(=O)OCC(COP(O)(=O)OCCN)OC(=O)CC\C=C/CCCCCCCCCCCCCCC
RETENTIONTIME: 
CCS: -1
IONMODE: Negative
INSTRUMENTTYPE: LC-ESI-ITFT
INSTRUMENT: 
COLLISIONENERGY: 30
Comment: registered in MassBank
Num Peaks: 11
283.19	247
283.98001	40
309.10999	1000
310.12	145
337.29001	6
419.06	6
462.23001	12
480.10999	81
481.22	16
505.79999	11
684.22998	6

NAME: Phosphatidylethanolamine 18
PRECURSORMZ: 768.554879
PRECURSORTYPE: [M-H]-
FORMULA: C43H80NO8P
Ontology: Phosphatidylethanolamines
INCHIKEY: BDESLISUEJTDHD-JCXYTCFZNA-N
SMILES: CCCCCCCCCCCCCCCCCC(=O)OCC(COP(O)(=O)OCCN)OC(=O)CC\C=C/C\C=C/C\C=C/CCCCCCCCC
RETENTIONTIME: 
CCS: -1
IONMODE: Negative
INSTRUMENTTYPE: LC-ESI-ITFT
INSTRUMENT: 
COLLISIONENERGY: 30
Comment: registered in MassBank
Num Peaks: 9
283.12	378
284.23001	25
305.09	1000
306.20001	67
462.14999	14
480.03	168
481.10001	17
484.04999	5
501.98999	22

NAME: Phosphatidylethanolamine 18
PRECURSORMZ: 766.539229
PRECURSORTYPE: [M-H]-
FORMULA: C43H78NO8P
Ontology: Phosphatidylethanolamines
INCHIKEY: VUDFSDNQOHMQTE-NQWSYULSNA-N
SMILES: CCCCCCCCCCCCCCCCCC(=O)OCC(COP(O)(=O)OCCN)OC(=O)CC\C=C/C\C=C/C\C=C/C\C=C/CCCCCC
RETENTIONTIME: 
CCS: -1
IONMODE: Negative
INSTRUMENTTYPE: LC-ESI-ITFT
INSTRUMENT: 
COLLISIONENERGY: 30
Comment: registered in MassBank
Num Peaks: 11
259.07999	61
260.10001	9
283.10001	567
284.07999	57
303.07999	1000
304.04999	120
461.98001	13
480.07999	284
481.09	45
481.97	16
500.07001	28

NAME: Phosphatidylethanolamine 18
PRECURSORMZ: 764.523578
PRECURSORTYPE: [M-H]-
FORMULA: C43H76NO8P
Ontology: Phosphatidylethanolamines
INCHIKEY: XYILASVYBPMWKW-HDSNJYMDNA-N
SMILES: CCCCCCCCCCCCCCCCCC(=O)OCC(COP(O)(=O)OCCN)OC(=O)CC\C=C/C\C=C/C\C=C/C\C=C/C\C=C/CCC
RETENTIONTIME: 
CCS: -1
IONMODE: Negative
INSTRUMENTTYPE: LC-ESI-ITFT
INSTRUMENT: 
COLLISIONENERGY: 30
Comment: registered in MassBank
Num Peaks: 6
257.10999	252
283.04999	717
301.10001	1000
462.07001	29
480.12	422
498.07001	30

NAME: Phosphatidylethanolamine 18
PRECURSORMZ: 794.570529
PRECURSORTYPE: [M-H]-
FORMULA: C45H82NO8P
Ontology: Phosphatidylethanolamines
INCHIKEY: QDYAMUDPRJZWQB-BPSDUUPONA-N
SMILES: CCCCCCCCCCCCCCCCCC(=O)OCC(COP(O)(=O)OCCN)OC(=O)CC\C=C/C\C=C/C\C=C/C\C=C/CCCCCCCC
RETENTIONTIME: 
CCS: -1
IONMODE: Negative
INSTRUMENTTYPE: LC-ESI-ITFT
INSTRUMENT: 
COLLISIONENERGY: 30
Comment: registered in MassBank
Num Peaks: 15
283.07001	405
284.04999	74
287.14999	67
313.14999	6
329.51001	9
331.09	1000
332.20001	218
462.07001	7
480.13	172
481.10001	26
510.01001	38
528.14001	10
532.09998	8
720.51001	6
730.70001	71

NAME: Phosphatidylethanolamine 18
PRECURSORMZ: 792.554879
PRECURSORTYPE: [M-H]-
FORMULA: C45H80NO8P
Ontology: Phosphatidylethanolamines
INCHIKEY: DPRXQVIZBLENFV-WZARRQHINA-N
SMILES: CCCCCCCCCCCCCCCCCC(=O)OCC(COP(O)(=O)OCCN)OC(=O)CC\C=C/C\C=C/C\C=C/C\C=C/C\C=C/CCCCC
RETENTIONTIME: 
CCS: 400.5178659
IONMODE: Negative
INSTRUMENTTYPE: LC-ESI-ITFT
INSTRUMENT: 
COLLISIONENERGY: 30
Comment: registered in MassBank
Num Peaks: 17
283.19	400
284.22	61
285.16	145
286.12	11
329.04999	1000
330.09	145
461.85999	20
477.06	18
480.07999	347
481.51001	23
508.10999	9
525.84003	28
564.12	5
612.45001	14
718.21997	180
742.14001	29
747.62	5

NAME: Phosphatidylethanolamine 18
PRECURSORMZ: 790.539229
PRECURSORTYPE: [M-H]-
FORMULA: C45H78NO8P
Ontology: Phosphatidylethanolamines
INCHIKEY: XYYHNDVKALDFHQ-HSBBONCLNA-N
SMILES: CCCCCCCCCCCCCCCCCC(=O)OCC(COP(O)(=O)OCCN)OC(=O)CC\C=C/C\C=C/C\C=C/C\C=C/C\C=C/C\C=C/CC
RETENTIONTIME: 
CCS: 396.325474
IONMODE: Negative
INSTRUMENTTYPE: LC-ESI-ITFT
INSTRUMENT: 
COLLISIONENERGY: 30
Comment: registered in MassBank
Num Peaks: 11
229.00999	13
283.09	1000
284.19	53
309.10999	6
327.07001	678
328.19	50
462.14001	8
480.07001	388
481.07001	30
506.04001	12
523.92999	28

NAME: Phosphatidylethanolamine 18
PRECURSORMZ: 740.523578
PRECURSORTYPE: [M-H]-
FORMULA: C41H76NO8P
Ontology: Phosphatidylethanolamines
INCHIKEY: SDQYMWWODQDLBO-XBCPOCNBNA-N
SMILES: CCCCCCCCCCCCC\C=C/CCC(=O)OCC(COP(O)(=O)OCCN)OC(=O)CC\C=C/C\C=C/CCCCCCCCCC
RETENTIONTIME: 
CCS: -1
IONMODE: Negative
INSTRUMENTTYPE: LC-ESI-ITFT
INSTRUMENT: 
COLLISIONENERGY: 30
Comment: registered in MassBank
Num Peaks: 9
279.04999	1000
280.20999	52
281.09	392
281.85999	19
458.12	8
459.92999	13
475.95999	15
478.04999	127
479.13	8

NAME: Phosphatidylethanolamine 18
PRECURSORMZ: 758.570529
PRECURSORTYPE: [M-H]-
FORMULA: C42H82NO8P
Ontology: Phosphatidylethanolamines
INCHIKEY: VDFCHVPNRGGNPX-HYOGKJQXNA-N
SMILES: CCCCCCCCCCCCCCCCCCC(=O)OC(COC(=O)CC\C=C/CCCCCCCCCCCCC)COP(O)(=O)OCCN
RETENTIONTIME: 
CCS: -1
IONMODE: Negative
INSTRUMENTTYPE: LC-ESI-ITFT
INSTRUMENT: 
COLLISIONENERGY: 30
Comment: registered in MassBank
Num Peaks: 6
281.14001	444
297.06	1000
582.76001	833
614.62	556
666.59998	556
696.67999	222

NAME: Phosphatidylethanolamine 18
PRECURSORMZ: 770.570529
PRECURSORTYPE: [M-H]-
FORMULA: C43H82NO8P
Ontology: Phosphatidylethanolamines
INCHIKEY: UVYKYAJJWJKGHK-SZDCHMHBNA-N
SMILES: CCCCCCCCCCCCCCC\C=C/CCC(=O)OC(COC(=O)CC\C=C/CCCCCCCCCCCCC)COP(O)(=O)OCCN
RETENTIONTIME: 
CCS: -1
IONMODE: Negative
INSTRUMENTTYPE: LC-ESI-ITFT
INSTRUMENT: 
COLLISIONENERGY: 30
Comment: registered in MassBank
Num Peaks: 20
278.85001	17
281.23999	467
286.34	32
309.23001	1000
310.32001	129
420.04999	17
460.29001	15
478.23999	40
479.07999	34
479.87	11
487.79999	32
508.12	13
605.78003	11
664.71002	63
665.40997	23
688.46002	15
705.89001	42
711	19
725.28003	25
751.01001	8

NAME: Phosphatidylethanolamine 18
PRECURSORMZ: 768.554879
PRECURSORTYPE: [M-H]-
FORMULA: C43H80NO8P
Ontology: Phosphatidylethanolamines
INCHIKEY: IJPGDTSEDOEETE-QGRKPBPINA-N
SMILES: CCCCCCCCCCCCC\C=C/CCC(=O)OCC(COP(O)(=O)OCCN)OC(=O)CC\C=C/C\C=C/CCCCCCCCCCCC
RETENTIONTIME: 
CCS: -1
IONMODE: Negative
INSTRUMENTTYPE: LC-ESI-ITFT
INSTRUMENT: 
COLLISIONENERGY: 30
Comment: registered in MassBank
Num Peaks: 19
279.10999	54
280.54999	39
281.22	163
282.38	27
284.14999	35
291.09	14
303.88	37
305.47	14
307.17999	1000
308.17999	126
309.26001	120
335.10999	58
460.09	43
467.35999	12
478.17001	45
507.42999	10
632.76001	31
686.20001	66
748.82001	33

NAME: Phosphatidylethanolamine 18
PRECURSORMZ: 764.523578
PRECURSORTYPE: [M-H]-
FORMULA: C43H76NO8P
Ontology: Phosphatidylethanolamines
INCHIKEY: QBVUKWXEFSHJOQ-MOYSMJPMNA-N
SMILES: CCCCCCCCCCCCC\C=C/CCC(=O)OCC(COP(O)(=O)OCCN)OC(=O)CC\C=C/C\C=C/C\C=C/C\C=C/CCCCCC
RETENTIONTIME: 
CCS: -1
IONMODE: Negative
INSTRUMENTTYPE: LC-ESI-ITFT
INSTRUMENT: 
COLLISIONENERGY: 30
Comment: registered in MassBank
Num Peaks: 7
255.2	6
259.04999	67
281.14001	589
303.07999	1000
460.04001	13
478.01001	294
499.95999	24

NAME: Phosphatidylethanolamine 18
PRECURSORMZ: 762.507928
PRECURSORTYPE: [M-H]-
FORMULA: C43H74NO8P
Ontology: Phosphatidylethanolamines
INCHIKEY: MQYQFMSHGWBKBV-XKMJRSRDNA-N
SMILES: CCCCCCCCCCCCC\C=C/CCC(=O)OCC(COP(O)(=O)OCCN)OC(=O)CC\C=C/C\C=C/C\C=C/C\C=C/C\C=C/CCC
RETENTIONTIME: 
CCS: -1
IONMODE: Negative
INSTRUMENTTYPE: LC-ESI-ITFT
INSTRUMENT: 
COLLISIONENERGY: 30
Comment: registered in MassBank
Num Peaks: 19
257.14999	196
258	28
279.04999	14
281.07001	791
282.01001	69
282.98999	8
301.06	1000
302.14999	129
303.16	17
433.82001	5
450.09	6
460.01999	8
475.79001	7
478.04999	492
479.16	35
497.97	20
498.92999	11
505.03	8
686.56	6

NAME: Phosphatidylethanolamine 18
PRECURSORMZ: 798.601829
PRECURSORTYPE: [M-H]-
FORMULA: C45H86NO8P
Ontology: Phosphatidylethanolamines
INCHIKEY: URZHPEMDTOWQOA-WANSBIPINA-N
SMILES: CCCCCCCCCCCCCCCCC\C=C/CCC(=O)OC(COC(=O)CC\C=C/CCCCCCCCCCCCC)COP(O)(=O)OCCN
RETENTIONTIME: 
CCS: -1
IONMODE: Negative
INSTRUMENTTYPE: LC-ESI-ITFT
INSTRUMENT: 
COLLISIONENERGY: 30
Comment: registered in MassBank
Num Peaks: 17
281.07999	128
282.10999	47
309.23001	79
337.10001	1000
338.28	141
478.22	17
506.26999	62
534.09998	153
629.98999	32
633.75	40
634.82001	37
700.54999	17
703.34998	10
706.39001	27
711.10999	37
737.62	10
769.46997	42

NAME: Phosphatidylethanolamine 18
PRECURSORMZ: 792.554879
PRECURSORTYPE: [M-H]-
FORMULA: C45H80NO8P
Ontology: Phosphatidylethanolamines
INCHIKEY: XBPHCFQOKKXKHJ-IVJZGABJNA-N
SMILES: CCCCCCCCCCCCC\C=C/CCC(=O)OCC(COP(O)(=O)OCCN)OC(=O)CC\C=C/C\C=C/C\C=C/C\C=C/CCCCCCCC
RETENTIONTIME: 
CCS: -1
IONMODE: Negative
INSTRUMENTTYPE: LC-ESI-ITFT
INSTRUMENT: 
COLLISIONENERGY: 30
Comment: registered in MassBank
Num Peaks: 25
241.74001	39
279.03	21
281.04001	340
281.89999	14
283.26001	58
284.13	17
286.95001	29
304.92001	43
326.84	25
328.04001	29
329.34	17
331.17999	1000
332.12	107
419.25	8
460.04999	16
467.04001	8
478.16	237
479.14999	27
481.39999	54
686.90997	45
689.01001	8
718.09998	35
742.17999	76
742.78998	14
760.32001	12

NAME: Phosphatidylethanolamine 18
PRECURSORMZ: 788.523578
PRECURSORTYPE: [M-H]-
FORMULA: C45H76NO8P
Ontology: Phosphatidylethanolamines
INCHIKEY: VPTWUJPVIKSANV-QRPORDCINA-N
SMILES: CCCCCCCCCCCCC\C=C/CCC(=O)OCC(COP(O)(=O)OCCN)OC(=O)CC\C=C/C\C=C/C\C=C/C\C=C/C\C=C/C\C=C/CC
RETENTIONTIME: 
CCS: -1
IONMODE: Negative
INSTRUMENTTYPE: LC-ESI-ITFT
INSTRUMENT: 
COLLISIONENERGY: 30
Comment: registered in MassBank
Num Peaks: 15
229.02	19
230.00999	8
255.17	5
281.14001	995
282.29001	103
283.13	574
284.20001	65
327	1000
328.04999	106
416.85999	6
460.10999	39
478.10001	588
479.03	76
506.14001	18
524.09998	34

NAME: Phosphatidylethanolamine 18
PRECURSORMZ: 762.507928
PRECURSORTYPE: [M-H]-
FORMULA: C43H74NO8P
Ontology: Phosphatidylethanolamines
INCHIKEY: VTQZPEHDNCIYJA-IPVVXUKZNA-N
SMILES: CCCCCCCCCC\C=C/C\C=C/CCC(=O)OCC(COP(O)(=O)OCCN)OC(=O)CC\C=C/C\C=C/C\C=C/C\C=C/CCCCCC
RETENTIONTIME: 
CCS: -1
IONMODE: Negative
INSTRUMENTTYPE: LC-ESI-ITFT
INSTRUMENT: 
COLLISIONENERGY: 30
Comment: registered in MassBank
Num Peaks: 12
259.14001	74
260.10001	11
267.25	5
279.10999	399
280.14999	51
283.13	10
303.01999	1000
304.07999	103
458.09	10
476.07999	288
477.16	40
500.16	18

NAME: Phosphatidylethanolamine 18
PRECURSORMZ: 760.492278
PRECURSORTYPE: [M-H]-
FORMULA: C43H72NO8P
Ontology: Phosphatidylethanolamines
INCHIKEY: NZDVQHVTTWTVMW-DFEPEIOWNA-N
SMILES: CCCCCCCCCC\C=C/C\C=C/CCC(=O)OCC(COP(O)(=O)OCCN)OC(=O)CC\C=C/C\C=C/C\C=C/C\C=C/C\C=C/CCC
RETENTIONTIME: 
CCS: -1
IONMODE: Negative
INSTRUMENTTYPE: LC-ESI-ITFT
INSTRUMENT: 
COLLISIONENERGY: 30
Comment: registered in MassBank
Num Peaks: 24
257.14001	268
258.23999	58
258.98999	89
277.04999	320
278.20001	41
279.23001	914
280.10001	141
283.01001	24
301.06	1000
302.10999	120
303.20999	667
304.03	131
457.98001	38
474.04001	175
476.07999	801
477.12	227
478.07999	41
492.32999	34
499.04001	52
499.82999	21
630.81	31
638.20001	27
678.34003	45
699.81	58

NAME: Phosphatidylethanolamine 18
PRECURSORMZ: 786.507928
PRECURSORTYPE: [M-H]-
FORMULA: C45H74NO8P
Ontology: Phosphatidylethanolamines
INCHIKEY: UWCJYOTVTHYMRF-XPMHQQHXNA-N
SMILES: CCCCCCCCCC\C=C/C\C=C/CCC(=O)OCC(COP(O)(=O)OCCN)OC(=O)CC\C=C/C\C=C/C\C=C/C\C=C/C\C=C/C\C=C/CC
RETENTIONTIME: 
CCS: -1
IONMODE: Negative
INSTRUMENTTYPE: LC-ESI-ITFT
INSTRUMENT: 
COLLISIONENERGY: 30
Comment: registered in MassBank
Num Peaks: 23
229.00999	24
248.85001	12
279.17001	897
280.23999	167
281.28	7
283.17999	570
284.17999	104
303.17001	71
304.07001	8
327.06	1000
328.17999	162
457.98999	27
476.10001	544
476.92999	18
477.53	23
500.01999	12
506.03	28
506.84	8
523.96997	71
524.95001	15
526.21002	6
714.85999	6
726.04999	7

NAME: Phosphatidylethanolamine 18
PRECURSORMZ: 736.492278
PRECURSORTYPE: [M-H]-
FORMULA: C41H72NO8P
Ontology: Phosphatidylethanolamines
INCHIKEY: HIQJFUWUAGQURV-FOPRJHBCNA-N
SMILES: CCCCCCCCCC\C=C/C\C=C/CCC(=O)OC(COC(=O)CC\C=C/C\C=C/C\C=C/CCCCCCC)COP(O)(=O)OCCN
RETENTIONTIME: 
CCS: -1
IONMODE: Negative
INSTRUMENTTYPE: LC-ESI-ITFT
INSTRUMENT: 
COLLISIONENERGY: 30
Comment: registered in MassBank
Num Peaks: 10
277.19	407
279.12	1000
280.10999	170
315.32999	12
408.04001	19
474.04001	121
474.67001	65
540.92999	11
635.60999	26
716.97998	29

NAME: Phosphatidylethanolamine 18
PRECURSORMZ: 784.492278
PRECURSORTYPE: [M-H]-
FORMULA: C45H72NO8P
Ontology: Phosphatidylethanolamines
INCHIKEY: QHBRBPVFJNFNGF-CMKTUIRZNA-N
SMILES: CCCCCCC\C=C/C\C=C/C\C=C/CCC(=O)OCC(COP(O)(=O)OCCN)OC(=O)CC\C=C/C\C=C/C\C=C/C\C=C/C\C=C/C\C=C/CC
RETENTIONTIME: 
CCS: -1
IONMODE: Negative
INSTRUMENTTYPE: LC-ESI-ITFT
INSTRUMENT: 
COLLISIONENERGY: 30
Comment: registered in MassBank
Num Peaks: 21
229.14	33
249.08	15
250.16	51
258.97	55
277.12	640
278.03	184
283.04001	412
301.23001	44
309.35001	74
327.07999	1000
328.04999	162
393.76001	26
412.87	59
474.04999	438
475.26001	118
499.87	44
524.03003	77
546.25	51
640.03003	40
689.52002	37
709.91998	33

NAME: Phosphatidylethanolamine 19
PRECURSORMZ: 756.554879
PRECURSORTYPE: [M-H]-
FORMULA: C42H80NO8P
Ontology: Phosphatidylethanolamines
INCHIKEY: GTOGJRHPAQPWSR-WGPKDLKGNA-N
SMILES: CCCCCCCCCCCCCCCCCCC(=O)OCC(COP(O)(=O)OCCN)OC(=O)CC\C=C/C\C=C/CCCCCCCCCC
RETENTIONTIME: 
CCS: -1
IONMODE: Negative
INSTRUMENTTYPE: LC-ESI-ITFT
INSTRUMENT: 
COLLISIONENERGY: 30
Comment: registered in MassBank
Num Peaks: 12
261.14999	10
279.07999	1000
280.17999	131
297.07001	460
298.14001	65
459.01001	9
476.10001	7
494.07001	169
495.04999	60
551.95001	6
678.83002	7
713.09998	11

NAME: Phosphatidylethanolamine 19
PRECURSORMZ: 782.570529
PRECURSORTYPE: [M-H]-
FORMULA: C44H82NO8P
Ontology: Phosphatidylethanolamines
INCHIKEY: WHRINFUMSAOXIM-UEZFOCAYNA-N
SMILES: CCCCCCCCCCCCCCCCCCC(=O)OCC(COP(O)(=O)OCCN)OC(=O)CC\C=C/C\C=C/C\C=C/CCCCCCCCC
RETENTIONTIME: 
CCS: -1
IONMODE: Negative
INSTRUMENTTYPE: LC-ESI-ITFT
INSTRUMENT: 
COLLISIONENERGY: 30
Comment: registered in MassBank
Num Peaks: 20
279.29001	64
297.14999	340
298.26999	122
305.12	1000
306.16	74
422.89001	64
494.04001	197
502.41	59
550.32001	80
553.65997	48
577.64001	74
643.06	43
695.29999	287
696.14001	90
699.57001	27
700.46002	106
709.83002	85
723.12	234
725.41998	27
752.37	64

NAME: Phosphatidylethanolamine 19
PRECURSORMZ: 780.554879
PRECURSORTYPE: [M-H]-
FORMULA: C44H80NO8P
Ontology: Phosphatidylethanolamines
INCHIKEY: GGEYNVXDNWJXIN-SLLFMANONA-N
SMILES: CCCCCCCCCCCCCCCCCCC(=O)OCC(COP(O)(=O)OCCN)OC(=O)CC\C=C/C\C=C/C\C=C/C\C=C/CCCCCC
RETENTIONTIME: 
CCS: -1
IONMODE: Negative
INSTRUMENTTYPE: LC-ESI-ITFT
INSTRUMENT: 
COLLISIONENERGY: 30
Comment: registered in MassBank
Num Peaks: 10
259.17001	78
260.12	10
297.14001	498
298.14001	51
303.12	1000
304.17999	115
494.09	273
495.19	43
500.09	27
729.89001	7

NAME: Phosphatidylethanolamine 19
PRECURSORMZ: 804.554879
PRECURSORTYPE: [M-H]-
FORMULA: C46H80NO8P
Ontology: Phosphatidylethanolamines
INCHIKEY: PITVJCPCBXGCHJ-MXQGKLILNA-N
SMILES: CCCCCCCCCCCCCCCCCCC(=O)OCC(COP(O)(=O)OCCN)OC(=O)CC\C=C/C\C=C/C\C=C/C\C=C/C\C=C/C\C=C/CC
RETENTIONTIME: 
CCS: -1
IONMODE: Negative
INSTRUMENTTYPE: LC-ESI-ITFT
INSTRUMENT: 
COLLISIONENERGY: 30
Comment: registered in MassBank
Num Peaks: 25
241.03999	13
281.16	8
283.13	574
284.41	41
297.12	890
298.17001	54
304.41	8
307.35001	6
309.13	46
310.03	17
327.10999	1000
328.07999	105
339	5
476.14999	59
494.17999	545
495.03	79
506.03	6
506.85999	8
524.12	82
567.34003	15
680.90997	51
730.21997	49
743.32001	83
744.19	51
746.13	22

NAME: Phosphatidylethanolamine 20
PRECURSORMZ: 770.570529
PRECURSORTYPE: [M-H]-
FORMULA: C43H82NO8P
Ontology: Phosphatidylethanolamines
INCHIKEY: VWYTUCQACXRPSI-QIPJBBGZNA-N
SMILES: CCCCCCCCCCCCCCCCCCCC(=O)OCC(COP(O)(=O)OCCN)OC(=O)CC\C=C/C\C=C/CCCCCCCCCC
RETENTIONTIME: 
CCS: -1
IONMODE: Negative
INSTRUMENTTYPE: LC-ESI-ITFT
INSTRUMENT: 
COLLISIONENERGY: 30
Comment: registered in MassBank
Num Peaks: 8
279.03	1000
280.09	148
311.14999	458
312.14001	67
458.20001	11
490.19	14
508.09	182
509.19	28

NAME: Phosphatidylethanolamine 20
PRECURSORMZ: 796.586179
PRECURSORTYPE: [M-H]-
FORMULA: C45H84NO8P
Ontology: Phosphatidylethanolamines
INCHIKEY: FJLSFWWSNVGVIN-KWKIUDPJNA-N
SMILES: CCCCCCCCCCCCCCCCCCCC(=O)OCC(COP(O)(=O)OCCN)OC(=O)CC\C=C/C\C=C/C\C=C/CCCCCCCCC
RETENTIONTIME: 
CCS: -1
IONMODE: Negative
INSTRUMENTTYPE: LC-ESI-ITFT
INSTRUMENT: 
COLLISIONENERGY: 30
Comment: registered in MassBank
Num Peaks: 18
305.01001	1000
306.01999	160
311.10001	333
312.17001	87
484.34	36
490.26999	28
507.95999	148
567.66998	34
709.02002	25
731.71997	45
735.53998	70
736.31	45
737.46997	22
739.03998	14
744.34003	36
751.53003	34
752.78003	22
763.54999	17

NAME: Phosphatidylethanolamine 20
PRECURSORMZ: 794.570529
PRECURSORTYPE: [M-H]-
FORMULA: C45H82NO8P
Ontology: Phosphatidylethanolamines
INCHIKEY: NWMRMMRJNCGRTC-CDNBUOKMNA-N
SMILES: CCCCCCCCCCCCCCCCCCCC(=O)OCC(COP(O)(=O)OCCN)OC(=O)CC\C=C/C\C=C/C\C=C/C\C=C/CCCCCC
RETENTIONTIME: 
CCS: -1
IONMODE: Negative
INSTRUMENTTYPE: LC-ESI-ITFT
INSTRUMENT: 
COLLISIONENERGY: 30
Comment: registered in MassBank
Num Peaks: 11
259.17001	91
285.32001	10
303.09	1000
304.19	110
311.17001	595
312.23999	61
490.19	12
500	28
508.10999	288
509.04001	37
730.83002	19

NAME: Phosphatidylethanolamine 20
PRECURSORMZ: 792.554879
PRECURSORTYPE: [M-H]-
FORMULA: C45H80NO8P
Ontology: Phosphatidylethanolamines
INCHIKEY: VNLXORDQXXPODA-WARBFJPKNA-N
SMILES: CCCCCCCCCCCCCCCCCCCC(=O)OCC(COP(O)(=O)OCCN)OC(=O)CC\C=C/C\C=C/C\C=C/C\C=C/C\C=C/CCC
RETENTIONTIME: 
CCS: -1
IONMODE: Negative
INSTRUMENTTYPE: LC-ESI-ITFT
INSTRUMENT: 
COLLISIONENERGY: 30
Comment: registered in MassBank
Num Peaks: 17
257.34	93
270.20001	88
301.07001	1000
311.09	1000
312.10999	31
329.04001	41
329.88	113
447.32001	82
480.29999	46
481.56	57
508.07001	613
508.98001	93
680.76001	67
703.45001	93
710.46002	82
718.40002	289
760.33002	41

NAME: Phosphatidylethanolamine 20
PRECURSORMZ: 818.570529
PRECURSORTYPE: [M-H]-
FORMULA: C47H82NO8P
Ontology: Phosphatidylethanolamines
INCHIKEY: WIFLVHIKWGINAQ-ZVJYVBFZNA-N
SMILES: CCCCCCCCCCCCCCCCCCCC(=O)OCC(COP(O)(=O)OCCN)OC(=O)CC\C=C/C\C=C/C\C=C/C\C=C/C\C=C/C\C=C/CC
RETENTIONTIME: 
CCS: 403.3188428
IONMODE: Negative
INSTRUMENTTYPE: LC-ESI-ITFT
INSTRUMENT: 
COLLISIONENERGY: 30
Comment: registered in MassBank
Num Peaks: 15
257.04001	9
283.10001	496
284.26999	55
309.10001	15
311.14001	1000
312.07999	192
327.07001	887
328.16	137
505.78	24
508.06	685
509.13	74
524.09998	42
644.72998	17
697.28998	11
744.17999	82

NAME: Phosphatidylethanolamine 20
PRECURSORMZ: 816.554879
PRECURSORTYPE: [M-H]-
FORMULA: C47H80NO8P
Ontology: Phosphatidylethanolamines
INCHIKEY: BOUBNNHFOXUIOH-RHMKWMONNA-N
SMILES: CCCCCCCCCCCCCCC\C=C/CCC(=O)OCC(COP(O)(=O)OCCN)OC(=O)CC\C=C/C\C=C/C\C=C/C\C=C/C\C=C/C\C=C/CC
RETENTIONTIME: 
CCS: -1
IONMODE: Negative
INSTRUMENTTYPE: LC-ESI-ITFT
INSTRUMENT: 
COLLISIONENERGY: 30
Comment: registered in MassBank
Num Peaks: 22
248.77	12
267.45999	20
283.10999	441
284.01999	98
284.70999	7
309.22	964
310.26001	107
327.06	821
328.14999	127
452.29999	24
488.20001	90
506.04999	925
507.04999	108
524.33002	12
524.94	19
719.54999	20
736.16998	11
742.12	1000
742.88	15
755.48999	39
756.09003	70
770.38	33

NAME: Phosphatidylethanolamine 20
PRECURSORMZ: 814.539229
PRECURSORTYPE: [M-H]-
FORMULA: C47H78NO8P
Ontology: Phosphatidylethanolamines
INCHIKEY: BSGJBDYIUVDIRF-LPXIWEFZNA-N
SMILES: CCCCCCCCCCCC\C=C/C\C=C/CCC(=O)OCC(COP(O)(=O)OCCN)OC(=O)CC\C=C/C\C=C/C\C=C/C\C=C/C\C=C/C\C=C/CC
RETENTIONTIME: 
CCS: -1
IONMODE: Negative
INSTRUMENTTYPE: LC-ESI-ITFT
INSTRUMENT: 
COLLISIONENERGY: 30
Comment: registered in MassBank
Num Peaks: 14
283.04999	258
307.09	1000
308.07999	214
309.29999	53
327.20001	730
328.10001	143
379.01001	28
486.29001	28
504.07999	429
505.20999	47
507.09	12
570.70001	28
652.73999	68
740.13	463

NAME: Phosphatidylethanolamine 20
PRECURSORMZ: 788.523578
PRECURSORTYPE: [M-H]-
FORMULA: C45H76NO8P
Ontology: Phosphatidylethanolamines
INCHIKEY: KOORSVXMLRAPQP-YWHZSVKVNA-N
SMILES: CCCCCCCCC\C=C/C\C=C/C\C=C/CCC(=O)OCC(COP(O)(=O)OCCN)OC(=O)CC\C=C/C\C=C/C\C=C/C\C=C/CCCCCC
RETENTIONTIME: 
CCS: -1
IONMODE: Negative
INSTRUMENTTYPE: LC-ESI-ITFT
INSTRUMENT: 
COLLISIONENERGY: 30
Comment: registered in MassBank
Num Peaks: 19
251.17	58
258.98999	49
259.89001	68
279.31	19
280.94	82
303.04001	1000
303.89999	99
305.10999	359
306.10999	184
410.20999	47
502.10999	159
503.10001	66
505.19	310
506.09	148
507.20999	74
666.38	14
706.01001	19
714.06	603
736.07001	16

NAME: Phosphatidylethanolamine 20
PRECURSORMZ: 810.507928
PRECURSORTYPE: [M-H]-
FORMULA: C47H74NO8P
Ontology: Phosphatidylethanolamines
INCHIKEY: QYRBWBWQALDZGP-YARNEYDXNA-N
SMILES: CCCCCC\C=C/C\C=C/C\C=C/C\C=C/CCC(=O)OCC(COP(O)(=O)OCCN)OC(=O)CC\C=C/C\C=C/C\C=C/C\C=C/C\C=C/C\C=C/CC
RETENTIONTIME: 
CCS: -1
IONMODE: Negative
INSTRUMENTTYPE: LC-ESI-ITFT
INSTRUMENT: 
COLLISIONENERGY: 30
Comment: registered in MassBank
Num Peaks: 12
246.96001	21
259.01999	79
283.07999	101
303.06	1000
304.12	97
326.98001	332
500.17001	37
501	38
523.97998	134
525.01001	118
604.51001	9
723.16998	9

NAME: Phosphatidylethanolamine 22
PRECURSORMZ: 798.601829
PRECURSORTYPE: [M-H]-
FORMULA: C45H86NO8P
Ontology: Phosphatidylethanolamines
INCHIKEY: JTIHPLOLGGYHEZ-XJKRCVSZNA-N
SMILES: CCCCCCCCCCCCCCCCCCCCCC(=O)OCC(COP(O)(=O)OCCN)OC(=O)CC\C=C/C\C=C/CCCCCCCCCC
RETENTIONTIME: 
CCS: -1
IONMODE: Negative
INSTRUMENTTYPE: LC-ESI-ITFT
INSTRUMENT: 
COLLISIONENERGY: 30
Comment: registered in MassBank
Num Peaks: 14
278.98999	1000
280.19	68
339.23999	496
340.23001	104
458.01999	9
477.48999	5
519.34003	16
536.15002	160
668.20001	18
697.28003	5
705.14001	21
715.89001	9
717.60999	6
739.09003	19

NAME: Phosphatidylethanolamine 22
PRECURSORMZ: 796.586179
PRECURSORTYPE: [M-H]-
FORMULA: C45H84NO8P
Ontology: Phosphatidylethanolamines
INCHIKEY: MKIWGOUJSUAXPP-DFWRNDSJNA-N
SMILES: CCCCCCCCCCCCCCCCC\C=C/CCC(=O)OCC(COP(O)(=O)OCCN)OC(=O)CC\C=C/C\C=C/CCCCCCCCCC
RETENTIONTIME: 
CCS: -1
IONMODE: Negative
INSTRUMENTTYPE: LC-ESI-ITFT
INSTRUMENT: 
COLLISIONENERGY: 30
Comment: registered in MassBank
Num Peaks: 20
262.31	109
279.13	1000
279.98999	191
307.06	155
311.39999	41
337.29001	850
448.39001	32
457.79999	36
476.31	55
477.85001	145
508.64001	36
510.28	23
533.59998	68
534.35999	155
590.64001	32
604.35999	23
616.28003	64
714.31	45
732.02002	100
736.17999	50

NAME: Phosphatidylethanolamine 22
PRECURSORMZ: 834.507928
PRECURSORTYPE: [M-H]-
FORMULA: C49H74NO8P
Ontology: Phosphatidylethanolamines
INCHIKEY: RBDNSJMXMWTPCS-GZSOIYOPNA-N
SMILES: CC\C=C/C\C=C/C\C=C/C\C=C/C\C=C/C\C=C/CCC(=O)OCC(COP(O)(=O)OCCN)OC(=O)CC\C=C/C\C=C/C\C=C/C\C=C/C\C=C/C\C=C/CC
RETENTIONTIME: 
CCS: 426.1375328
IONMODE: Negative
INSTRUMENTTYPE: LC-ESI-ITFT
INSTRUMENT: 
COLLISIONENERGY: 30
Comment: registered in MassBank
Num Peaks: 13
256.70999	13
283.10001	603
284.01999	49
285.01999	42
327.09	1000
328.13	182
523.88	551
524.96997	148
548.82001	23
572.20001	29
629.42999	68
747	47
784.48999	42

NAME: Phosphatidylethanolamine alkenyl 16
PRECURSORMZ: 724.528664
PRECURSORTYPE: [M-H]-
FORMULA: C41H76NO7P
Ontology: 1-(1Z-alkenyl),2-acylglycerophosphoethanolamines
INCHIKEY: QUEBLWWLERMNAP-RYYWRRNANA-N
SMILES: CCCCCCCCCCCCCC\C=C\OCC(COP(O)(=O)OCCN)OC(=O)CC\C=C/C\C=C/C\C=C/CCCCCCCCC
RETENTIONTIME: 
CCS: -1
IONMODE: Negative
INSTRUMENTTYPE: LC-ESI-ITFT
INSTRUMENT: 
COLLISIONENERGY: 30
Comment: registered in MassBank
Num Peaks: 11
287.23001	18
305.10001	1000
306.17001	235
397.13	7
420.20001	14
436.06	290
437.32999	87
454.92999	21
458.70001	12
683.65997	7
704.62	14

NAME: Phosphatidylethanolamine alkenyl 16
PRECURSORMZ: 722.513014
PRECURSORTYPE: [M-H]-
FORMULA: C41H74NO7P
Ontology: 1-(1Z-alkenyl),2-acylglycerophosphoethanolamines
INCHIKEY: QDRJMAHGAQYRIN-PKKQLAOCNA-N
SMILES: CCCCCCCCCCCCCC\C=C\OCC(COP(O)(=O)OCCN)OC(=O)CC\C=C/C\C=C/C\C=C/C\C=C/CCCCCC
RETENTIONTIME: 
CCS: -1
IONMODE: Negative
INSTRUMENTTYPE: LC-ESI-ITFT
INSTRUMENT: 
COLLISIONENERGY: 30
Comment: registered in MassBank
Num Peaks: 8
205.07001	9
259.04999	67
301.04999	5
303.01001	1000
304.07999	34
418.07001	45
436.12	370
437.14999	18

NAME: Phosphatidylethanolamine alkenyl 16
PRECURSORMZ: 720.497364
PRECURSORTYPE: [M-H]-
FORMULA: C41H72NO7P
Ontology: 1-(1Z-alkenyl),2-acylglycerophosphoethanolamines
INCHIKEY: RPMVRPOBBVLOLS-HAQSCEBBNA-N
SMILES: CCCCCCCCCCCCCC\C=C\OCC(COP(O)(=O)OCCN)OC(=O)CC\C=C/C\C=C/C\C=C/C\C=C/C\C=C/CCC
RETENTIONTIME: 
CCS: -1
IONMODE: Negative
INSTRUMENTTYPE: LC-ESI-ITFT
INSTRUMENT: 
COLLISIONENERGY: 30
Comment: registered in MassBank
Num Peaks: 10
236.99001	18
257	424
301.07999	1000
302.17999	171
375.22	34
418.16	70
436.10999	744
437.32999	264
614.29999	21
720.81	52

NAME: Phosphatidylethanolamine alkenyl 16
PRECURSORMZ: 750.544314
PRECURSORTYPE: [M-H]-
FORMULA: C43H78NO7P
Ontology: 1-(1Z-alkenyl),2-acylglycerophosphoethanolamines
INCHIKEY: RKVZUTPSIGLURV-BLAGHTKONA-N
SMILES: CCCCCCCCCCCCCC\C=C\OCC(COP(O)(=O)OCCN)OC(=O)CC\C=C/C\C=C/C\C=C/C\C=C/CCCCCCCC
RETENTIONTIME: 
CCS: -1
IONMODE: Negative
INSTRUMENTTYPE: LC-ESI-ITFT
INSTRUMENT: 
COLLISIONENERGY: 30
Comment: registered in MassBank
Num Peaks: 11
287.03	25
302.97	24
304.91	8
331.10999	1000
332.13	113
332.79001	13
418.17999	36
436.14001	302
437.25	21
446.23001	5
464.31	11

NAME: Phosphatidylethanolamine alkenyl 16
PRECURSORMZ: 748.528664
PRECURSORTYPE: [M-H]-
FORMULA: C43H76NO7P
Ontology: 1-(1Z-alkenyl),2-acylglycerophosphoethanolamines
INCHIKEY: IRRKKHCAJLHSJE-NBLHLOSHNA-N
SMILES: CCCCCCCCCCCCCC\C=C\OCC(COP(O)(=O)OCCN)OC(=O)CC\C=C/C\C=C/C\C=C/C\C=C/C\C=C/CCCCC
RETENTIONTIME: 
CCS: 371.0133016
IONMODE: Negative
INSTRUMENTTYPE: LC-ESI-ITFT
INSTRUMENT: 
COLLISIONENERGY: 30
Comment: registered in MassBank
Num Peaks: 16
251	10
283.17999	8
285.14999	103
286.26999	15
303.04001	35
310.76001	6
327.01999	14
329.06	1000
330.17001	107
375	5
418.12	54
419.17999	8
436.10999	382
437.20999	56
438.26001	8
508.06	6

NAME: Phosphatidylethanolamine alkenyl 18
PRECURSORMZ: 728.559964
PRECURSORTYPE: [M-H]-
FORMULA: C41H80NO7P
Ontology: 1-(1Z-alkenyl),2-acylglycerophosphoethanolamines
INCHIKEY: GJEZRMBBMQUCBS-NLBLVIAENA-N
SMILES: CCCCCCCCCCCCCCCC\C=C\OCC(COP(O)(=O)OCCN)OC(=O)CC\C=C/CCCCCCCCCCCCC
RETENTIONTIME: 
CCS: -1
IONMODE: Negative
INSTRUMENTTYPE: LC-ESI-ITFT
INSTRUMENT: 
COLLISIONENERGY: 30
Comment: registered in MassBank
Num Peaks: 17
281.07999	1000
282.14999	168
309.16	10
340.51001	14
445.72	17
447.63	14
464.29999	217
465.13	39
550.41998	19
564.02002	39
630.56	13
646.10999	6
656.28998	6
667.42999	6
671.01001	42
713.31	91
728.21002	10

NAME: Phosphatidylethanolamine alkenyl 18
PRECURSORMZ: 726.544314
PRECURSORTYPE: [M-H]-
FORMULA: C41H78NO7P
Ontology: 1-(1Z-alkenyl),2-acylglycerophosphoethanolamines
INCHIKEY: QBAQUPWJTLVJBD-CZAAGYDRNA-N
SMILES: CCCCCCCCCCCCCCCC\C=C\OCC(COP(O)(=O)OCCN)OC(=O)CC\C=C/C\C=C/CCCCCCCCCC
RETENTIONTIME: 
CCS: -1
IONMODE: Negative
INSTRUMENTTYPE: LC-ESI-ITFT
INSTRUMENT: 
COLLISIONENERGY: 30
Comment: registered in MassBank
Num Peaks: 12
218.67999	7
260.92001	9
266.60999	7
279.07001	1000
280.31	80
307.17999	11
446	48
447.42001	18
464.29001	151
465.28	11
666.5	7
726.82001	7

NAME: Phosphatidylethanolamine alkenyl 18
PRECURSORMZ: 726.544314
PRECURSORTYPE: [M-H]-
FORMULA: C41H78NO7P
Ontology: 1-(1Z-alkenyl),2-acylglycerophosphoethanolamines
INCHIKEY: QBAQUPWJTLVJBD-CZAAGYDRNA-N
SMILES: CCCCCCCCCCCCCCCC\C=C\OCC(COP(O)(=O)OCCN)OC(=O)CC\C=C/C\C=C/CCCCCCCCCC
RETENTIONTIME: 
CCS: -1
IONMODE: Negative
INSTRUMENTTYPE: LC-ESI-ITFT
INSTRUMENT: 
COLLISIONENERGY: 30
Comment: registered in MassBank
Num Peaks: 12
218.67999	7
260.92001	9
266.60999	7
279.07001	1000
280.31	80
307.17999	11
446	48
447.42001	18
464.29001	151
465.28	11
666.5	7
726.82001	7

NAME: Phosphatidylethanolamine alkenyl 20
PRECURSORMZ: 754.575614
PRECURSORTYPE: [M-H]-
FORMULA: C43H82NO7P
Ontology: 1-alkyl,2-acylglycerophosphoethanolamines
INCHIKEY: GPGJCRAIGHOCDQ-QGRKPBPINA-N
SMILES: CCCCCCCCCCCCCCC\C=C/CCCOCC(COP(O)(=O)OCCN)OC(=O)CC\C=C/C\C=C/CCCCCCCCCC
RETENTIONTIME: 
CCS: -1
IONMODE: Negative
INSTRUMENTTYPE: LC-ESI-ITFT
INSTRUMENT: 
COLLISIONENERGY: 30
Comment: registered in MassBank
Num Peaks: 10
261.35001	29
279.14001	1000
280.23001	348
330.19	20
462.19	26
473.92999	12
475.37	9
492.25	220
493.09	75
631	113

NAME: Phosphatidylethanolamine alkenyl 20
PRECURSORMZ: 754.575614
PRECURSORTYPE: [M-H]-
FORMULA: C43H82NO7P
Ontology: 1-alkyl,2-acylglycerophosphoethanolamines
INCHIKEY: GPGJCRAIGHOCDQ-QGRKPBPINA-N
SMILES: CCCCCCCCCCCCCCC\C=C/CCCOCC(COP(O)(=O)OCCN)OC(=O)CC\C=C/C\C=C/CCCCCCCCCC
RETENTIONTIME: 
CCS: -1
IONMODE: Negative
INSTRUMENTTYPE: LC-ESI-ITFT
INSTRUMENT: 
COLLISIONENERGY: 30
Comment: registered in MassBank
Num Peaks: 10
261.35001	29
279.14001	1000
280.23001	348
330.19	20
462.19	26
473.92999	12
475.37	9
492.25	220
493.09	75
631	113

NAME: Phosphatidylethanolamine alkenyl 18
PRECURSORMZ: 750.544314
PRECURSORTYPE: [M-H]-
FORMULA: C43H78NO7P
Ontology: 1-(1Z-alkenyl),2-acylglycerophosphoethanolamines
INCHIKEY: RZZGAMUARHRLJN-ZOWVHDLQNA-N
SMILES: CCCCCCCCCCCCCCCC\C=C\OCC(COP(O)(=O)OCCN)OC(=O)CC\C=C/C\C=C/C\C=C/C\C=C/CCCCCC
RETENTIONTIME: 
CCS: -1
IONMODE: Negative
INSTRUMENTTYPE: LC-ESI-ITFT
INSTRUMENT: 
COLLISIONENERGY: 30
Comment: registered in MassBank
Num Peaks: 9
259.10999	80
259.95999	9
284.98999	14
303.09	1000
304.12	79
446.29999	74
447.20999	15
464.16	431
465.23001	39

NAME: Phosphatidylethanolamine alkenyl 18
PRECURSORMZ: 748.528664
PRECURSORTYPE: [M-H]-
FORMULA: C43H76NO7P
Ontology: 1-(1Z-alkenyl),2-acylglycerophosphoethanolamines
INCHIKEY: UZKXXUJVNWVEAA-GWWWPDGYNA-N
SMILES: CCCCCCCCCCCCCCCC\C=C\OCC(COP(O)(=O)OCCN)OC(=O)CC\C=C/C\C=C/C\C=C/C\C=C/C\C=C/CCC
RETENTIONTIME: 
CCS: -1
IONMODE: Negative
INSTRUMENTTYPE: LC-ESI-ITFT
INSTRUMENT: 
COLLISIONENERGY: 30
Comment: registered in MassBank
Num Peaks: 11
223.17999	50
257.22	391
258.16	47
286.14001	20
301.09	1000
302.16	207
446.29999	85
462.19	105
464.13	918
465.20001	128
716.40997	9

NAME: Phosphatidylethanolamine alkenyl 18
PRECURSORMZ: 778.575614
PRECURSORTYPE: [M-H]-
FORMULA: C45H82NO7P
Ontology: 1-(1Z-alkenyl),2-acylglycerophosphoethanolamines
INCHIKEY: GZMXKUALKXYCMM-XSEHFSNENA-N
SMILES: CCCCCCCCCCCCCCCC\C=C\OCC(COP(O)(=O)OCCN)OC(=O)CC\C=C/C\C=C/C\C=C/C\C=C/CCCCCCCC
RETENTIONTIME: 
CCS: -1
IONMODE: Negative
INSTRUMENTTYPE: LC-ESI-ITFT
INSTRUMENT: 
COLLISIONENERGY: 30
Comment: registered in MassBank
Num Peaks: 14
285.22	12
287.29999	11
288.26999	12
331.09	1000
332.16	78
421.85999	25
446.17001	64
447.16	21
464.17001	566
465.23001	91
556.65997	7
704.15002	8
707.65997	16
713.70001	18

NAME: Phosphatidylethanolamine alkenyl 18
PRECURSORMZ: 774.544314
PRECURSORTYPE: [M-H]-
FORMULA: C45H78NO7P
Ontology: 1-(1Z-alkenyl),2-acylglycerophosphoethanolamines
INCHIKEY: FIJFPUAJUDAZEY-NUANVQICNA-N
SMILES: CCCCCCCCCCCCCCCC\C=C\OCC(COP(O)(=O)OCCN)OC(=O)CC\C=C/C\C=C/C\C=C/C\C=C/C\C=C/C\C=C/CC
RETENTIONTIME: 
CCS: 346.2524854
IONMODE: Negative
INSTRUMENTTYPE: LC-ESI-ITFT
INSTRUMENT: 
COLLISIONENERGY: 30
Comment: registered in MassBank
Num Peaks: 17
228.98	34
230.05	5
249.08	7
281.16	24
283.10999	518
284.20001	46
309.13	5
327.04001	1000
328.09	94
419.17001	11
446.16	150
447.20999	10
464.14999	938
465.26999	75
493.04001	12
506.19	7
511.48001	6

NAME: Phosphatidylethanolamine alkenyl 18
PRECURSORMZ: 726.544314
PRECURSORTYPE: [M-H]-
FORMULA: C41H78NO7P
Ontology: 1-(1Z-alkenyl),2-acylglycerophosphoethanolamines
INCHIKEY: IEKMVBFEEDNXGT-WECHNZQXNA-N
SMILES: CCCCCCCCCCCCC\C=C/CCC(=O)OC(CO\C=C\C\C=C/CCCCCCCCCCCCC)COP(O)(=O)OCCN
RETENTIONTIME: 
CCS: -1
IONMODE: Negative
INSTRUMENTTYPE: LC-ESI-ITFT
INSTRUMENT: 
COLLISIONENERGY: 30
Comment: registered in MassBank
Num Peaks: 9
279.23999	15
281.07999	1000
282.04001	40
444.25	11
445.47	21
462.14999	109
463.09	21
621.79999	8
662.91998	37

NAME: Phosphatidylethanolamine alkenyl 18
PRECURSORMZ: 748.528664
PRECURSORTYPE: [M-H]-
FORMULA: C43H76NO7P
Ontology: 1-(1Z-alkenyl),2-acylglycerophosphoethanolamines
INCHIKEY: YJPYELPDWSEQHM-KTUZNUCGNA-N
SMILES: CCCCCCCCCCCCC\C=C/C\C=C\OCC(COP(O)(=O)OCCN)OC(=O)CC\C=C/C\C=C/C\C=C/C\C=C/CCCCCC
RETENTIONTIME: 
CCS: -1
IONMODE: Negative
INSTRUMENTTYPE: LC-ESI-ITFT
INSTRUMENT: 
COLLISIONENERGY: 30
Comment: registered in MassBank
Num Peaks: 17
259.04001	73
259.91	9
281.23999	6
283.26001	27
284.44	18
285.20999	11
303.04999	1000
304.10999	130
305.09	8
328.45999	12
329.07999	11
437.17999	7
444.17001	59
445.47	9
462.12	509
463.16	49
482.23999	7

NAME: Phosphatidylethanolamine alkenyl 18
PRECURSORMZ: 776.559964
PRECURSORTYPE: [M-H]-
FORMULA: C45H80NO7P
Ontology: 1-(1Z-alkenyl),2-acylglycerophosphoethanolamines
INCHIKEY: LLGDMLIODPBDGJ-IVEVXDSTNA-N
SMILES: CCCCCCCCCCCCC\C=C/C\C=C\OCC(COP(O)(=O)OCCN)OC(=O)CC\C=C/C\C=C/C\C=C/C\C=C/CCCCCCCC
RETENTIONTIME: 
CCS: -1
IONMODE: Negative
INSTRUMENTTYPE: LC-ESI-ITFT
INSTRUMENT: 
COLLISIONENERGY: 30
Comment: registered in MassBank
Num Peaks: 20
254.92999	8
281.10999	23
283.19	24
287.09	37
329.35001	24
331.20001	1000
332.20001	207
444.32999	51
445.41	37
460.17001	13
462.26999	198
463.26001	82
465.14001	15
563.72998	12
702.34003	39
714.42999	8
716.37	69
717.28998	19
718.21997	43
719.69	25

NAME: Phosphatidylethanolamine alkenyl 18
PRECURSORMZ: 774.544314
PRECURSORTYPE: [M-H]-
FORMULA: C45H78NO7P
Ontology: 1-(1Z-alkenyl),2-acylglycerophosphoethanolamines
INCHIKEY: BGXUVAFAQIKOQM-OYRSOWGGNA-N
SMILES: CCCCCCCCCCCCC\C=C/C\C=C\OCC(COP(O)(=O)OCCN)OC(=O)CC\C=C/C\C=C/C\C=C/C\C=C/C\C=C/CCCCC
RETENTIONTIME: 
CCS: -1
IONMODE: Negative
INSTRUMENTTYPE: LC-ESI-ITFT
INSTRUMENT: 
COLLISIONENERGY: 30
Comment: registered in MassBank
Num Peaks: 26
250.62	9
255.21001	74
281.14999	8
283.34	18
285.07999	105
286.13	31
303.38	18
307.07999	179
308.29001	105
329.19	1000
330.17999	170
391.26999	19
443.54999	51
444.26999	79
462.14999	304
463.16	59
465.20999	8
483.20999	27
483.95999	5
507.76001	8
516.89001	9
517.98999	9
537.19	11
648.85999	13
700.06	13
714.25	9

NAME: Phosphatidylethanolamine alkenyl 18
PRECURSORMZ: 772.528664
PRECURSORTYPE: [M-H]-
FORMULA: C45H76NO7P
Ontology: 1-(1Z-alkenyl),2-acylglycerophosphoethanolamines
INCHIKEY: MEWSEYMCACAAEE-YLACOYRINA-N
SMILES: CCCCCCCCCCCCC\C=C/C\C=C\OCC(COP(O)(=O)OCCN)OC(=O)CC\C=C/C\C=C/C\C=C/C\C=C/C\C=C/C\C=C/CC
RETENTIONTIME: 
CCS: -1
IONMODE: Negative
INSTRUMENTTYPE: LC-ESI-ITFT
INSTRUMENT: 
COLLISIONENERGY: 30
Comment: registered in MassBank
Num Peaks: 20
229.06	21
241	21
249.07001	7
281.04999	42
283.06	589
284.16	121
309.42001	11
327.04001	918
328.25	150
401.14999	21
417.23001	6
443.98999	136
445.23001	12
462.12	1000
463.10999	109
490.92001	10
493.39999	8
505.73001	7
595.77002	9
727.75	7

NAME: Phosphatidylethanolamine alkenyl 18
PRECURSORMZ: 770.513014
PRECURSORTYPE: [M-H]-
FORMULA: C45H74NO7P
Ontology: 1-(1Z-alkenyl),2-acylglycerophosphoethanolamines
INCHIKEY: CQUWHUPPHYSSCA-QOAWOPSMNA-N
SMILES: CCCCCCCCCC\C=C/C\C=C/C\C=C\OCC(COP(O)(=O)OCCN)OC(=O)CC\C=C/C\C=C/C\C=C/C\C=C/C\C=C/C\C=C/CC
RETENTIONTIME: 
CCS: -1
IONMODE: Negative
INSTRUMENTTYPE: LC-ESI-ITFT
INSTRUMENT: 
COLLISIONENERGY: 30
Comment: registered in MassBank
Num Peaks: 17
256.04001	30
283.26999	583
284.17001	113
302.92001	119
304.19	113
327.06	1000
328.01999	244
441.98999	446
460.28	827
461.26001	363
465	107
483.14999	137
484.03	48
605.62	83
712.04999	65
713.10999	95
772.90997	60

NAME: Phosphatidylethanolamine alkenyl 20
PRECURSORMZ: 778.575614
PRECURSORTYPE: [M-H]-
FORMULA: C45H82NO7P
Ontology: 1-(1Z-alkenyl),2-acylglycerophosphoethanolamines
INCHIKEY: PZJZEOZHLWBYFI-MHNSSQRMNA-N
SMILES: CCCCCCCCCCCCCCCCCC\C=C\OCC(COP(O)(=O)OCCN)OC(=O)CC\C=C/C\C=C/C\C=C/C\C=C/CCCCCC
RETENTIONTIME: 
CCS: -1
IONMODE: Negative
INSTRUMENTTYPE: LC-ESI-ITFT
INSTRUMENT: 
COLLISIONENERGY: 30
Comment: registered in MassBank
Num Peaks: 15
259.20001	65
260.10999	42
284.98999	13
303.04001	1000
304.13	166
430.98999	9
474.10999	63
492.20999	450
493.29999	45
608.14001	5
614.39001	12
694.82001	5
698.60999	22
747.26001	25
764.32001	6

NAME: Phosphatidylethanolamine alkenyl 20
PRECURSORMZ: 802.575614
PRECURSORTYPE: [M-H]-
FORMULA: C47H82NO7P
Ontology: 1-(1Z-alkenyl),2-acylglycerophosphoethanolamines
INCHIKEY: GWWKPJFGKBNJDJ-DYEXTAMENA-N
SMILES: CCCCCCCCCCCCCCCCCC\C=C\OCC(COP(O)(=O)OCCN)OC(=O)CC\C=C/C\C=C/C\C=C/C\C=C/C\C=C/C\C=C/CC
RETENTIONTIME: 
CCS: -1
IONMODE: Negative
INSTRUMENTTYPE: LC-ESI-ITFT
INSTRUMENT: 
COLLISIONENERGY: 30
Comment: registered in MassBank
Num Peaks: 15
229.06	22
249.08	13
283.10999	477
284.16	46
297.16	10
311.23999	13
327.03	1000
327.98001	93
447.14001	5
474.32001	150
492.19	848
493.10999	131
547.27002	7
624.41998	5
719.40997	7

NAME: Phosphatidylethanolamine alkyl 16
PRECURSORMZ: 724.528664
PRECURSORTYPE: [M-H]-
FORMULA: C41H76NO7P
Ontology: 1-alkyl,2-acylglycerophosphoethanolamines
INCHIKEY: MAYZJBKZHVGHAB-HNBVIXCXNA-N
SMILES: CCCCCCCCCCCCCCCCOCC(COP(O)(=O)OCCN)OC(=O)CC\C=C/C\C=C/C\C=C/C\C=C/CCCCCC
RETENTIONTIME: 
CCS: -1
IONMODE: Negative
INSTRUMENTTYPE: LC-ESI-ITFT
INSTRUMENT: 
COLLISIONENERGY: 30
Comment: registered in MassBank
Num Peaks: 12
231.05	15
258.97	87
281.26999	25
283.16	35
303.09	1000
303.72	20
305.04001	17
419.14999	25
420.23001	69
438.04999	645
439.10001	79
703.66998	27

NAME: Phosphatidylethanolamine alkyl 18
PRECURSORMZ: 728.559964
PRECURSORTYPE: [M-H]-
FORMULA: C41H80NO7P
Ontology: 1-alkyl,2-acylglycerophosphoethanolamines
INCHIKEY: RFXWTAVLHHOPPS-JSCMVKKRNA-N
SMILES: CCCCCCCCCCCCCCCCCCOCC(COP(O)(=O)OCCN)OC(=O)CC\C=C/C\C=C/CCCCCCCCCC
RETENTIONTIME: 
CCS: -1
IONMODE: Negative
INSTRUMENTTYPE: LC-ESI-ITFT
INSTRUMENT: 
COLLISIONENERGY: 30
Comment: registered in MassBank
Num Peaks: 10
255.17	8
278.98001	1000
280.20999	163
390.98999	28
448.35001	18
466.06	224
467.14001	30
632.62	8
646.25	31
646.85999	30

NAME: Phosphatidylethanolamine alkyl 18
PRECURSORMZ: 728.559964
PRECURSORTYPE: [M-H]-
FORMULA: C41H80NO7P
Ontology: 1-alkyl,2-acylglycerophosphoethanolamines
INCHIKEY: RFXWTAVLHHOPPS-JSCMVKKRNA-N
SMILES: CCCCCCCCCCCCCCCCCCOCC(COP(O)(=O)OCCN)OC(=O)CC\C=C/C\C=C/CCCCCCCCCC
RETENTIONTIME: 
CCS: -1
IONMODE: Negative
INSTRUMENTTYPE: LC-ESI-ITFT
INSTRUMENT: 
COLLISIONENERGY: 30
Comment: registered in MassBank
Num Peaks: 10
255.17	8
278.98001	1000
280.20999	163
390.98999	28
448.35001	18
466.06	224
467.14001	30
632.62	8
646.25	31
646.85999	30

NAME: Phosphatidylethanolamine alkyl 20
PRECURSORMZ: 756.591264
PRECURSORTYPE: [M-H]-
FORMULA: C43H84NO7P
Ontology: 1-alkyl,2-acylglycerophosphoethanolamines
INCHIKEY: LJTFYNCGYVJVFV-QIPJBBGZNA-N
SMILES: CCCCCCCCCCCCCCCCCCCCOCC(COP(O)(=O)OCCN)OC(=O)CC\C=C/C\C=C/CCCCCCCCCC
RETENTIONTIME: 
CCS: -1
IONMODE: Negative
INSTRUMENTTYPE: LC-ESI-ITFT
INSTRUMENT: 
COLLISIONENERGY: 30
Comment: registered in MassBank
Num Peaks: 16
260.89001	15
261.89999	11
279.10001	1000
280.09	163
433.19	5
476.25	49
477.06	6
494.14999	291
495.22	73
516.23999	11
658.45001	6
674.13	11
696.31	11
708.25	5
724.38	10
756.78003	6

NAME: Phosphatidylethanolamine alkyl 20
PRECURSORMZ: 756.591264
PRECURSORTYPE: [M-H]-
FORMULA: C43H84NO7P
Ontology: 1-alkyl,2-acylglycerophosphoethanolamines
INCHIKEY: LJTFYNCGYVJVFV-QIPJBBGZNA-N
SMILES: CCCCCCCCCCCCCCCCCCCCOCC(COP(O)(=O)OCCN)OC(=O)CC\C=C/C\C=C/CCCCCCCCCC
RETENTIONTIME: 
CCS: -1
IONMODE: Negative
INSTRUMENTTYPE: LC-ESI-ITFT
INSTRUMENT: 
COLLISIONENERGY: 30
Comment: registered in MassBank
Num Peaks: 16
260.89001	15
261.89999	11
279.10001	1000
280.09	163
433.19	5
476.25	49
477.06	6
494.14999	291
495.22	73
516.23999	11
658.45001	6
674.13	11
696.31	11
708.25	5
724.38	10
756.78003	6

NAME: Phosphatidylethanolamine alkyl 18
PRECURSORMZ: 752.559964
PRECURSORTYPE: [M-H]-
FORMULA: C43H80NO7P
Ontology: 1-alkyl,2-acylglycerophosphoethanolamines
INCHIKEY: DTYWTGFWGGLGBS-NZPWPDRSNA-N
SMILES: CCCCCCCCCCCCCCCCCCOCC(COP(O)(=O)OCCN)OC(=O)CC\C=C/C\C=C/C\C=C/C\C=C/CCCCCC
RETENTIONTIME: 
CCS: -1
IONMODE: Negative
INSTRUMENTTYPE: LC-ESI-ITFT
INSTRUMENT: 
COLLISIONENERGY: 30
Comment: registered in MassBank
Num Peaks: 15
259.23001	75
260.14001	38
303.04999	1000
304.07001	132
305.20001	8
419.10999	15
448.35001	59
449.45001	13
466.20001	433
505.67001	13
670.85999	13
692.15997	19
708.96997	23
719.40997	25
752.89001	6

NAME: Phosphatidylethanolamine alkyl 20
PRECURSORMZ: 780.591264
PRECURSORTYPE: [M-H]-
FORMULA: C45H84NO7P
Ontology: 1-alkyl,2-acylglycerophosphoethanolamines
INCHIKEY: BLFJXWVGBRMOTJ-CDNBUOKMNA-N
SMILES: CCCCCCCCCCCCCCCCCCCCOCC(COP(O)(=O)OCCN)OC(=O)CC\C=C/C\C=C/C\C=C/C\C=C/CCCCCC
RETENTIONTIME: 
CCS: -1
IONMODE: Negative
INSTRUMENTTYPE: LC-ESI-ITFT
INSTRUMENT: 
COLLISIONENERGY: 30
Comment: registered in MassBank
Num Peaks: 15
259.28	33
303.13	1000
303.98999	23
304.60999	13
333.17999	84
403.06	43
464.28	130
476.41	43
494.32999	395
495.32999	161
616.62	17
633.26001	23
679.15002	47
705.13	13
719.46997	27

NAME: Phosphatidylethanolamine alkyl 20
PRECURSORMZ: 804.591264
PRECURSORTYPE: [M-H]-
FORMULA: C47H84NO7P
Ontology: 1-alkyl,2-acylglycerophosphoethanolamines
INCHIKEY: CQIPPLYYEQYRAX-JQIYMLLDNA-N
SMILES: CCCCCCCCCCCCCCCCCCCCOCC(COP(O)(=O)OCCN)OC(=O)CC\C=C/C\C=C/C\C=C/C\C=C/C\C=C/C\C=C/CC
RETENTIONTIME: 
CCS: -1
IONMODE: Negative
INSTRUMENTTYPE: LC-ESI-ITFT
INSTRUMENT: 
COLLISIONENERGY: 30
Comment: registered in MassBank
Num Peaks: 16
229.10001	67
283.20999	584
284.32001	141
326.48999	47
327.10999	792
328.29001	87
474.35999	60
476.26999	121
492.26001	87
492.92001	67
494.20001	1000
495.45999	168
721.96002	81
730.12	40
786.56	134
789.58002	40

NAME: Phosphatidylethanolamine lyso 16
PRECURSORMZ: 452.278263
PRECURSORTYPE: [M-H]-
FORMULA: C21H44NO7P
Ontology: 2-acyl-sn-glycero-3-phosphoethanolamines
INCHIKEY: CKPBBEOJHAPPBT-UHFFFAOYNA-N
SMILES: CCCCCCCCCCCCCCCC(=O)OC(CO)COP(O)(=O)OCCN
RETENTIONTIME: 
CCS: 251.8398466
IONMODE: Negative
INSTRUMENTTYPE: LC-ESI-ITFT
INSTRUMENT: 
COLLISIONENERGY: 30
Comment: registered in MassBank
Num Peaks: 11
195.75999	6
213.96001	16
255.05	1000
255.71001	15
282.07999	8
288.64001	7
315.70001	11
322.97	9
373.03	6
406.29999	17
420.06	5

NAME: Phosphatidylethanolamine lyso 17
PRECURSORMZ: 466.293913
PRECURSORTYPE: [M-H]-
FORMULA: C22H46NO7P
Ontology: 2-acyl-sn-glycero-3-phosphoethanolamines
INCHIKEY: SZAICHDWEOHRLW-UHFFFAOYNA-N
SMILES: CCCCCCCCCCCCCCCCC(=O)OC(CO)COP(O)(=O)OCCN
RETENTIONTIME: 
CCS: -1
IONMODE: Negative
INSTRUMENTTYPE: LC-ESI-ITFT
INSTRUMENT: 
COLLISIONENERGY: 30
Comment: registered in MassBank
Num Peaks: 5
195.78999	9
214.07001	17
269.09	1000
270.06	8
353.85999	6

NAME: Phosphatidylethanolamine lyso 18
PRECURSORMZ: 480.309563
PRECURSORTYPE: [M-H]-
FORMULA: C23H48NO7P
Ontology: 2-acyl-sn-glycero-3-phosphoethanolamines
INCHIKEY: KIHAGWUUUHJRMS-UHFFFAOYNA-N
SMILES: CCCCCCCCCCCCCCCCCC(=O)OC(CO)COP(O)(=O)OCCN
RETENTIONTIME: 
CCS: 264.1964953
IONMODE: Negative
INSTRUMENTTYPE: LC-ESI-ITFT
INSTRUMENT: 
COLLISIONENERGY: 30
Comment: registered in MassBank
Num Peaks: 4
195.89999	19
213.87	10
283.07001	1000
284.19	10

NAME: Phosphatidylethanolamine lyso 18
PRECURSORMZ: 478.293913
PRECURSORTYPE: [M-H]-
FORMULA: C23H46NO7P
Ontology: 2-acyl-sn-glycero-3-phosphoethanolamines
INCHIKEY: FEVAUEZKXSRQPS-PFONDFGANA-N
SMILES: CCCCCCCCCCCCC\C=C/CCC(=O)OC(CO)COP(O)(=O)OCCN
RETENTIONTIME: 
CCS: -1
IONMODE: Negative
INSTRUMENTTYPE: LC-ESI-ITFT
INSTRUMENT: 
COLLISIONENERGY: 30
Comment: registered in MassBank
Num Peaks: 4
195.92	24
213.92	12
281.07999	1000
282.22	17

NAME: Phosphatidylethanolamine lyso 18
PRECURSORMZ: 476.278263
PRECURSORTYPE: [M-H]-
FORMULA: C23H44NO7P
Ontology: 2-acyl-sn-glycero-3-phosphoethanolamines
INCHIKEY: DTTGTTCKWRAIFM-HDXUUTQWNA-N
SMILES: CCCCCCCCCC\C=C/C\C=C/CCC(=O)OC(CO)COP(O)(=O)OCCN
RETENTIONTIME: 
CCS: -1
IONMODE: Negative
INSTRUMENTTYPE: LC-ESI-ITFT
INSTRUMENT: 
COLLISIONENERGY: 30
Comment: registered in MassBank
Num Peaks: 2
213.92	14
279.06	1000

NAME: Phosphatidylethanolamine lyso 20
PRECURSORMZ: 508.340863
PRECURSORTYPE: [M-H]-
FORMULA: C25H52NO7P
Ontology: 2-acyl-sn-glycero-3-phosphoethanolamines
INCHIKEY: QEQAJJJSRGAOOG-UHFFFAOYNA-N
SMILES: CCCCCCCCCCCCCCCCCCCC(=O)OC(CO)COP(O)(=O)OCCN
RETENTIONTIME: 
CCS: 271.5245516
IONMODE: Negative
INSTRUMENTTYPE: LC-ESI-ITFT
INSTRUMENT: 
COLLISIONENERGY: 30
Comment: registered in MassBank
Num Peaks: 7
196.14999	15
213.95	9
311.23999	1000
312.13	94
394.73001	7
410.64999	20
447.37	33

NAME: Phosphatidylethanolamine lyso 20
PRECURSORMZ: 506.325213
PRECURSORTYPE: [M-H]-
FORMULA: C25H50NO7P
Ontology: 2-acyl-sn-glycero-3-phosphoethanolamines
INCHIKEY: URXPORXPKXWHEF-MSUUIHNZNA-N
SMILES: CCCCCCCCCCCCCCC\C=C/CCC(=O)OC(CO)COP(O)(=O)OCCN
RETENTIONTIME: 
CCS: -1
IONMODE: Negative
INSTRUMENTTYPE: LC-ESI-ITFT
INSTRUMENT: 
COLLISIONENERGY: 30
Comment: registered in MassBank
Num Peaks: 7
195.97	27
309.20999	1000
310.06	147
342.60999	7
407.82001	10
420.94	6
446.70001	7

NAME: Phosphatidylethanolamine lyso 20
PRECURSORMZ: 502.293913
PRECURSORTYPE: [M-H]-
FORMULA: C25H46NO7P
Ontology: 2-acyl-sn-glycero-3-phosphoethanolamines
INCHIKEY: BGJVXSMYONPLDN-NWFXIAEYNA-N
SMILES: CCCCCCCCC\C=C/C\C=C/C\C=C/CCC(=O)OC(CO)COP(O)(=O)OCCN
RETENTIONTIME: 
CCS: -1
IONMODE: Negative
INSTRUMENTTYPE: LC-ESI-ITFT
INSTRUMENT: 
COLLISIONENERGY: 30
Comment: registered in MassBank
Num Peaks: 12
211.77	10
213.81	8
259.06	18
279.03	10
303.04999	11
305.06	1000
306.04001	31
325.09	8
411.32001	5
421	8
427.57999	10
444.82999	9

NAME: Phosphatidylethanolamine lyso 20
PRECURSORMZ: 500.278263
PRECURSORTYPE: [M-H]-
FORMULA: C25H44NO7P
Ontology: 2-acyl-sn-glycero-3-phosphoethanolamines
INCHIKEY: SOFGMCJQWLTKCE-ZKWNWVNENA-N
SMILES: CCCCCC\C=C/C\C=C/C\C=C/C\C=C/CCC(=O)OC(CO)COP(O)(=O)OCCN
RETENTIONTIME: 
CCS: -1
IONMODE: Negative
INSTRUMENTTYPE: LC-ESI-ITFT
INSTRUMENT: 
COLLISIONENERGY: 30
Comment: registered in MassBank
Num Peaks: 4
205.14	8
213.91	24
259.10001	59
303.04999	1000

NAME: Phosphatidylethanolamine lyso 20
PRECURSORMZ: 498.262613
PRECURSORTYPE: [M-H]-
FORMULA: C25H42NO7P
Ontology: 2-acyl-sn-glycero-3-phosphoethanolamines
INCHIKEY: UNILCTDPRMGSDM-JEBPEJKENA-N
SMILES: CCC\C=C/C\C=C/C\C=C/C\C=C/C\C=C/CCC(=O)OC(CO)COP(O)(=O)OCCN
RETENTIONTIME: 
CCS: -1
IONMODE: Negative
INSTRUMENTTYPE: LC-ESI-ITFT
INSTRUMENT: 
COLLISIONENERGY: 30
Comment: registered in MassBank
Num Peaks: 15
152.56	6
202.98	12
213.78999	32
238.81	8
257.20999	167
258.19	6
301.03	1000
302.19	26
354.79001	7
355.75	7
356.95999	54
397.98999	11
408.04999	11
415.76001	14
453.47	13

NAME: Phosphatidylethanolamine lyso 22
PRECURSORMZ: 524.278263
PRECURSORTYPE: [M-H]-
FORMULA: C27H44NO7P
Ontology: 2-acyl-sn-glycero-3-phosphoethanolamines
INCHIKEY: TWBVHOYVCUOMJY-KUBAVDMBNA-N
SMILES: CC\C=C/C\C=C/C\C=C/C\C=C/C\C=C/C\C=C/CCC(=O)OC(CO)COP(O)(=O)OCCN
RETENTIONTIME: 
CCS: 293.7164849
IONMODE: Negative
INSTRUMENTTYPE: LC-ESI-ITFT
INSTRUMENT: 
COLLISIONENERGY: 30
Comment: registered in MassBank
Num Peaks: 8
191.00999	28
213.99001	36
229.05	32
248.97	11
283.10999	519
284.09	12
326.98001	1000
328.07999	12

NAME: Phosphatidylethanolamine lyso alkenyl 16
PRECURSORMZ: 436.283348
PRECURSORTYPE: [M-H]-
FORMULA: C21H44NO6P
Ontology: Glycerophosphoethanolamines
INCHIKEY: LULXDGNUFGVYDS-BMRADRMJNA-N
SMILES: CCCCCCCCCCCCCC\C=C\OC(CO)COP(O)(=O)OCCN
RETENTIONTIME: 
CCS: -1
IONMODE: Negative
INSTRUMENTTYPE: LC-ESI-ITFT
INSTRUMENT: 
COLLISIONENERGY: 30
Comment: registered in MassBank
Num Peaks: 14
139.89999	43
152.81	22
195.91	1000
197.10001	83
230.77	43
239.08	212
248.02	25
292.73001	25
295.85001	25
360.95001	29
365.28	83
375.07001	691
375.92999	18
393.32999	36

NAME: Phosphatidylethanolamine lyso alkenyl 18
PRECURSORMZ: 464.314648
PRECURSORTYPE: [M-H]-
FORMULA: C23H48NO6P
Ontology: Glycerophosphoethanolamines
INCHIKEY: RGAPGIRIYHJSJY-HTXNQAPBNA-N
SMILES: CCCCCCCCCCCCCCCC\C=C\OC(CO)COP(O)(=O)OCCN
RETENTIONTIME: 
CCS: -1
IONMODE: Negative
INSTRUMENTTYPE: LC-ESI-ITFT
INSTRUMENT: 
COLLISIONENERGY: 30
Comment: registered in MassBank
Num Peaks: 15
139.95	66
166.14	16
195.89999	1000
235.94	11
267.07001	103
268.19	24
283.22	58
364.92001	21
375.51999	37
383	34
391.54001	16
403.19	321
404.03	34
418	24
421.34	8

NAME: Phosphatidylethanolamine lyso alkenyl 18
PRECURSORMZ: 464.314648
PRECURSORTYPE: [M-H]-
FORMULA: C23H48NO6P
Ontology: Glycerophosphoethanolamines
INCHIKEY: RGAPGIRIYHJSJY-HTXNQAPBNA-N
SMILES: CCCCCCCCCCCCCCCC\C=C\OC(CO)COP(O)(=O)OCCN
RETENTIONTIME: 
CCS: -1
IONMODE: Negative
INSTRUMENTTYPE: LC-ESI-ITFT
INSTRUMENT: 
COLLISIONENERGY: 30
Comment: registered in MassBank
Num Peaks: 15
139.95	66
166.14	16
195.89999	1000
235.94	11
267.07001	103
268.19	24
283.22	58
364.92001	21
375.51999	37
383	34
391.54001	16
403.19	321
404.03	34
418	24
421.34	8

NAME: Phosphatidylglyceride 16
PRECURSORMZ: 747.518159
PRECURSORTYPE: [M-H]-
FORMULA: C40H77O10P
Ontology: Phosphatidylglycerols
INCHIKEY: JITAGSMRIUAUGR-SGEDCAFJNA-N
SMILES: CCCCCCCCCCCCCCCC(=O)OCC(COP(O)(=O)OCC(O)CO)OC(=O)CC\C=C/CCCCCCCCCCCCC
RETENTIONTIME: 
CCS: -1
IONMODE: Negative
INSTRUMENTTYPE: LC-ESI-ITFT
INSTRUMENT: 
COLLISIONENERGY: 30
Comment: registered in MassBank
Num Peaks: 27
226.89999	7
228.86	9
248.89999	5
255.03999	517
256.04001	38
281.07001	1000
282.12	136
283.09	233
284.19	152
327.09	387
328.17999	136
391	215
392.19	32
417.35999	14
418.28	46
419.20999	17
436.07999	353
437.14001	172
438.28	9
465.06	51
466.01001	7
483.17001	93
484.25	15
491.17001	17
509.13	15
510.01999	5
672.90002	7

NAME: Phosphatidylglyceride 16
PRECURSORMZ: 745.502509
PRECURSORTYPE: [M-H]-
FORMULA: C40H75O10P
Ontology: Phosphatidylglycerols
INCHIKEY: SHHLVVJXLWXVNI-BAOXYHDDNA-N
SMILES: CCCCCCCCCCCCCCCC(=O)OCC(COP(O)(=O)OCC(O)CO)OC(=O)CC\C=C/C\C=C/CCCCCCCCCC
RETENTIONTIME: 
CCS: -1
IONMODE: Negative
INSTRUMENTTYPE: LC-ESI-ITFT
INSTRUMENT: 
COLLISIONENERGY: 30
Comment: registered in MassBank
Num Peaks: 20
255.12	445
256.07999	75
279.16	1000
280.03	113
281.5	20
285.09	33
303.14001	279
326.82999	6
391.16	152
391.88	24
460.09	153
464.97	82
465.98001	29
482.60001	10
483.35001	112
484.34	6
488.88	29
654.75	24
680.73999	203
681.96997	23

NAME: Phosphatidylglyceride 16
PRECURSORMZ: 773.533809
PRECURSORTYPE: [M-H]-
FORMULA: C42H79O10P
Ontology: Phosphatidylglycerols
INCHIKEY: BWROGLIMDHGHPP-JSCMVKKRNA-N
SMILES: CCCCCCCCCCCCCCCC(=O)OCC(COP(O)(=O)OCC(O)CO)OC(=O)CC\C=C/C\C=C/CCCCCCCCCCCC
RETENTIONTIME: 
CCS: -1
IONMODE: Negative
INSTRUMENTTYPE: LC-ESI-ITFT
INSTRUMENT: 
COLLISIONENERGY: 30
Comment: registered in MassBank
Num Peaks: 21
251.19	10
255.06	398
256.09	50
282.98001	5
307.12	1000
308.16	295
329.16	188
391.07001	133
413.13	19
443.13	15
462.03	82
464.07001	8
465.14001	48
466.20001	5
483.22	87
484.10001	33
510.17001	8
517.96997	19
535.08002	9
713.35999	14
755.90002	21

NAME: Phosphatidylglyceride 18
PRECURSORMZ: 773.533809
PRECURSORTYPE: [M-H]-
FORMULA: C42H79O10P
Ontology: Phosphatidylglycerols
INCHIKEY: AOWDUWHTDPWHIC-JSCMVKKRNA-N
SMILES: CCCCCCCCCCCCCCCCCC(=O)OCC(COP(O)(=O)OCC(O)CO)OC(=O)CC\C=C/C\C=C/CCCCCCCCCC
RETENTIONTIME: 
CCS: -1
IONMODE: Negative
INSTRUMENTTYPE: LC-ESI-ITFT
INSTRUMENT: 
COLLISIONENERGY: 30
Comment: registered in MassBank
Num Peaks: 20
279.04001	1000
280.07001	79
283.19	411
284.04001	76
302.87	8
308.14001	6
329.16	5
419.14999	135
420.23001	44
462.39001	12
464.95001	6
488.57999	10
492.88	43
493.48999	13
511.04999	65
511.97	35
595.87	13
625.32001	5
682.78998	21
773.23999	12

NAME: Phosphatidylglyceride 18
PRECURSORMZ: 773.533809
PRECURSORTYPE: [M-H]-
FORMULA: C42H79O10P
Ontology: Phosphatidylglycerols
INCHIKEY: VCGWKVSKEWOYEM-ZUELCTOONA-N
SMILES: CCCCCCCCCCCCC\C=C/CCC(=O)OCC(COP(O)(=O)OCC(O)CO)OC(=O)CC\C=C/CCCCCCCCCCCCC
RETENTIONTIME: 
CCS: -1
IONMODE: Negative
INSTRUMENTTYPE: LC-ESI-ITFT
INSTRUMENT: 
COLLISIONENERGY: 30
Comment: registered in MassBank
Num Peaks: 16
267.10001	16
278.82001	8
281.07999	1000
282.07001	123
327	15
417.06	23
464.13	30
480.72	9
491.38	9
509.04001	27
510	20
568.83002	16
665.72998	7
683.90997	6
699.13	16
773.71997	9

NAME: Phosphatidylglyceride 18
PRECURSORMZ: 771.518159
PRECURSORTYPE: [M-H]-
FORMULA: C42H77O10P
Ontology: Phosphatidylglycerols
INCHIKEY: YNBZQPMSTPSIJD-XBCPOCNBNA-N
SMILES: CCCCCCCCCCCCC\C=C/CCC(=O)OCC(COP(O)(=O)OCC(O)CO)OC(=O)CC\C=C/C\C=C/CCCCCCCCCC
RETENTIONTIME: 
CCS: -1
IONMODE: Negative
INSTRUMENTTYPE: LC-ESI-ITFT
INSTRUMENT: 
COLLISIONENERGY: 30
Comment: registered in MassBank
Num Peaks: 13
261.20999	31
279.14999	1000
280	44
281.23999	638
282	91
399.82001	19
489.06	22
491.22	44
508.76999	50
593.73999	19
613.38	41
623.08002	41
711	59

NAME: Phosphatidylglyceride 18
PRECURSORMZ: 795.518159
PRECURSORTYPE: [M-H]-
FORMULA: C44H77O10P
Ontology: Phosphatidylglycerols
INCHIKEY: ITIOHRDVKOPUBF-MOYSMJPMNA-N
SMILES: CCCCCCCCCCCCC\C=C/CCC(=O)OCC(COP(O)(=O)OCC(O)CO)OC(=O)CC\C=C/C\C=C/C\C=C/C\C=C/CCCCCC
RETENTIONTIME: 
CCS: -1
IONMODE: Negative
INSTRUMENTTYPE: LC-ESI-ITFT
INSTRUMENT: 
COLLISIONENERGY: 30
Comment: registered in MassBank
Num Peaks: 15
259.17999	135
281.17001	1000
282.17999	135
303.14001	595
304.17999	205
332.26001	42
457.17999	42
530.89001	37
531.97998	60
532.69	65
594.81	135
713.48999	130
730.66998	363
735.66998	65
737.45001	28

NAME: Phosphatidylglyceride 18
PRECURSORMZ: 793.502509
PRECURSORTYPE: [M-H]-
FORMULA: C44H75O10P
Ontology: Phosphatidylglycerols
INCHIKEY: QBXWEUHSBYVVIQ-XKMJRSRDNA-N
SMILES: CCCCCCCCCCCCC\C=C/CCC(=O)OCC(COP(O)(=O)OCC(O)CO)OC(=O)CC\C=C/C\C=C/C\C=C/C\C=C/C\C=C/CCC
RETENTIONTIME: 
CCS: -1
IONMODE: Negative
INSTRUMENTTYPE: LC-ESI-ITFT
INSTRUMENT: 
COLLISIONENERGY: 30
Comment: registered in MassBank
Num Peaks: 17
257.34	83
281.06	1000
281.98999	149
301.17999	286
302.13	179
303.20999	310
369.97	54
491.10999	36
511.03	155
538.02002	54
656.75	42
690.48999	36
695.38	42
703.75	54
707.32001	101
731	113
776.21997	71

NAME: Phosphatidylglyceride 18
PRECURSORMZ: 821.533809
PRECURSORTYPE: [M-H]-
FORMULA: C46H79O10P
Ontology: Phosphatidylglycerols
INCHIKEY: SDJOKCPHTLSGSK-RRIMUHHXNA-N
SMILES: CCCCCCCCCCCCC\C=C/CCC(=O)OCC(COP(O)(=O)OCC(O)CO)OC(=O)CC\C=C/C\C=C/C\C=C/C\C=C/C\C=C/CCCCC
RETENTIONTIME: 
CCS: -1
IONMODE: Negative
INSTRUMENTTYPE: LC-ESI-ITFT
INSTRUMENT: 
COLLISIONENERGY: 30
Comment: registered in MassBank
Num Peaks: 15
281.16	676
284.12	87
327.20001	104
329.04999	1000
329.69	98
557.03998	81
619.28003	87
635.04999	35
713.29999	35
748.09998	81
759.79999	87
761.34998	92
762.60999	29
763.51001	58
803.04999	64

NAME: Phosphatidylglyceride 18
PRECURSORMZ: 819.518159
PRECURSORTYPE: [M-H]-
FORMULA: C46H77O10P
Ontology: Phosphatidylglycerols
INCHIKEY: VGGGUMPTGJTNFQ-QRPORDCINA-N
SMILES: CCCCCCCCCCCCC\C=C/CCC(=O)OCC(COP(O)(=O)OCC(O)CO)OC(=O)CC\C=C/C\C=C/C\C=C/C\C=C/C\C=C/C\C=C/CC
RETENTIONTIME: 
CCS: -1
IONMODE: Negative
INSTRUMENTTYPE: LC-ESI-ITFT
INSTRUMENT: 
COLLISIONENERGY: 30
Comment: registered in MassBank
Num Peaks: 18
249.24001	32
281.17999	1000
282.22	24
283.13	168
284.54001	22
305.03	14
309.14999	19
327.06	503
328.22	103
462.89001	56
464.16	27
509.32001	67
510.17999	38
537.03003	26
538.65002	10
555.03998	41
759.53003	36
788.15997	43

NAME: Phosphatidylglyceride 18
PRECURSORMZ: 769.502509
PRECURSORTYPE: [M-H]-
FORMULA: C42H75O10P
Ontology: Phosphatidylglycerols
INCHIKEY: WZACVMOHPZANSW-WRGXGLASNA-N
SMILES: CCCCCCCCCC\C=C/C\C=C/CCC(=O)OCC(COP(O)(=O)OCC(O)CO)OC(=O)CC\C=C/C\C=C/CCCCCCCCCC
RETENTIONTIME: 
CCS: -1
IONMODE: Negative
INSTRUMENTTYPE: LC-ESI-ITFT
INSTRUMENT: 
COLLISIONENERGY: 30
Comment: registered in MassBank
Num Peaks: 11
235.24001	16
260.95999	7
279.01999	1000
280.16	163
415.22	16
488.92001	29
489.89999	20
507.04001	40
570.90002	17
654.96997	8
670.96002	19

NAME: Phosphatidylglyceride 18
PRECURSORMZ: 793.502509
PRECURSORTYPE: [M-H]-
FORMULA: C44H75O10P
Ontology: Phosphatidylglycerols
INCHIKEY: YOXNNFKWZGKUBQ-IPVVXUKZNA-N
SMILES: CCCCCCCCCC\C=C/C\C=C/CCC(=O)OCC(COP(O)(=O)OCC(O)CO)OC(=O)CC\C=C/C\C=C/C\C=C/C\C=C/CCCCCC
RETENTIONTIME: 
CCS: -1
IONMODE: Negative
INSTRUMENTTYPE: LC-ESI-ITFT
INSTRUMENT: 
COLLISIONENERGY: 30
Comment: registered in MassBank
Num Peaks: 11
254.13	37
258.89999	74
279.19	653
280.14001	140
284.37	33
303.07001	1000
429.85001	37
506.57001	29
532.37	33
657.44	25
711.78003	190

NAME: Phosphatidylglyceride 18
PRECURSORMZ: 817.502509
PRECURSORTYPE: [M-H]-
FORMULA: C46H75O10P
Ontology: Phosphatidylglycerols
INCHIKEY: QVDNNCVPBKNHNS-XPMHQQHXNA-N
SMILES: CCCCCCCCCC\C=C/C\C=C/CCC(=O)OCC(COP(O)(=O)OCC(O)CO)OC(=O)CC\C=C/C\C=C/C\C=C/C\C=C/C\C=C/C\C=C/CC
RETENTIONTIME: 
CCS: -1
IONMODE: Negative
INSTRUMENTTYPE: LC-ESI-ITFT
INSTRUMENT: 
COLLISIONENERGY: 30
Comment: registered in MassBank
Num Peaks: 21
244.94	10
279.14999	1000
280.07001	64
283.16	224
284.01001	39
327.07001	591
328.07999	200
329.17001	5
415.29001	16
433.37	29
462.95999	16
483.26999	12
489.35001	24
506.92999	53
533.08002	14
537.03003	58
538.34003	8
599.15997	16
612.67999	8
731.22998	24
757.22998	18

NAME: Phosphatidylglyceride 20
PRECURSORMZ: 843.518159
PRECURSORTYPE: [M-H]-
FORMULA: C48H77O10P
Ontology: Phosphatidylglycerols
INCHIKEY: QVNMBAKBHHJIRP-GKYWKYGONA-N
SMILES: CCCCCCCCC\C=C/C\C=C/C\C=C/CCC(=O)OCC(COP(O)(=O)OCC(O)CO)OC(=O)CC\C=C/C\C=C/C\C=C/C\C=C/C\C=C/C\C=C/CC
RETENTIONTIME: 
CCS: -1
IONMODE: Negative
INSTRUMENTTYPE: LC-ESI-ITFT
INSTRUMENT: 
COLLISIONENERGY: 30
Comment: registered in MassBank
Num Peaks: 14
283.07001	278
284.12	37
304.54999	52
305.17001	1000
326.89001	415
328.19	56
329.10001	122
533.83002	22
536.90002	156
540.33002	37
578.96002	37
723.96002	67
761.77002	100
810.90002	30

NAME: Phosphatidylglyceride 20
PRECURSORMZ: 841.502509
PRECURSORTYPE: [M-H]-
FORMULA: C48H75O10P
Ontology: Phosphatidylglycerols
INCHIKEY: WAHLPBOVXFIGAP-YARNEYDXNA-N
SMILES: CCCCCC\C=C/C\C=C/C\C=C/C\C=C/CCC(=O)OCC(COP(O)(=O)OCC(O)CO)OC(=O)CC\C=C/C\C=C/C\C=C/C\C=C/C\C=C/C\C=C/CC
RETENTIONTIME: 
CCS: -1
IONMODE: Negative
INSTRUMENTTYPE: LC-ESI-ITFT
INSTRUMENT: 
COLLISIONENERGY: 30
Comment: registered in MassBank
Num Peaks: 13
259.56	111
260.53	46
283.07001	456
303.04001	1000
304.13	211
327.04999	889
328.17999	19
513.10999	19
530.88	84
537.04999	100
555.13	61
556	50
703.96002	54

NAME: Phosphatidylglyceride 22
PRECURSORMZ: 867.518159
PRECURSORTYPE: [M-H]-
FORMULA: C50H77O10P
Ontology: Phosphatidylglycerols
INCHIKEY: XHLZURIDNJOINR-WBRRUXEENA-N
SMILES: CCCCC\C=C/C\C=C/C\C=C/C\C=C/C\C=C/CCC(=O)OC(COC(=O)CC\C=C/C\C=C/C\C=C/C\C=C/C\C=C/C\C=C/CC)COP(O)(=O)OCC(O)CO
RETENTIONTIME: 
CCS: 432.3055905
IONMODE: Negative
INSTRUMENTTYPE: LC-ESI-ITFT
INSTRUMENT: 
COLLISIONENERGY: 30
Comment: registered in MassBank
Num Peaks: 8
250.96001	185
283.03	351
285.07001	119
327.03	397
329	1000
395.89001	46
556.72998	126
805.13	66

NAME: Phosphatidylglyceride 22
PRECURSORMZ: 865.502509
PRECURSORTYPE: [M-H]-
FORMULA: C50H75O10P
Ontology: Phosphatidylglycerols
INCHIKEY: XACKZSRNTPEYBU-GZSOIYOPNA-N
SMILES: CC\C=C/C\C=C/C\C=C/C\C=C/C\C=C/C\C=C/CCC(=O)OCC(COP(O)(=O)OCC(O)CO)OC(=O)CC\C=C/C\C=C/C\C=C/C\C=C/C\C=C/C\C=C/CC
RETENTIONTIME: 
CCS: 424.3166899
IONMODE: Negative
INSTRUMENTTYPE: LC-ESI-ITFT
INSTRUMENT: 
COLLISIONENERGY: 30
Comment: registered in MassBank
Num Peaks: 16
248.97	21
283.09	362
284.23999	47
325.88	28
327.09	1000
328.04999	100
402.70999	7
463.10001	56
465.12	7
537.15997	7
554.90002	77
555.97998	15
607.77002	23
778.59998	8
782.88	21
791.22998	22

NAME: Phosphatidylinositol 16
PRECURSORMZ: 835.534203
PRECURSORTYPE: [M-H]-
FORMULA: C43H81O13P
Ontology: Phosphatidylinositols
INCHIKEY: IBBOEPTXNHPBRH-AFOMSZMQSA-N
SMILES: CCCCCCCCCCCCCCCC(=O)OCC(COP(O)(=O)O[C@H]1[C@H](O)[C@@H](O)[C@H](O)[C@@H](O)[C@H]1O)OC(=O)CC\C=C/CCCCCCCCCCCCC
RETENTIONTIME: 
CCS: -1
IONMODE: Negative
INSTRUMENTTYPE: LC-ESI-ITFT
INSTRUMENT: 
COLLISIONENERGY: 30
Comment: registered in MassBank
Num Peaks: 17
240.87	229
254.37	17
255.08	349
256.35001	45
281.04001	184
282.28	36
296.94	61
297.67999	20
391.01001	478
392.16	25
418.17001	20
553.15002	1000
554.22998	274
571.14001	218
572.22998	47
579.12	285
748.5	36

NAME: Phosphatidylinositol 16
PRECURSORMZ: 833.518553
PRECURSORTYPE: [M-H]-
FORMULA: C43H79O13P
Ontology: Phosphatidylinositols
INCHIKEY: UKUWCMCEVNAMQA-DNPFOPPISA-N
SMILES: CCCCCCCCCCCCCCCC(=O)OCC(COP(O)(=O)O[C@H]1[C@H](O)[C@@H](O)[C@H](O)[C@@H](O)[C@H]1O)OC(=O)CC\C=C/C\C=C/CCCCCCCCCC
RETENTIONTIME: 
CCS: -1
IONMODE: Negative
INSTRUMENTTYPE: LC-ESI-ITFT
INSTRUMENT: 
COLLISIONENERGY: 30
Comment: registered in MassBank
Num Peaks: 30
240.82001	194
241.94	6
255.07001	566
256.20001	63
258.84	9
279.12	269
280.06	31
296.92001	162
314.73001	20
315.91	5
390.92999	617
392.14999	90
409.01999	26
414.87	101
416.03	15
417.63	10
436.10999	7
460.82001	6
479.47	7
553.10999	1000
553.97998	140
571.17999	178
572.08002	28
577.21997	194
578.29999	42
595.10999	18
672.40997	7
745.90002	42
746.52002	21
747.21997	7

NAME: Phosphatidylinositol 16
PRECURSORMZ: 859.534203
PRECURSORTYPE: [M-H]-
FORMULA: C45H81O13P
Ontology: Phosphatidylinositols
INCHIKEY: TYVNWAWTRSCTFD-PSOMHJJNSA-N
SMILES: CCCCCCCCCCCCCCCC(=O)OCC(COP(O)(=O)O[C@H]1[C@H](O)[C@@H](O)[C@H](O)[C@@H](O)[C@H]1O)OC(=O)CC\C=C/C\C=C/C\C=C/CCCCCCCCC
RETENTIONTIME: 
CCS: -1
IONMODE: Negative
INSTRUMENTTYPE: LC-ESI-ITFT
INSTRUMENT: 
COLLISIONENERGY: 30
Comment: registered in MassBank
Num Peaks: 27
240.74001	57
255.03999	611
256.14999	108
259.01001	14
281.95999	28
297.01001	290
303.09	51
305.06	372
306.03	28
390.97	1000
391.95999	14
416.95999	68
435.23999	14
440.98001	176
461.35999	14
479.06	45
553.09998	989
553.97998	420
571.22998	295
580.14001	14
603.17999	327
604.02002	91
653.09003	48
697.46997	31
755.15997	37
771.95001	48
841.33002	14

NAME: Phosphatidylinositol 16
PRECURSORMZ: 857.518553
PRECURSORTYPE: [M-H]-
FORMULA: C45H79O13P
Ontology: Phosphatidylinositols
INCHIKEY: QAOYQEIOBPZFPB-VHZSRAIHSA-N
SMILES: CCCCCCCCCCCCCCCC(=O)OCC(COP(O)(=O)O[C@H]1[C@H](O)[C@@H](O)[C@H](O)[C@@H](O)[C@H]1O)OC(=O)CC\C=C/C\C=C/C\C=C/C\C=C/CCCCCC
RETENTIONTIME: 
CCS: -1
IONMODE: Negative
INSTRUMENTTYPE: LC-ESI-ITFT
INSTRUMENT: 
COLLISIONENERGY: 30
Comment: registered in MassBank
Num Peaks: 26
240.89999	93
255.10001	372
256.17001	62
259.03	23
285.17999	10
297	146
297.76999	5
303.06	290
304.04001	31
314.76001	27
316.14001	7
391.01001	595
392.07999	79
408.97	16
410.23999	6
439.04999	109
439.85999	15
528.15002	6
553.12	1000
554.07001	239
571.06	275
572.09998	44
600.96002	208
602.09998	52
694.96997	6
767.22998	11

NAME: Phosphatidylinositol 16
PRECURSORMZ: 855.502903
PRECURSORTYPE: [M-H]-
FORMULA: C45H77O13P
Ontology: Phosphatidylinositols
INCHIKEY: CTYGZBOFLKSVSJ-AYZKUARYSA-N
SMILES: CCCCCCCCCCCCCCCC(=O)OCC(COP(O)(=O)O[C@H]1[C@H](O)[C@@H](O)[C@H](O)[C@@H](O)[C@H]1O)OC(=O)CC\C=C/C\C=C/C\C=C/C\C=C/C\C=C/CCC
RETENTIONTIME: 
CCS: -1
IONMODE: Negative
INSTRUMENTTYPE: LC-ESI-ITFT
INSTRUMENT: 
COLLISIONENERGY: 30
Comment: registered in MassBank
Num Peaks: 30
241.08	16
255.11	478
257.19	47
258.64001	25
297.07999	134
297.88	49
301.19	148
302.01001	21
314.89999	19
340.39001	27
390.92001	627
392.14001	43
409.10999	14
437.01001	200
439.20001	23
461.12	19
464.19	19
524.84998	14
553.09998	1000
554.25	124
570.78003	148
571.38	83
572.27002	68
617.29999	58
652.64001	45
717.40997	12
768.02002	47
773.23999	27
780.90002	12
792.54999	19

NAME: Phosphatidylinositol 16
PRECURSORMZ: 881.518553
PRECURSORTYPE: [M-H]-
FORMULA: C47H79O13P
Ontology: Phosphatidylinositols
INCHIKEY: FPHAZHKZJQOPBU-BXVYXOBNSA-N
SMILES: CCCCCCCCCCCCCCCC(=O)OCC(COP(O)(=O)O[C@H]1[C@H](O)[C@@H](O)[C@H](O)[C@@H](O)[C@H]1O)OC(=O)CC\C=C/C\C=C/C\C=C/C\C=C/C\C=C/C\C=C/CC
RETENTIONTIME: 
CCS: -1
IONMODE: Negative
INSTRUMENTTYPE: LC-ESI-ITFT
INSTRUMENT: 
COLLISIONENERGY: 30
Comment: registered in MassBank
Num Peaks: 21
255.08	497
282.67999	15
283.31	27
296.89999	117
314.92001	92
327.12	161
390.91	874
391.79001	34
408.82001	31
462.92999	75
464.19	40
464.85001	17
466.10001	10
478.76001	27
553	1000
554.07001	159
571.12	386
624.95001	92
626	15
643.03998	105
794.31	80

NAME: Phosphatidylinositol 16
PRECURSORMZ: 831.502903
PRECURSORTYPE: [M-H]-
FORMULA: C43H77O13P
Ontology: Phosphatidylinositols
INCHIKEY: JHVZQBRAEVIBML-DVHZKANPSA-N
SMILES: CCCCCCCCCCC\C=C/CCC(=O)OCC(COP(O)(=O)O[C@H]1[C@H](O)[C@@H](O)[C@H](O)[C@@H](O)[C@H]1O)OC(=O)CC\C=C/C\C=C/CCCCCCCCCC
RETENTIONTIME: 
CCS: -1
IONMODE: Negative
INSTRUMENTTYPE: LC-ESI-ITFT
INSTRUMENT: 
COLLISIONENERGY: 30
Comment: registered in MassBank
Num Peaks: 22
241.00999	90
241.96001	90
253.05	1000
279.35001	60
283.10001	100
296.79999	70
297.54001	50
389.01001	590
389.98999	190
414.98001	120
476.5	60
481.12	110
551.07001	710
552.21997	90
569.78003	100
577.14001	420
691.07001	60
745.07001	120
770.51001	170
773.25	60
798.98999	150
801.84003	140

NAME: Phosphatidylinositol 17
PRECURSORMZ: 871.534203
PRECURSORTYPE: [M-H]-
FORMULA: C46H81O13P
Ontology: Phosphatidylinositols
INCHIKEY: DFLHJZQZIPIWSG-VAUUZOHPSA-N
SMILES: CCCCCCCCCCCCCCCCC(=O)OCC(COP(O)(=O)O[C@H]1[C@H](O)[C@@H](O)[C@H](O)[C@@H](O)[C@H]1O)OC(=O)CC\C=C/C\C=C/C\C=C/C\C=C/CCCCCC
RETENTIONTIME: 
CCS: -1
IONMODE: Negative
INSTRUMENTTYPE: LC-ESI-ITFT
INSTRUMENT: 
COLLISIONENERGY: 30
Comment: registered in MassBank
Num Peaks: 20
258.97	37
269.17999	376
270	78
285.34	22
293.60999	15
297.01001	81
303.10001	189
314.73001	11
326.73999	39
404.95999	583
406.09	46
439.07001	50
439.89999	30
567.09003	883
567.98999	200
585.12	107
586.15997	70
600.97998	165
787.96997	65
789.19	1000

NAME: Phosphatidylinositol 18
PRECURSORMZ: 861.549853
PRECURSORTYPE: [M-H]-
FORMULA: C45H83O13P
Ontology: Phosphatidylinositols
INCHIKEY: DJIHJMQVAWUMQB-GRNFJTJUSA-N
SMILES: CCCCCCCCCCCCCCCCCC(=O)OCC(COP(O)(=O)O[C@H]1[C@H](O)[C@@H](O)[C@H](O)[C@@H](O)[C@H]1O)OC(=O)CC\C=C/C\C=C/CCCCCCCCCC
RETENTIONTIME: 
CCS: -1
IONMODE: Negative
INSTRUMENTTYPE: LC-ESI-ITFT
INSTRUMENT: 
COLLISIONENERGY: 30
Comment: registered in MassBank
Num Peaks: 32
240.89999	27
255.09	7
258.79001	18
279.14001	269
280.07999	69
283.07999	879
284.04001	159
284.64001	8
296.39999	13
297	119
298.04001	21
314.85001	23
415.01999	99
415.94	17
419.01999	804
420.14999	84
420.94	6
437.06	17
552.14001	7
553.25	5
554.28003	7
576.98999	211
578.03003	63
581.09003	1000
582.17999	193
595.34003	26
596.20001	6
599.12	202
600.23999	52
742.57001	8
757.52002	6
774.29999	16

NAME: Phosphatidylinositol 18
PRECURSORMZ: 887.565503
PRECURSORTYPE: [M-H]-
FORMULA: C47H85O13P
Ontology: Phosphatidylinositols
INCHIKEY: IVPVQEZYLVFIGH-FLPISHNPSA-N
SMILES: CCCCCCCCCCCCCCCCCC(=O)OCC(COP(O)(=O)O[C@H]1[C@H](O)[C@@H](O)[C@H](O)[C@@H](O)[C@H]1O)OC(=O)CC\C=C/C\C=C/C\C=C/CCCCCCCCC
RETENTIONTIME: 
CCS: -1
IONMODE: Negative
INSTRUMENTTYPE: LC-ESI-ITFT
INSTRUMENT: 
COLLISIONENERGY: 30
Comment: registered in MassBank
Num Peaks: 22
258.98001	17
278.75	6
283.20001	786
284.14001	71
296.92001	195
297.91	8
305.16	234
306.07001	35
315.07999	34
418.97	757
420.10999	54
437.14001	17
441.06	135
581.10999	1000
582.22998	96
599.04999	169
599.94	16
603.06	239
604.14001	18
621.12	13
622.19	5
726.06	6

NAME: Phosphatidylinositol 18
PRECURSORMZ: 885.549853
PRECURSORTYPE: [M-H]-
FORMULA: C47H83O13P
Ontology: Phosphatidylinositols
INCHIKEY: QTBZDDLLDFZGQX-KVUJAYRISA-N
SMILES: CCCCCCCCCCCCCCCCCC(=O)OCC(COP(O)(=O)O[C@H]1[C@H](O)[C@@H](O)[C@H](O)[C@@H](O)[C@H]1O)OC(=O)CC\C=C/C\C=C/C\C=C/C\C=C/CCCCCC
RETENTIONTIME: 
CCS: -1
IONMODE: Negative
INSTRUMENTTYPE: LC-ESI-ITFT
INSTRUMENT: 
COLLISIONENERGY: 30
Comment: registered in MassBank
Num Peaks: 19
258.98999	25
283.14001	684
284.10999	49
296.98001	114
303.04999	180
304.23001	15
315.04999	18
419.01999	682
419.98999	69
437.19	28
439.13	90
440	10
581.03003	1000
582.15997	120
599.16998	171
600.65002	138
601.26001	68
602.16998	18
619	20

NAME: Phosphatidylinositol 18
PRECURSORMZ: 883.534203
PRECURSORTYPE: [M-H]-
FORMULA: C47H81O13P
Ontology: Phosphatidylinositols
INCHIKEY: CZXYESCYMAKGKD-BRWUPIELSA-N
SMILES: CCCCCCCCCCCCCCCCCC(=O)OCC(COP(O)(=O)O[C@H]1[C@H](O)[C@@H](O)[C@H](O)[C@@H](O)[C@H]1O)OC(=O)CC\C=C/C\C=C/C\C=C/C\C=C/C\C=C/CCC
RETENTIONTIME: 
CCS: -1
IONMODE: Negative
INSTRUMENTTYPE: LC-ESI-ITFT
INSTRUMENT: 
COLLISIONENERGY: 30
Comment: registered in MassBank
Num Peaks: 17
257.13	35
283.10001	735
284.03	70
296.89001	70
301.07001	142
314.72	25
419.14999	668
420.16	49
437.03	328
438.14001	34
581.12	1000
582.34998	75
598.96002	384
599.71997	23
600.34998	8
616.84998	27
721.44	30

NAME: Phosphatidylinositol 18
PRECURSORMZ: 913.581153
PRECURSORTYPE: [M-H]-
FORMULA: C49H87O13P
Ontology: Phosphatidylinositols
INCHIKEY: LBMMQTGWTSTFIZ-WJEBLFDXSA-N
SMILES: CCCCCCCCCCCCCCCCCC(=O)OCC(COP(O)(=O)O[C@H]1[C@H](O)[C@@H](O)[C@H](O)[C@@H](O)[C@H]1O)OC(=O)CC\C=C/C\C=C/C\C=C/C\C=C/CCCCCCCC
RETENTIONTIME: 
CCS: -1
IONMODE: Negative
INSTRUMENTTYPE: LC-ESI-ITFT
INSTRUMENT: 
COLLISIONENERGY: 30
Comment: registered in MassBank
Num Peaks: 18
283.10001	256
283.94	73
296.64001	66
331.28	129
419.10999	438
419.82999	35
466.76001	43
468.06	18
541.84998	20
543.56	28
581.03998	1000
582.06	197
598.90997	114
600.29999	41
629.32001	256
630.21997	61
646.64001	33
853.25	51

NAME: Phosphatidylinositol 18
PRECURSORMZ: 911.565503
PRECURSORTYPE: [M-H]-
FORMULA: C49H85O13P
Ontology: Phosphatidylinositols
INCHIKEY: MQRZIONTIPBTLX-SGZUTDQTSA-N
SMILES: CCCCCCCCCCCCCCCCCC(=O)OCC(COP(O)(=O)O[C@H]1[C@H](O)[C@@H](O)[C@H](O)[C@@H](O)[C@H]1O)OC(=O)CC\C=C/C\C=C/C\C=C/C\C=C/C\C=C/CCCCC
RETENTIONTIME: 
CCS: 411.4828447
IONMODE: Negative
INSTRUMENTTYPE: LC-ESI-ITFT
INSTRUMENT: 
COLLISIONENERGY: 30
Comment: registered in MassBank
Num Peaks: 21
283.01001	758
284.14999	27
285.25	32
296.84	96
297.69	23
310.44	32
314.98999	23
329.17999	130
330.29001	59
419.07999	587
420.23999	98
437.17001	62
465.07999	114
580.39001	57
581.02002	1000
581.94	87
599.28003	160
600.03998	68
625.12	23
627.21997	192
644.78998	23

NAME: Phosphatidylinositol 18
PRECURSORMZ: 909.549853
PRECURSORTYPE: [M-H]-
FORMULA: C49H83O13P
Ontology: Phosphatidylinositols
INCHIKEY: DJVOKHFQPGWUPK-CONVNOKZSA-N
SMILES: CCCCCCCCCCCCCCCCCC(=O)OCC(COP(O)(=O)O[C@H]1[C@H](O)[C@@H](O)[C@H](O)[C@@H](O)[C@H]1O)OC(=O)CC\C=C/C\C=C/C\C=C/C\C=C/C\C=C/C\C=C/CC
RETENTIONTIME: 
CCS: 418.8282198
IONMODE: Negative
INSTRUMENTTYPE: LC-ESI-ITFT
INSTRUMENT: 
COLLISIONENERGY: 30
Comment: registered in MassBank
Num Peaks: 20
283.14999	439
284.03	56
296.95001	54
297.66	16
298.26999	22
314.85001	16
327.03	97
419.01001	424
420.07999	50
436.98999	40
462.82001	34
463.57999	6
581.09003	1000
582.06	121
599.15002	341
600.25	44
625.08002	125
626.14001	18
747.10999	9
748.25	5

NAME: Phosphatidylinositol 18
PRECURSORMZ: 859.534203
PRECURSORTYPE: [M-H]-
FORMULA: C45H81O13P
Ontology: Phosphatidylinositols
INCHIKEY: YWXCZYNZOLHDAW-RFSLHEDBSA-N
SMILES: CCCCCCCCCCCCC\C=C/CCC(=O)OCC(COP(O)(=O)O[C@H]1[C@H](O)[C@@H](O)[C@H](O)[C@@H](O)[C@H]1O)OC(=O)CC\C=C/C\C=C/CCCCCCCCCC
RETENTIONTIME: 
CCS: -1
IONMODE: Negative
INSTRUMENTTYPE: LC-ESI-ITFT
INSTRUMENT: 
COLLISIONENERGY: 30
Comment: registered in MassBank
Num Peaks: 40
240.99001	34
241.99001	6
254.89999	14
256.29001	14
257.26001	10
258.94	14
279.07999	227
281.09	871
282.07001	121
296.88	202
298.14001	18
303.19	15
304.20001	9
314.84	28
391.23001	9
392.07001	7
414.97	112
416.29999	87
416.98999	781
418.03	171
433.07001	7
435.07001	53
440.16	9
554.70001	73
555.53003	7
570.98999	9
577.13	285
578.28003	113
579.07001	1000
580.06	269
580.71002	8
595.03998	39
597.19	199
598.08002	43
620.96002	7
719.31	7
748.44	21
768.96997	14
798.07001	5
809.07001	15

NAME: Phosphatidylinositol 18
PRECURSORMZ: 885.549853
PRECURSORTYPE: [M-H]-
FORMULA: C47H83O13P
Ontology: Phosphatidylinositols
INCHIKEY: LNVVBCYFPFTKCW-YKZCNZEKSA-N
SMILES: CCCCCCCCCCCCC\C=C/CCC(=O)OCC(COP(O)(=O)O[C@H]1[C@H](O)[C@@H](O)[C@H](O)[C@@H](O)[C@H]1O)OC(=O)CC\C=C/C\C=C/C\C=C/CCCCCCCCC
RETENTIONTIME: 
CCS: -1
IONMODE: Negative
INSTRUMENTTYPE: LC-ESI-ITFT
INSTRUMENT: 
COLLISIONENERGY: 30
Comment: registered in MassBank
Num Peaks: 25
259.10999	50
281.10999	809
282.20001	170
296.79999	332
303.09	37
305.23001	477
416.98999	697
418.26999	71
435.06	37
436.38	66
440.60001	50
441.95999	46
443.23001	29
448.79001	104
523.12	41
541.02002	46
579.07001	1000
580.21997	162
597.39001	224
598.27002	83
599.37	71
603.04999	315
604.16998	245
722.87	66
828.27002	75

NAME: Phosphatidylinositol 18
PRECURSORMZ: 883.534203
PRECURSORTYPE: [M-H]-
FORMULA: C47H81O13P
Ontology: Phosphatidylinositols
INCHIKEY: PKDRPGXTELXGGN-RXMKVQODSA-N
SMILES: CCCCCCCCCCCCC\C=C/CCC(=O)OCC(COP(O)(=O)O[C@H]1[C@H](O)[C@@H](O)[C@H](O)[C@@H](O)[C@H]1O)OC(=O)CC\C=C/C\C=C/C\C=C/C\C=C/CCCCCC
RETENTIONTIME: 
CCS: -1
IONMODE: Negative
INSTRUMENTTYPE: LC-ESI-ITFT
INSTRUMENT: 
COLLISIONENERGY: 30
Comment: registered in MassBank
Num Peaks: 23
259.07999	21
260.04999	7
281.10001	707
282.06	56
283.29999	5
296.85001	178
303.14001	226
304.14999	7
314.85001	27
417	630
418.10001	65
434.95001	30
438.87	76
439.89001	5
579.04999	1000
580.03003	76
580.78003	10
597.15997	263
598.16998	10
601.07001	187
602.14001	13
619.03998	28
721.98999	5

NAME: Phosphatidylinositol 18
PRECURSORMZ: 907.534203
PRECURSORTYPE: [M-H]-
FORMULA: C49H81O13P
Ontology: Phosphatidylinositols
INCHIKEY: HJWMMUBGTHVMFN-VPCUEIIDSA-N
SMILES: CCCCCCCCCCCCC\C=C/CCC(=O)OCC(COP(O)(=O)O[C@H]1[C@H](O)[C@@H](O)[C@H](O)[C@@H](O)[C@H]1O)OC(=O)CC\C=C/C\C=C/C\C=C/C\C=C/C\C=C/C\C=C/CC
RETENTIONTIME: 
CCS: -1
IONMODE: Negative
INSTRUMENTTYPE: LC-ESI-ITFT
INSTRUMENT: 
COLLISIONENERGY: 30
Comment: registered in MassBank
Num Peaks: 19
297.04999	761
298.29999	82
303.14001	172
304.04999	21
333	10
433.06	809
434.20001	120
439.01001	90
439.95999	46
456.64999	15
595.12	1000
596.13	130
601.20001	107
601.97998	25
613.25	262
614.15997	6
619.91998	15
794.76001	10
839.57001	15

NAME: Phosphatidylinositol 19
PRECURSORMZ: 899.565503
PRECURSORTYPE: [M-H]-
FORMULA: C48H85O13P
Ontology: Phosphatidylinositols
INCHIKEY: GQWBKIUFQRXJRP-ZKYHKDPYSA-N
SMILES: CCCCCCCCCCCCCCCCCCC(=O)OCC(COP(O)(=O)O[C@H]1[C@H](O)[C@@H](O)[C@H](O)[C@@H](O)[C@H]1O)OC(=O)CC\C=C/C\C=C/C\C=C/C\C=C/CCCCCC
RETENTIONTIME: 
CCS: -1
IONMODE: Negative
INSTRUMENTTYPE: LC-ESI-ITFT
INSTRUMENT: 
COLLISIONENERGY: 30
Comment: registered in MassBank
Num Peaks: 19
297.04999	761
298.29999	82
303.14001	172
304.04999	21
333	10
433.06	809
434.20001	120
439.01001	90
439.95999	46
456.64999	15
595.12	1000
596.13	130
601.20001	107
601.97998	25
613.25	262
614.15997	6
619.91998	15
794.76001	10
839.57001	15

NAME: Phosphatidylinositol 20
PRECURSORMZ: 913.581153
PRECURSORTYPE: [M-H]-
FORMULA: C49H87O13P
Ontology: Phosphatidylinositols
INCHIKEY: NBBYCIYUCRZFFV-LLKVLBNOSA-N
SMILES: CCCCCCCCCCCCCCCCCCCC(=O)OCC(COP(O)(=O)O[C@H]1[C@H](O)[C@@H](O)[C@H](O)[C@@H](O)[C@H]1O)OC(=O)CC\C=C/C\C=C/C\C=C/C\C=C/CCCCCC
RETENTIONTIME: 
CCS: -1
IONMODE: Negative
INSTRUMENTTYPE: LC-ESI-ITFT
INSTRUMENT: 
COLLISIONENERGY: 30
Comment: registered in MassBank
Num Peaks: 23
258.97	17
296.92001	139
303.17999	47
311.17001	854
312.16	193
314.66	10
439.04999	61
447.03	648
448.37	25
567.29999	8
578.12	8
601.02002	102
602.19	110
609.12	1000
610.09003	132
627.25	176
628.39001	39
766.52002	32
777.23999	17
801.23999	10
832.27002	61
855.78998	22
856.40002	15

NAME: Phosphatidylinositol alkyl 16
PRECURSORMZ: 865.523638
PRECURSORTYPE: [M-H]-
FORMULA: C47H79O12P
Ontology: 1-alkyl,2-acylglycerophosphoinositols
INCHIKEY: HJZVPFAZKUHWMN-ZRQCKBQHSA-N
SMILES: CCCCCCCCCCC\C=C/CCCOCC(COP(O)(=O)O[C@H]1[C@H](O)[C@@H](O)[C@H](O)[C@@H](O)[C@H]1O)OC(=O)CC\C=C/C\C=C/C\C=C/C\C=C/C\C=C/C\C=C/CC
RETENTIONTIME: 
CCS: -1
IONMODE: Negative
INSTRUMENTTYPE: LC-ESI-ITFT
INSTRUMENT: 
COLLISIONENERGY: 30
Comment: registered in MassBank
Num Peaks: 16
248.97	21
283.09	362
284.23999	47
325.88	28
327.09	1000
328.04999	100
402.70999	7
463.10001	56
465.12	7
537.15997	7
554.90002	77
555.97998	15
607.77002	23
778.59998	8
782.88	21
791.22998	22

NAME: Phosphatidylinositol lyso 18
PRECURSORMZ: 599.320187
PRECURSORTYPE: [M-H]-
FORMULA: C27H53O12P
Ontology: 2-acyl-sn-glycerol-3-phosphoinositols
INCHIKEY: AGVRWBBFKKEVAX-WAPMBQLLSA-N
SMILES: CCCCCCCCCCCCCCCCCC(=O)OC(CO)COP(O)(=O)O[C@H]1[C@H](O)[C@@H](O)[C@H](O)[C@@H](O)[C@H]1O
RETENTIONTIME: 
CCS: 275.2004289
IONMODE: Negative
INSTRUMENTTYPE: LC-ESI-ITFT
INSTRUMENT: 
COLLISIONENERGY: 30
Comment: registered in MassBank
Num Peaks: 19
222.85001	86
234.81	5
240.86	409
241.84	18
283.10999	1000
284.20999	57
314.87	380
316.07001	40
333.14999	5
419	709
420	76
423.07001	5
436.95001	19
438.14001	9
457.10999	27
484.79999	5
516.91998	7
539.01001	8
557.65997	7

NAME: Phosphatidylserine 16
PRECURSORMZ: 782.497758
PRECURSORTYPE: [M-H]-
FORMULA: C42H74NO10P
Ontology: Phosphatidylserines
INCHIKEY: SPHVTAIQBHDJQC-WRDNLCFKNA-N
SMILES: CCCCCCCCCCCCCCCC(=O)OCC(COP(O)(=O)OCC(N)C(O)=O)OC(=O)CC\C=C/C\C=C/C\C=C/C\C=C/CCCCCC
RETENTIONTIME: 
CCS: -1
IONMODE: Negative
INSTRUMENTTYPE: LC-ESI-ITFT
INSTRUMENT: 
COLLISIONENERGY: 30
Comment: registered in MassBank
Num Peaks: 15
252.83	16
255.32001	56
259.04001	10
279.16	8
299.29001	11
303.23001	33
304.16	8
349.34	34
391.10999	163
409.20001	65
439.17999	39
457.31	15
495.85999	19
695.06	1000
696.20001	270

NAME: Phosphatidylserine 16
PRECURSORMZ: 806.497758
PRECURSORTYPE: [M-H]-
FORMULA: C44H74NO10P
Ontology: Phosphatidylserines
INCHIKEY: PWBBJQOVCTWPIM-LGFBOSHVNA-N
SMILES: CCCCCCCCCCCCCCCC(=O)OCC(COP(O)(=O)OCC(N)C(O)=O)OC(=O)CC\C=C/C\C=C/C\C=C/C\C=C/C\C=C/C\C=C/CC
RETENTIONTIME: 
CCS: 392.052821
IONMODE: Negative
INSTRUMENTTYPE: LC-ESI-ITFT
INSTRUMENT: 
COLLISIONENERGY: 30
Comment: registered in MassBank
Num Peaks: 15
255.07001	62
256.09	15
283.28	12
327.23001	8
349.31	13
390.98001	203
391.95999	33
409.19	8
462.92001	46
464.19	12
497.23999	6
525.19	5
626.39001	6
719.13	1000
720.03998	375

NAME: Phosphatidylserine 17
PRECURSORMZ: 796.513408
PRECURSORTYPE: [M-H]-
FORMULA: C43H76NO10P
Ontology: Phosphatidylserines
INCHIKEY: BPPNSMDUPJTVAF-VTJLAKARNA-N
SMILES: CCCCCCCCCCCCCCCCC(=O)OCC(COP(O)(=O)OCC(N)C(O)=O)OC(=O)CC\C=C/C\C=C/C\C=C/C\C=C/CCCCCC
RETENTIONTIME: 
CCS: -1
IONMODE: Negative
INSTRUMENTTYPE: LC-ESI-ITFT
INSTRUMENT: 
COLLISIONENERGY: 30
Comment: registered in MassBank
Num Peaks: 14
255.28	6
279.26999	10
280.26999	7
283.07001	16
303.14001	10
438.85001	5
452.37	7
493.16	7
511.22	11
709.13	52
710.02002	15
714.14001	1000
715.21002	115
731.71997	13

NAME: Phosphatidylserine 18
PRECURSORMZ: 788.544708
PRECURSORTYPE: [M-H]-
FORMULA: C42H80NO10P
Ontology: Phosphatidylserines
INCHIKEY: GPSKZJNTROFFOC-HYOGKJQXNA-N
SMILES: CCCCCCCCCCCCCCCCCC(=O)OCC(COP(O)(=O)OCC(N)C(O)=O)OC(=O)CC\C=C/CCCCCCCCCCCCC
RETENTIONTIME: 
CCS: -1
IONMODE: Negative
INSTRUMENTTYPE: LC-ESI-ITFT
INSTRUMENT: 
COLLISIONENERGY: 30
Comment: registered in MassBank
Num Peaks: 12
283.22	17
283.97	19
416.92999	60
419.04001	163
419.98001	48
442.92999	10
580.71002	50
623.03003	38
624.07001	24
701.12	1000
702.23999	548
710.92999	34

NAME: Phosphatidylserine 18
PRECURSORMZ: 786.529058
PRECURSORTYPE: [M-H]-
FORMULA: C42H78NO10P
Ontology: Phosphatidylserines
INCHIKEY: VMDCGUSYZOIAGZ-JSCMVKKRNA-N
SMILES: CCCCCCCCCCCCCCCCCC(=O)OCC(COP(O)(=O)OCC(N)C(O)=O)OC(=O)CC\C=C/C\C=C/CCCCCCCCCC
RETENTIONTIME: 
CCS: -1
IONMODE: Negative
INSTRUMENTTYPE: LC-ESI-ITFT
INSTRUMENT: 
COLLISIONENERGY: 30
Comment: registered in MassBank
Num Peaks: 12
279.07001	465
279.87	90
283.25	150
308.01999	45
419.14999	195
420.07001	60
523.35999	39
669.26001	96
690.75	12
699.13	1000
700.15997	324
744.71997	36

NAME: Phosphatidylserine 18
PRECURSORMZ: 812.544708
PRECURSORTYPE: [M-H]-
FORMULA: C44H80NO10P
Ontology: Phosphatidylserines
INCHIKEY: JRRYKGRILWVSHS-JCXYTCFZNA-N
SMILES: CCCCCCCCCCCCCCCCCC(=O)OCC(COP(O)(=O)OCC(N)C(O)=O)OC(=O)CC\C=C/C\C=C/C\C=C/CCCCCCCCC
RETENTIONTIME: 
CCS: -1
IONMODE: Negative
INSTRUMENTTYPE: LC-ESI-ITFT
INSTRUMENT: 
COLLISIONENERGY: 30
Comment: registered in MassBank
Num Peaks: 24
283.16	135
284.19	30
293.28	7
349.01001	1000
350.26999	71
418.57001	55
419.20999	9
420.09	59
442.07001	13
442.75	16
458.54999	12
462.41	12
480.17999	67
525.15002	22
531.21002	22
724.5	58
725.15002	291
726.14001	122
729.40997	23
730.73999	12
751.77002	35
753.64001	36
754.37	9
791.89001	30

NAME: Phosphatidylserine 18
PRECURSORMZ: 810.529058
PRECURSORTYPE: [M-H]-
FORMULA: C44H78NO10P
Ontology: Phosphatidylserines
INCHIKEY: AENVCOSUVDLDFA-NQWSYULSNA-N
SMILES: CCCCCCCCCCCCCCCCCC(=O)OCC(COP(O)(=O)OCC(N)C(O)=O)OC(=O)CC\C=C/C\C=C/C\C=C/C\C=C/CCCCCC
RETENTIONTIME: 
CCS: -1
IONMODE: Negative
INSTRUMENTTYPE: LC-ESI-ITFT
INSTRUMENT: 
COLLISIONENERGY: 30
Comment: registered in MassBank
Num Peaks: 11
283.14999	59
284.14999	11
303.16	19
419.07001	179
420.14999	21
437.09	35
438.10001	10
438.98001	31
439.89999	11
723.13	1000
724.15997	285

NAME: Phosphatidylserine 18
PRECURSORMZ: 808.513408
PRECURSORTYPE: [M-H]-
FORMULA: C44H76NO10P
Ontology: Phosphatidylserines
INCHIKEY: OYCMFOXJRHYXHL-HDSNJYMDNA-N
SMILES: CCCCCCCCCCCCCCCCCC(=O)OCC(COP(O)(=O)OCC(N)C(O)=O)OC(=O)CC\C=C/C\C=C/C\C=C/C\C=C/C\C=C/CCC
RETENTIONTIME: 
CCS: -1
IONMODE: Negative
INSTRUMENTTYPE: LC-ESI-ITFT
INSTRUMENT: 
COLLISIONENERGY: 30
Comment: registered in MassBank
Num Peaks: 23
241.03	8
255.10001	31
283.38	65
301	12
349.39001	11
390.88	18
417.23001	12
418.95001	64
420.32999	5
437.14001	89
438.07001	38
495.89999	5
506.54001	7
553.23999	9
579.32001	5
606.81	7
719.03998	16
721.07001	1000
722.21997	441
743.5	5
749.53998	6
756.07001	8
758.40002	14

NAME: Phosphatidylserine 18
PRECURSORMZ: 834.529058
PRECURSORTYPE: [M-H]-
FORMULA: C46H78NO10P
Ontology: Phosphatidylserines
INCHIKEY: LYYHRRPTEXPVOR-HSBBONCLNA-N
SMILES: CCCCCCCCCCCCCCCCCC(=O)OCC(COP(O)(=O)OCC(N)C(O)=O)OC(=O)CC\C=C/C\C=C/C\C=C/C\C=C/C\C=C/C\C=C/CC
RETENTIONTIME: 
CCS: 404.9164861
IONMODE: Negative
INSTRUMENTTYPE: LC-ESI-ITFT
INSTRUMENT: 
COLLISIONENERGY: 30
Comment: registered in MassBank
Num Peaks: 7
283.23001	49
419.14999	150
420.04999	7
437.06	36
463.01999	31
747.03998	1000
748.08002	35

NAME: Phosphatidylserine 19
PRECURSORMZ: 848.544708
PRECURSORTYPE: [M-H]-
FORMULA: C47H80NO10P
Ontology: Phosphatidylserines
INCHIKEY: KQUCBTRVYDUHMT-MXQGKLILNA-N
SMILES: CCCCCCCCCCCCCCCCCCC(=O)OCC(COP(O)(=O)OCC(N)C(O)=O)OC(=O)CC\C=C/C\C=C/C\C=C/C\C=C/C\C=C/C\C=C/CC
RETENTIONTIME: 
CCS: -1
IONMODE: Negative
INSTRUMENTTYPE: LC-ESI-ITFT
INSTRUMENT: 
COLLISIONENERGY: 30
Comment: registered in MassBank
Num Peaks: 29
283.04001	49
295.82001	30
297.19	9
419.07001	32
433.20001	26
434.04999	19
451.16	10
502.03	13
550.21997	7
551.51001	12
582.29999	16
626.71997	16
688.71002	10
716.16998	20
716.87	17
743.39001	26
747.03998	14
761.31	322
762.39001	43
766.07001	1000
766.90002	69
771.90002	25
772.60999	20
773.34003	78
774.15997	178
788.03003	10
789.57001	26
790.96002	14
797.87	20

NAME: Phosphatidylserine 22
PRECURSORMZ: 878.497758
PRECURSORTYPE: [M-H]-
FORMULA: C50H74NO10P
Ontology: Phosphatidylserines
INCHIKEY: RJCZACBLQGCNCW-GZSOIYOPNA-N
SMILES: CC\C=C/C\C=C/C\C=C/C\C=C/C\C=C/C\C=C/CCC(=O)OCC(COP(O)(=O)OCC(N)C(O)=O)OC(=O)CC\C=C/C\C=C/C\C=C/C\C=C/C\C=C/C\C=C/CC
RETENTIONTIME: 
CCS: 379.0794439
IONMODE: Negative
INSTRUMENTTYPE: LC-ESI-ITFT
INSTRUMENT: 
COLLISIONENERGY: 30
Comment: registered in MassBank
Num Peaks: 5
462.54999	93
463.26001	204
791.02002	1000
791.84998	38
819.52002	30

NAME: Sphingomyelin d18
PRECURSORMZ: 735.602163
PRECURSORTYPE: [M+CH3COO]-
FORMULA: C39H81N2O6P
Ontology: Phosphosphingolipids
INCHIKEY: QHZIGNLCLJPLCU-AMAPPZPBSA-N
SMILES: CCCCCCCCCCCCCCC[C@H](O)[C@@H](COP([O-])(=O)OCC[N+](C)(C)C)N=C(O)CCCCCCCCCCCCCCC
RETENTIONTIME: 
CCS: -1
IONMODE: Negative
INSTRUMENTTYPE: LC-ESI-ITFT
INSTRUMENT: 
COLLISIONENERGY: 30
Comment: registered in MassBank
Num Peaks: 19
249.89	9
257.17999	66
281.92999	7
283.09	363
301.04999	414
302.98999	18
330.29999	8
407.04999	6
451.94	8
453.31	6
478.06	13
480.13	199
497.98999	14
499.98001	17
689.32001	1000
689.92999	8
704.41998	19
718.98999	5
746.42999	9

NAME: Sphingomyelin d18
PRECURSORMZ: 763.633463
PRECURSORTYPE: [M+CH3COO]-
FORMULA: C41H85N2O6P
Ontology: Phosphosphingolipids
INCHIKEY: JCELSEVNSMXGKA-PVXQIPPMSA-N
SMILES: CCCCCCCCCCCCCCCCCC(O)=N[C@H](COP([O-])(=O)OCC[N+](C)(C)C)[C@@H](O)CCCCCCCCCCCCCCC
RETENTIONTIME: 
CCS: -1
IONMODE: Negative
INSTRUMENTTYPE: LC-ESI-ITFT
INSTRUMENT: 
COLLISIONENERGY: 30
Comment: registered in MassBank
Num Peaks: 10
282.94	19
303.10001	19
326.73999	31
462.41	19
480.88	69
624.53003	19
693.75	54
709.84003	54
717.34003	1000
731.71002	158

NAME: Sphingomyelin d18
PRECURSORMZ: 791.664763
PRECURSORTYPE: [M+CH3COO]-
FORMULA: C43H89N2O6P
Ontology: Phosphosphingolipids
INCHIKEY: UGRZESKDAPEULH-HLFYWILQSA-N
SMILES: CCCCCCCCCCCCCCCCCCCC(O)=N[C@H](COP([O-])(=O)OCC[N+](C)(C)C)[C@@H](O)CCCCCCCCCCCCCCC
RETENTIONTIME: 
CCS: -1
IONMODE: Negative
INSTRUMENTTYPE: LC-ESI-ITFT
INSTRUMENT: 
COLLISIONENERGY: 30
Comment: registered in MassBank
Num Peaks: 7
339.35999	31
402.81	42
485.51999	14
736.46002	14
738.45001	8
744.78998	28
745.40002	1000

NAME: Sphingomyelin d18
PRECURSORMZ: 819.696063
PRECURSORTYPE: [M+CH3COO]-
FORMULA: C45H93N2O6P
Ontology: Phosphosphingolipids
INCHIKEY: FONAXCRWZQFJHY-GWRSVMHXSA-N
SMILES: CCCCCCCCCCCCCCCCCCCCCC(O)=N[C@H](COP([O-])(=O)OCC[N+](C)(C)C)[C@@H](O)CCCCCCCCCCCCCCC
RETENTIONTIME: 
CCS: -1
IONMODE: Negative
INSTRUMENTTYPE: LC-ESI-ITFT
INSTRUMENT: 
COLLISIONENERGY: 30
Comment: registered in MassBank
Num Peaks: 6
301.03	16
755.90997	10
771.29999	7
773.44	1000
788.46997	7
830.26001	13

NAME: Sphingomyelin d18
PRECURSORMZ: 833.711714
PRECURSORTYPE: [M+CH3COO]-
FORMULA: C46H95N2O6P
Ontology: Phosphosphingolipids
INCHIKEY: CRPAVAKPGRALOU-UVTBUIGASA-N
SMILES: CCCCCCCCCCCCCCCCCCCCCCC(O)=N[C@H](COP([O-])(=O)OCC[N+](C)(C)C)[C@@H](O)CCCCCCCCCCCCCCC
RETENTIONTIME: 
CCS: -1
IONMODE: Negative
INSTRUMENTTYPE: LC-ESI-ITFT
INSTRUMENT: 
COLLISIONENERGY: 30
Comment: registered in MassBank
Num Peaks: 5
447.35999	128
520.96997	53
774.98999	19
787.45001	1000
842.95001	47

NAME: Sphingomyelin d18
PRECURSORMZ: 845.711714
PRECURSORTYPE: [M+CH3COO]-
FORMULA: C47H95N2O6P
Ontology: Phosphosphingolipids
INCHIKEY: UFBQIFQQHQOQTC-AKCDXHNVSA-N
SMILES: CCCCCCCCCCCCCCCCCCC\C=C/CCC(O)=N[C@H](COP([O-])(=O)OCC[N+](C)(C)C)[C@@H](O)CCCCCCCCCCCCCCC
RETENTIONTIME: 
CCS: -1
IONMODE: Negative
INSTRUMENTTYPE: LC-ESI-ITFT
INSTRUMENT: 
COLLISIONENERGY: 30
Comment: registered in MassBank
Num Peaks: 1
799.46997	1000

NAME: Sphingomyelin d18
PRECURSORMZ: 733.586513
PRECURSORTYPE: [M+CH3COO]-
FORMULA: C39H79N2O6P
Ontology: Phosphosphingolipids
INCHIKEY: RWKUXQNLWDTSLO-KHDLYOHESA-N
SMILES: CCCCCCCCCCCCCCCC(O)=N[C@H](COP([O-])(=O)OCC[N+](C)(C)C)[C@@H](O)\C=C\CCCCCCCCCCCCC
RETENTIONTIME: 
CCS: -1
IONMODE: Negative
INSTRUMENTTYPE: LC-ESI-ITFT
INSTRUMENT: 
COLLISIONENERGY: 30
Comment: registered in MassBank
Num Peaks: 3
327.14999	6
687.31	1000
702.21002	7

NAME: Sphingomyelin d18
PRECURSORMZ: 747.602163
PRECURSORTYPE: [M+CH3COO]-
FORMULA: C40H81N2O6P
Ontology: Phosphosphingolipids
INCHIKEY: YMQZQHIESOAPQH-QSTWNKESSA-N
SMILES: CCCCCCCCCCCCCCCCC(O)=N[C@H](COP([O-])(=O)OCC[N+](C)(C)C)[C@@H](O)\C=C\CCCCCCCCCCCCC
RETENTIONTIME: 
CCS: -1
IONMODE: Negative
INSTRUMENTTYPE: LC-ESI-ITFT
INSTRUMENT: 
COLLISIONENERGY: 30
Comment: registered in MassBank
Num Peaks: 9
309.54999	37
329.20001	50
330.44	34
462.51999	21
464.20001	158
466.20001	27
693.22998	23
701.34998	1000
716.60999	18

NAME: Sphingomyelin d18
PRECURSORMZ: 761.617813
PRECURSORTYPE: [M+CH3COO]-
FORMULA: C41H83N2O6P
Ontology: Phosphosphingolipids
INCHIKEY: LKQLRGMMMAHREN-GDBDMVKWSA-N
SMILES: CCCCCCCCCCCCCCCCCC(O)=N[C@H](COP([O-])(=O)OCC[N+](C)(C)C)[C@@H](O)\C=C\CCCCCCCCCCCCC
RETENTIONTIME: 
CCS: -1
IONMODE: Negative
INSTRUMENTTYPE: LC-ESI-ITFT
INSTRUMENT: 
COLLISIONENERGY: 30
Comment: registered in MassBank
Num Peaks: 5
283.29999	19
327.14999	7
480.16	6
701.96997	10
715.39001	1000

NAME: Sphingomyelin d18
PRECURSORMZ: 775.633463
PRECURSORTYPE: [M+CH3COO]-
FORMULA: C42H85N2O6P
Ontology: Phosphosphingolipids
INCHIKEY: HAFQHLHNPJDAGB-NHBQNDNNSA-N
SMILES: CCCCCCCCCCCCCCCCCCC(O)=N[C@H](COP([O-])(=O)OCC[N+](C)(C)C)[C@@H](O)\C=C\CCCCCCCCCCCCC
RETENTIONTIME: 
CCS: -1
IONMODE: Negative
INSTRUMENTTYPE: LC-ESI-ITFT
INSTRUMENT: 
COLLISIONENERGY: 30
Comment: registered in MassBank
Num Peaks: 9
305.20999	22
311.32001	23
638.51001	58
640.39001	19
712.71997	11
722.35999	19
727.64001	16
729.23999	1000
744.16998	12

NAME: Sphingomyelin d18
PRECURSORMZ: 789.649113
PRECURSORTYPE: [M+CH3COO]-
FORMULA: C43H87N2O6P
Ontology: Phosphosphingolipids
INCHIKEY: AADLTHQNYQJHQV-XACAWUTQSA-N
SMILES: CCCCCCCCCCCCCCCCCCCC(O)=N[C@H](COP([O-])(=O)OCC[N+](C)(C)C)[C@@H](O)\C=C\CCCCCCCCCCCCC
RETENTIONTIME: 
CCS: -1
IONMODE: Negative
INSTRUMENTTYPE: LC-ESI-ITFT
INSTRUMENT: 
COLLISIONENERGY: 30
Comment: registered in MassBank
Num Peaks: 2
743.32001	1000
758.25	7

NAME: Sphingomyelin d18
PRECURSORMZ: 817.680413
PRECURSORTYPE: [M+CH3COO]-
FORMULA: C45H91N2O6P
Ontology: Phosphosphingolipids
INCHIKEY: FJJANLYCZUNFSE-QVMKKYBKSA-N
SMILES: CCCCCCCCCCCCCCCCCCCCCC(O)=N[C@H](COP([O-])(=O)OCC[N+](C)(C)C)[C@@H](O)\C=C\CCCCCCCCCCCCC
RETENTIONTIME: 
CCS: -1
IONMODE: Negative
INSTRUMENTTYPE: LC-ESI-ITFT
INSTRUMENT: 
COLLISIONENERGY: 30
Comment: registered in MassBank
Num Peaks: 2
771.35999	1000
786.25	8

NAME: Sphingomyelin d18
PRECURSORMZ: 815.664763
PRECURSORTYPE: [M+CH3COO]-
FORMULA: C45H89N2O6P
Ontology: Phosphosphingolipids
INCHIKEY: OLJJWQULRPCSST-QMQRQSDPSA-N
SMILES: CCCCCCCCCCCCCCCCC\C=C/CCC(O)=N[C@H](COP([O-])(=O)OCC[N+](C)(C)C)[C@@H](O)\C=C\CCCCCCCCCCCCC
RETENTIONTIME: 
CCS: -1
IONMODE: Negative
INSTRUMENTTYPE: LC-ESI-ITFT
INSTRUMENT: 
COLLISIONENERGY: 30
Comment: registered in MassBank
Num Peaks: 2
724.27002	7
769.38	1000

NAME: Sphingomyelin d18
PRECURSORMZ: 831.696063
PRECURSORTYPE: [M+CH3COO]-
FORMULA: C46H93N2O6P
Ontology: Phosphosphingolipids
INCHIKEY: SXZWBNWTCVLZJN-ZIHSGIAZSA-N
SMILES: CCCCCCCCCCCCCCCCCCCCCCC(O)=N[C@H](COP([O-])(=O)OCC[N+](C)(C)C)[C@@H](O)\C=C\CCCCCCCCCCCCC
RETENTIONTIME: 
CCS: -1
IONMODE: Negative
INSTRUMENTTYPE: LC-ESI-ITFT
INSTRUMENT: 
COLLISIONENERGY: 30
Comment: registered in MassBank
Num Peaks: 1
785.33002	1000

NAME: Sphingomyelin d18
PRECURSORMZ: 829.680413
PRECURSORTYPE: [M+CH3COO]-
FORMULA: C46H91N2O6P
Ontology: Phosphosphingolipids
INCHIKEY: DAOFAZSSTHCXTO-LTEWMCMPSA-N
SMILES: CCCCCCCCCCCCCCCCCC\C=C/CCC(O)=N[C@H](COP([O-])(=O)OCC[N+](C)(C)C)[C@@H](O)\C=C\CCCCCCCCCCCCC
RETENTIONTIME: 
CCS: -1
IONMODE: Negative
INSTRUMENTTYPE: LC-ESI-ITFT
INSTRUMENT: 
COLLISIONENERGY: 30
Comment: registered in MassBank
Num Peaks: 8
419.28	14
420.25	25
772.26001	9
775.44	33
783.33002	1000
787.88	17
798.35999	41
807.03998	7

NAME: Sphingomyelin d18
PRECURSORMZ: 843.696063
PRECURSORTYPE: [M+CH3COO]-
FORMULA: C47H93N2O6P
Ontology: Phosphosphingolipids
INCHIKEY: RKEMFFRZTRUUOF-UQSBNWTPSA-N
SMILES: CCCCCCCCCCCCCCCCCCC\C=C/CCC(O)=N[C@H](COP([O-])(=O)OCC[N+](C)(C)C)[C@@H](O)\C=C\CCCCCCCCCCCCC
RETENTIONTIME: 
CCS: -1
IONMODE: Negative
INSTRUMENTTYPE: LC-ESI-ITFT
INSTRUMENT: 
COLLISIONENERGY: 30
Comment: registered in MassBank
Num Peaks: 2
797.42999	1000
812.32001	19

NAME: Sphingomyelin d18
PRECURSORMZ: 731.570863
PRECURSORTYPE: [M+CH3COO]-
FORMULA: C39H77N2O6P
Ontology: Phosphosphingolipids
INCHIKEY: RYPRHPLEPBYJJE-SFDSNHFWSA-N
SMILES: CCCCCCCCCCCCCCCC(O)=N[C@H](COP([O-])(=O)OCC[N+](C)(C)C)[C@@H](O)\C=C\CC\C=C\CCCCCCCCC
RETENTIONTIME: 
CCS: -1
IONMODE: Negative
INSTRUMENTTYPE: LC-ESI-ITFT
INSTRUMENT: 
COLLISIONENERGY: 30
Comment: registered in MassBank
Num Peaks: 11
252.97	14
279.04999	47
325.10999	8
327.17999	29
450.23999	21
469.79001	9
672.35999	11
685.35999	1000
701.22998	9
714.52002	15
738.82001	13

NAME: Sphingomyelin d18
PRECURSORMZ: 815.664763
PRECURSORTYPE: [M+CH3COO]-
FORMULA: C45H89N2O6P
Ontology: Phosphosphingolipids
INCHIKEY: UCLWWTCDZKLHGY-HHQXBTLRSA-N
SMILES: CCCCCCCCCCCCCCCCCCCCCC(O)=N[C@H](COP([O-])(=O)OCC[N+](C)(C)C)[C@@H](O)\C=C\CC\C=C\CCCCCCCCC
RETENTIONTIME: 
CCS: -1
IONMODE: Negative
INSTRUMENTTYPE: LC-ESI-ITFT
INSTRUMENT: 
COLLISIONENERGY: 30
Comment: registered in MassBank
Num Peaks: 3
724.64001	11
762.09003	6
769.46002	1000

NAME: Sphingomyelin d18
PRECURSORMZ: 829.680413
PRECURSORTYPE: [M+CH3COO]-
FORMULA: C46H91N2O6P
Ontology: Phosphosphingolipids
INCHIKEY: PENYJGUXTJATDH-FKOSZORSSA-N
SMILES: CCCCCCCCCCCCCCCCCCCCCCC(O)=N[C@H](COP([O-])(=O)OCC[N+](C)(C)C)[C@@H](O)\C=C\CC\C=C\CCCCCCCCC
RETENTIONTIME: 
CCS: -1
IONMODE: Negative
INSTRUMENTTYPE: LC-ESI-ITFT
INSTRUMENT: 
COLLISIONENERGY: 30
Comment: registered in MassBank
Num Peaks: 17
283.17999	57
284.07999	78
327.20999	38
419.20999	36
531.31	11
547.13	44
568.46997	11
590.94	27
710.21997	27
772.28003	27
775.17999	74
783.40997	1000
796.95001	76
797.65997	92
798.44	23
800.22998	23
813.16998	13

NAME: Phosphatidylcholine 14
PRECURSORMZ: 736.549793
PRECURSORTYPE: [M+CH3COO]-
FORMULA: C38H76NO8P
Ontology: Phosphatidylcholines
INCHIKEY: RFVFQQWKPSOBED-UHFFFAOYNA-N
SMILES: CCCCCCCCCCCCCCCC(=O)OC(COC(=O)CCCCCCCCCCCCC)COP([O-])(=O)OCC[N+](C)(C)C
RETENTIONTIME: 
CCS: -1
IONMODE: Negative
INSTRUMENTTYPE: LC-ESI-ITFT
INSTRUMENT: 
COLLISIONENERGY: 30
Comment: registered in MassBank
Num Peaks: 10
255.05	6
259.23999	8
281.16	88
282.10999	6
303.07001	159
304.20001	21
478.25	44
479.10001	8
690.14001	1000
705.16998	9

NAME: Phosphatidylcholine 14
PRECURSORMZ: 784.549793
PRECURSORTYPE: [M+CH3COO]-
FORMULA: C42H76NO8P
Ontology: Phosphatidylcholines
INCHIKEY: LTAXKUDPWVWJJR-VONYRGFMNA-N
SMILES: CCCCCCCCCCCCCC(=O)OCC(COP([O-])(=O)OCC[N+](C)(C)C)OC(=O)CC\C=C/C\C=C/C\C=C/C\C=C/CCCCCC
RETENTIONTIME: 
CCS: -1
IONMODE: Negative
INSTRUMENTTYPE: LC-ESI-ITFT
INSTRUMENT: 
COLLISIONENERGY: 30
Comment: registered in MassBank
Num Peaks: 9
502.37	63
698.75	22
734.44	11
737.95001	1000
738.79999	110
752.71997	30
768.37	22
769.42999	60
783.79999	52

NAME: Phosphatidylcholine 14
PRECURSORMZ: 820.643694
PRECURSORTYPE: [M+CH3COO]-
FORMULA: C44H88NO8P
Ontology: Phosphatidylcholines
INCHIKEY: KNQNJCODLDRFSM-UHFFFAOYNA-N
SMILES: CCCCCCCCCCCCCCCCCCCCCC(=O)OC(COC(=O)CCCCCCCCCCCCC)COP([O-])(=O)OCC[N+](C)(C)C
RETENTIONTIME: 
CCS: -1
IONMODE: Negative
INSTRUMENTTYPE: LC-ESI-ITFT
INSTRUMENT: 
COLLISIONENERGY: 30
Comment: registered in MassBank
Num Peaks: 6
369.22	14
632.12	25
771.31	7
774.15997	98
812.15002	1000
813.13	46

NAME: Phosphatidylcholine 15
PRECURSORMZ: 798.565443
PRECURSORTYPE: [M+CH3COO]-
FORMULA: C43H78NO8P
Ontology: Phosphatidylcholines
INCHIKEY: CLOJCJSOXWBGTM-BSBLZQCJNA-N
SMILES: CCCCCCCCCCCCCCC(=O)OCC(COP([O-])(=O)OCC[N+](C)(C)C)OC(=O)CC\C=C/C\C=C/C\C=C/C\C=C/CCCCCC
RETENTIONTIME: 
CCS: -1
IONMODE: Negative
INSTRUMENTTYPE: LC-ESI-ITFT
INSTRUMENT: 
COLLISIONENERGY: 30
Comment: registered in MassBank
Num Peaks: 7
401.35001	20
457.60999	40
652.15002	26
752.12	1000
753.04999	87
766.90997	55
769.40002	20

NAME: Phosphatidylcholine 16
PRECURSORMZ: 750.565443
PRECURSORTYPE: [M+CH3COO]-
FORMULA: C39H78NO8P
Ontology: Phosphatidylcholines
INCHIKEY: NPGWXTIWUUFYAB-UHFFFAOYNA-N
SMILES: CCCCCCCCCCCCCCCC(=O)OCC(COP([O-])(=O)OCC[N+](C)(C)C)OC(=O)CCCCCCCCCCCCCC
RETENTIONTIME: 
CCS: -1
IONMODE: Negative
INSTRUMENTTYPE: LC-ESI-ITFT
INSTRUMENT: 
COLLISIONENERGY: 30
Comment: registered in MassBank
Num Peaks: 7
329.19	8
330.14999	8
369.87	9
465.17999	8
704.06	1000
718.51001	8
719.12	11

NAME: Phosphatidylcholine 16
PRECURSORMZ: 764.581093
PRECURSORTYPE: [M+CH3COO]-
FORMULA: C40H80NO8P
Ontology: Phosphatidylcholines
INCHIKEY: KILNVBDSWZSGLL-UHFFFAOYNA-N
SMILES: CCCCCCCCCCCCCCCC(=O)OCC(COP([O-])(=O)OCC[N+](C)(C)C)OC(=O)CCCCCCCCCCCCCCC
RETENTIONTIME: 
CCS: -1
IONMODE: Negative
INSTRUMENTTYPE: LC-ESI-ITFT
INSTRUMENT: 
COLLISIONENERGY: 30
Comment: registered in MassBank
Num Peaks: 3
255.06	8
718.15002	1000
733.06	6

NAME: Phosphatidylcholine 16
PRECURSORMZ: 792.612393
PRECURSORTYPE: [M+CH3COO]-
FORMULA: C42H84NO8P
Ontology: Phosphatidylcholines
INCHIKEY: PZNPLUBHRSSFHT-UHFFFAOYNA-N
SMILES: CCCCCCCCCCCCCCCCCC(=O)OC(COC(=O)CCCCCCCCCCCCCCC)COP([O-])(=O)OCC[N+](C)(C)C
RETENTIONTIME: 
CCS: -1
IONMODE: Negative
INSTRUMENTTYPE: LC-ESI-ITFT
INSTRUMENT: 
COLLISIONENERGY: 30
Comment: registered in MassBank
Num Peaks: 1
746.13	1000

NAME: Phosphatidylcholine 16
PRECURSORMZ: 790.596743
PRECURSORTYPE: [M+CH3COO]-
FORMULA: C42H82NO8P
Ontology: Phosphatidylcholines
INCHIKEY: QPHGOXQEXDWRIB-YCNYHXFENA-N
SMILES: CCCCCCCCCCCCCCCC(=O)OCC(COP([O-])(=O)OCC[N+](C)(C)C)OC(=O)CC\C=C/CCCCCCCCCCCCC
RETENTIONTIME: 
CCS: -1
IONMODE: Negative
INSTRUMENTTYPE: LC-ESI-ITFT
INSTRUMENT: 
COLLISIONENERGY: 30
Comment: registered in MassBank
Num Peaks: 2
281.14999	7
744.10999	1000

NAME: Phosphatidylcholine 16
PRECURSORMZ: 788.581093
PRECURSORTYPE: [M+CH3COO]-
FORMULA: C42H80NO8P
Ontology: Phosphatidylcholines
INCHIKEY: PWJTWIQVMHNOLN-WGPKDLKGNA-N
SMILES: CCCCCCCCCCCCCCCC(=O)OCC(COP([O-])(=O)OCC[N+](C)(C)C)OC(=O)CC\C=C/C\C=C/CCCCCCCCCC
RETENTIONTIME: 
CCS: -1
IONMODE: Negative
INSTRUMENTTYPE: LC-ESI-ITFT
INSTRUMENT: 
COLLISIONENERGY: 30
Comment: registered in MassBank
Num Peaks: 2
255.12	5
742.07001	1000

NAME: Phosphatidylcholine 16
PRECURSORMZ: 786.565443
PRECURSORTYPE: [M+CH3COO]-
FORMULA: C42H78NO8P
Ontology: Phosphatidylcholines
INCHIKEY: LTFQLMSVQQIRBG-YOKRUPNWNA-N
SMILES: CCCCCCCCCCCCCCCC(=O)OCC(COP([O-])(=O)OCC[N+](C)(C)C)OC(=O)CC\C=C/C\C=C/C\C=C/CCCCCCC
RETENTIONTIME: 
CCS: -1
IONMODE: Negative
INSTRUMENTTYPE: LC-ESI-ITFT
INSTRUMENT: 
COLLISIONENERGY: 30
Comment: registered in MassBank
Num Peaks: 11
259.07999	155
303.03	475
304.07999	202
307.01001	25
309.38	29
331.17001	298
332.17001	29
527.92999	210
728.09998	25
739.95001	1000
751.10999	38

NAME: Phosphatidylcholine 16
PRECURSORMZ: 814.596743
PRECURSORTYPE: [M+CH3COO]-
FORMULA: C44H82NO8P
Ontology: Phosphatidylcholines
INCHIKEY: XWDUIGPTBYOBBP-BQYMPCJENA-N
SMILES: CCCCCCCCCCCCCCCC(=O)OCC(COP([O-])(=O)OCC[N+](C)(C)C)OC(=O)CC\C=C/C\C=C/C\C=C/CCCCCCCCC
RETENTIONTIME: 
CCS: -1
IONMODE: Negative
INSTRUMENTTYPE: LC-ESI-ITFT
INSTRUMENT: 
COLLISIONENERGY: 30
Comment: registered in MassBank
Num Peaks: 3
304.92999	10
768.15997	1000
782.90997	5

NAME: Phosphatidylcholine 16
PRECURSORMZ: 812.581093
PRECURSORTYPE: [M+CH3COO]-
FORMULA: C44H80NO8P
Ontology: Phosphatidylcholines
INCHIKEY: YRCYEVIWNSLKRF-RZUUUYDYNA-N
SMILES: CCCCCCCCCCCCCCCC(=O)OCC(COP([O-])(=O)OCC[N+](C)(C)C)OC(=O)CC\C=C/C\C=C/C\C=C/C\C=C/CCCCCC
RETENTIONTIME: 
CCS: -1
IONMODE: Negative
INSTRUMENTTYPE: LC-ESI-ITFT
INSTRUMENT: 
COLLISIONENERGY: 30
Comment: registered in MassBank
Num Peaks: 2
766.10999	1000
781.06	6

NAME: Phosphatidylcholine 16
PRECURSORMZ: 810.565443
PRECURSORTYPE: [M+CH3COO]-
FORMULA: C44H78NO8P
Ontology: Phosphatidylcholines
INCHIKEY: RKFHFBWDNSYADY-SNIIIARXNA-N
SMILES: CCCCCCCCCCCCCCCC(=O)OCC(COP([O-])(=O)OCC[N+](C)(C)C)OC(=O)CC\C=C/C\C=C/C\C=C/C\C=C/C\C=C/CCC
RETENTIONTIME: 
CCS: -1
IONMODE: Negative
INSTRUMENTTYPE: LC-ESI-ITFT
INSTRUMENT: 
COLLISIONENERGY: 30
Comment: registered in MassBank
Num Peaks: 28
248.78	13
265.26999	15
278.92999	13
283.13	699
287.32001	45
301.29999	23
303.25	41
309.14001	9
313.60001	17
327.06	1000
328.14999	119
330.47	32
331.12	939
332.03	121
354.97	29
437.35999	8
466.79001	7
510.20001	13
523.97998	113
528.03003	487
528.94	85
553	11
629.34998	12
686.52002	9
730.87	16
736.58002	8
751.53998	11
764.06	561

NAME: Phosphatidylcholine 16
PRECURSORMZ: 840.612393
PRECURSORTYPE: [M+CH3COO]-
FORMULA: C46H84NO8P
Ontology: Phosphatidylcholines
INCHIKEY: WYNABTBZGUFBIR-NRVNBKNNNA-N
SMILES: CCCCCCCCCCCCCCCC(=O)OCC(COP([O-])(=O)OCC[N+](C)(C)C)OC(=O)CC\C=C/C\C=C/C\C=C/C\C=C/CCCCCCCC
RETENTIONTIME: 
CCS: -1
IONMODE: Negative
INSTRUMENTTYPE: LC-ESI-ITFT
INSTRUMENT: 
COLLISIONENERGY: 30
Comment: registered in MassBank
Num Peaks: 5
688.44	16
725.40002	21
730.57001	25
794.09003	1000
808.15002	119

NAME: Phosphatidylcholine 16
PRECURSORMZ: 838.596743
PRECURSORTYPE: [M+CH3COO]-
FORMULA: C46H82NO8P
Ontology: Phosphatidylcholines
INCHIKEY: MWXAIAMSOXOQJK-TZCDOOIHNA-N
SMILES: CCCCCCCCCCCCCCCC(=O)OCC(COP([O-])(=O)OCC[N+](C)(C)C)OC(=O)CC\C=C/C\C=C/C\C=C/C\C=C/C\C=C/CCCCC
RETENTIONTIME: 
CCS: -1
IONMODE: Negative
INSTRUMENTTYPE: LC-ESI-ITFT
INSTRUMENT: 
COLLISIONENERGY: 30
Comment: registered in MassBank
Num Peaks: 6
262.10999	56
303.47	48
419.03	28
540.70001	16
792.10999	1000
848.26001	141

NAME: Phosphatidylcholine 16
PRECURSORMZ: 836.581093
PRECURSORTYPE: [M+CH3COO]-
FORMULA: C46H80NO8P
Ontology: Phosphatidylcholines
INCHIKEY: IESVDEZGAHUQJU-SYGPSSPWNA-N
SMILES: CCCCCCCCCCCCCCCC(=O)OCC(COP([O-])(=O)OCC[N+](C)(C)C)OC(=O)CC\C=C/C\C=C/C\C=C/C\C=C/C\C=C/C\C=C/CC
RETENTIONTIME: 
CCS: -1
IONMODE: Negative
INSTRUMENTTYPE: LC-ESI-ITFT
INSTRUMENT: 
COLLISIONENERGY: 30
Comment: registered in MassBank
Num Peaks: 3
790.07001	1000
790.78003	6
805.15997	6

NAME: Phosphatidylcholine 16
PRECURSORMZ: 788.581093
PRECURSORTYPE: [M+CH3COO]-
FORMULA: C42H80NO8P
Ontology: Phosphatidylcholines
INCHIKEY: QNRBHVUJSHOYGI-BRMDCIMDNA-N
SMILES: CCCCCCCCCCCCC\C=C/CCC(=O)OC(COC(=O)CC\C=C/CCCCCCCCCCC)COP([O-])(=O)OCC[N+](C)(C)C
RETENTIONTIME: 
CCS: -1
IONMODE: Negative
INSTRUMENTTYPE: LC-ESI-ITFT
INSTRUMENT: 
COLLISIONENERGY: 30
Comment: registered in MassBank
Num Peaks: 7
253.09	7
281.17001	9
742.16998	1000
743.12	6
757.12	10
766.08002	417
767.12	9

NAME: Phosphatidylcholine 16
PRECURSORMZ: 786.565443
PRECURSORTYPE: [M+CH3COO]-
FORMULA: C42H78NO8P
Ontology: Phosphatidylcholines
INCHIKEY: XSSJXFBQZLYYFK-TVGXXSNYNA-N
SMILES: CCCCCCCCCCC\C=C/CCC(=O)OCC(COP([O-])(=O)OCC[N+](C)(C)C)OC(=O)CC\C=C/C\C=C/CCCCCCCCCC
RETENTIONTIME: 
CCS: -1
IONMODE: Negative
INSTRUMENTTYPE: LC-ESI-ITFT
INSTRUMENT: 
COLLISIONENERGY: 30
Comment: registered in MassBank
Num Peaks: 19
283.34	64
305.09	103
306.28	12
307.25	10
327.28	97
328.41	21
498.14999	17
502.16	47
503.06	109
524.19	12
608.23999	17
652.72998	10
670.58002	34
706.08002	16
727.21002	84
740.09998	1000
741.02002	10
754.45001	76
757.54999	7

NAME: Phosphatidylcholine 16
PRECURSORMZ: 810.565443
PRECURSORTYPE: [M+CH3COO]-
FORMULA: C44H78NO8P
Ontology: Phosphatidylcholines
INCHIKEY: QSBABJGBCMSZOL-RNVRRVRJNA-N
SMILES: CCCCCCCCCCC\C=C/CCC(=O)OCC(COP([O-])(=O)OCC[N+](C)(C)C)OC(=O)CC\C=C/C\C=C/C\C=C/C\C=C/CCCCCC
RETENTIONTIME: 
CCS: -1
IONMODE: Negative
INSTRUMENTTYPE: LC-ESI-ITFT
INSTRUMENT: 
COLLISIONENERGY: 30
Comment: registered in MassBank
Num Peaks: 8
253.41	19
325.47	13
730.69	23
751.01001	23
764.19	1000
766.29999	14
779.40002	47
837.72998	10

NAME: Phosphatidylcholine 16
PRECURSORMZ: 834.565443
PRECURSORTYPE: [M+CH3COO]-
FORMULA: C46H78NO8P
Ontology: Phosphatidylcholines
INCHIKEY: ALJYHFIRPGURAF-DACYDXBYNA-N
SMILES: CCCCCCCCCCC\C=C/CCC(=O)OCC(COP([O-])(=O)OCC[N+](C)(C)C)OC(=O)CC\C=C/C\C=C/C\C=C/C\C=C/C\C=C/C\C=C/CC
RETENTIONTIME: 
CCS: -1
IONMODE: Negative
INSTRUMENTTYPE: LC-ESI-ITFT
INSTRUMENT: 
COLLISIONENERGY: 30
Comment: registered in MassBank
Num Peaks: 5
763.95001	39
773.42999	36
788.19	1000
802.26001	48
843.53003	42

NAME: Phosphatidylcholine 17
PRECURSORMZ: 802.596743
PRECURSORTYPE: [M+CH3COO]-
FORMULA: C43H82NO8P
Ontology: Phosphatidylcholines
INCHIKEY: OPXAZFYJOBVDTP-SZDCHMHBNA-N
SMILES: CCCCCCCCCCCCC\C=C/CCC(=O)OC(COC(=O)CC\C=C/CCCCCCCCCCCC)COP([O-])(=O)OCC[N+](C)(C)C
RETENTIONTIME: 
CCS: -1
IONMODE: Negative
INSTRUMENTTYPE: LC-ESI-ITFT
INSTRUMENT: 
COLLISIONENERGY: 30
Comment: registered in MassBank
Num Peaks: 7
281.23999	5
743.34003	10
748.03003	1000
749.14001	191
756.25	119
769.41998	7
770.17999	7

NAME: Phosphatidylcholine 18
PRECURSORMZ: 818.628043
PRECURSORTYPE: [M+CH3COO]-
FORMULA: C44H86NO8P
Ontology: Phosphatidylcholines
INCHIKEY: OBRNLVIDOVBLPU-FPODKLOTNA-N
SMILES: CCCCCCCCCCCCCCCCCC(=O)OCC(COP([O-])(=O)OCC[N+](C)(C)C)OC(=O)CC\C=C/CCCCCCCCCCCCC
RETENTIONTIME: 
CCS: -1
IONMODE: Negative
INSTRUMENTTYPE: LC-ESI-ITFT
INSTRUMENT: 
COLLISIONENERGY: 30
Comment: registered in MassBank
Num Peaks: 4
281.06	6
771.71002	86
772.34003	1000
787.10999	6

NAME: Phosphatidylcholine 18
PRECURSORMZ: 816.612393
PRECURSORTYPE: [M+CH3COO]-
FORMULA: C44H84NO8P
Ontology: Phosphatidylcholines
INCHIKEY: BHAATSGDDOXMJD-FOXSRGEXNA-N
SMILES: CCCCCCCCCCCCCCCCCC(=O)OCC(COP([O-])(=O)OCC[N+](C)(C)C)OC(=O)CC\C=C/C\C=C/CCCCCCCCCC
RETENTIONTIME: 
CCS: -1
IONMODE: Negative
INSTRUMENTTYPE: LC-ESI-ITFT
INSTRUMENT: 
COLLISIONENERGY: 30
Comment: registered in MassBank
Num Peaks: 4
279.14001	10
283.23999	6
770.25	1000
785.21002	10

NAME: Phosphatidylcholine 18
PRECURSORMZ: 848.674994
PRECURSORTYPE: [M+CH3COO]-
FORMULA: C46H92NO8P
Ontology: Phosphatidylcholines
INCHIKEY: ZNSGCWMTNLBFEQ-UHFFFAOYNA-N
SMILES: CCCCCCCCCCCCCCCCCCCC(=O)OC(COC(=O)CCCCCCCCCCCCCCCCC)COP([O-])(=O)OCC[N+](C)(C)C
RETENTIONTIME: 
CCS: -1
IONMODE: Negative
INSTRUMENTTYPE: LC-ESI-ITFT
INSTRUMENT: 
COLLISIONENERGY: 30
Comment: registered in MassBank
Num Peaks: 5
647.91998	26
731.19	24
802.20001	1000
814.16998	10
840.47998	16

NAME: Phosphatidylcholine 18
PRECURSORMZ: 844.643694
PRECURSORTYPE: [M+CH3COO]-
FORMULA: C46H88NO8P
Ontology: Phosphatidylcholines
INCHIKEY: QLAPQVPZKNRKSF-ZUOCNPMVNA-N
SMILES: CCCCCCCCCCCCCCCCCC(=O)OCC(COP([O-])(=O)OCC[N+](C)(C)C)OC(=O)CC\C=C/C\C=C/CCCCCCCCCCCC
RETENTIONTIME: 
CCS: -1
IONMODE: Negative
INSTRUMENTTYPE: LC-ESI-ITFT
INSTRUMENT: 
COLLISIONENERGY: 30
Comment: registered in MassBank
Num Peaks: 9
280.98001	16
480.95999	44
503.03	20
518.03003	32
752.53003	40
772.28003	24
774.51001	20
785.39001	63
798.21002	1000

NAME: Phosphatidylcholine 18
PRECURSORMZ: 842.628043
PRECURSORTYPE: [M+CH3COO]-
FORMULA: C46H86NO8P
Ontology: Phosphatidylcholines
INCHIKEY: JKGNHUXTJMEAQU-YDXMYUDNNA-N
SMILES: CCCCCCCCCCCCCCCCCC(=O)OCC(COP([O-])(=O)OCC[N+](C)(C)C)OC(=O)CC\C=C/C\C=C/C\C=C/CCCCCCCCC
RETENTIONTIME: 
CCS: -1
IONMODE: Negative
INSTRUMENTTYPE: LC-ESI-ITFT
INSTRUMENT: 
COLLISIONENERGY: 30
Comment: registered in MassBank
Num Peaks: 8
559.77002	33
589.06	38
726.41998	13
727.33002	38
783.92999	10
796.15997	1000
796.92999	23
834.77002	23

NAME: Phosphatidylcholine 18
PRECURSORMZ: 840.612393
PRECURSORTYPE: [M+CH3COO]-
FORMULA: C46H84NO8P
Ontology: Phosphatidylcholines
INCHIKEY: FALSXTSFRXGEBP-KKHNUOCRNA-N
SMILES: CCCCCCCCCCCCCCCCCC(=O)OCC(COP([O-])(=O)OCC[N+](C)(C)C)OC(=O)CC\C=C/C\C=C/C\C=C/C\C=C/CCCCCC
RETENTIONTIME: 
CCS: -1
IONMODE: Negative
INSTRUMENTTYPE: LC-ESI-ITFT
INSTRUMENT: 
COLLISIONENERGY: 30
Comment: registered in MassBank
Num Peaks: 3
508.07001	6
794.19	1000
808.85999	5

NAME: Phosphatidylcholine 18
PRECURSORMZ: 868.643694
PRECURSORTYPE: [M+CH3COO]-
FORMULA: C48H88NO8P
Ontology: Phosphatidylcholines
INCHIKEY: FNYFFQAOWZRPMR-TZYRSRCUNA-N
SMILES: CCCCCCCCCCCCCCCCCC(=O)OCC(COP([O-])(=O)OCC[N+](C)(C)C)OC(=O)CC\C=C/C\C=C/C\C=C/C\C=C/CCCCCCCC
RETENTIONTIME: 
CCS: -1
IONMODE: Negative
INSTRUMENTTYPE: LC-ESI-ITFT
INSTRUMENT: 
COLLISIONENERGY: 30
Comment: registered in MassBank
Num Peaks: 17
338.29999	37
503.22	15
505.25	37
525.26001	22
541.27002	15
557.94	110
568.09003	30
586.42999	19
587.21997	17
622.15997	84
777.28998	15
783.14001	26
810.94	13
822.16998	1000
836.41998	48
837.46997	17
878.06	11

NAME: Phosphatidylcholine 18
PRECURSORMZ: 864.612393
PRECURSORTYPE: [M+CH3COO]-
FORMULA: C48H84NO8P
Ontology: Phosphatidylcholines
INCHIKEY: FAUYAENFVCNTAL-UFTZFNJNNA-N
SMILES: CCCCCCCCCCCCCCCCCC(=O)OCC(COP([O-])(=O)OCC[N+](C)(C)C)OC(=O)CC\C=C/C\C=C/C\C=C/C\C=C/C\C=C/C\C=C/CC
RETENTIONTIME: 
CCS: -1
IONMODE: Negative
INSTRUMENTTYPE: LC-ESI-ITFT
INSTRUMENT: 
COLLISIONENERGY: 30
Comment: registered in MassBank
Num Peaks: 4
283.26999	8
326.79001	6
818.13	1000
818.85999	6

NAME: Phosphatidylcholine 18
PRECURSORMZ: 816.612393
PRECURSORTYPE: [M+CH3COO]-
FORMULA: C44H84NO8P
Ontology: Phosphatidylcholines
INCHIKEY: CTNCUXPCGXYRIB-UOALMSBLNA-N
SMILES: CCCCCCCCCCCCC\C=C/CCC(=O)OCC(COP([O-])(=O)OCC[N+](C)(C)C)OC(=O)CC\C=C/CCCCCCCCCCCCC
RETENTIONTIME: 
CCS: -1
IONMODE: Negative
INSTRUMENTTYPE: LC-ESI-ITFT
INSTRUMENT: 
COLLISIONENERGY: 30
Comment: registered in MassBank
Num Peaks: 3
281.17001	7
770.17999	1000
784.96002	6

NAME: Phosphatidylcholine 18
PRECURSORMZ: 814.596743
PRECURSORTYPE: [M+CH3COO]-
FORMULA: C44H82NO8P
Ontology: Phosphatidylcholines
INCHIKEY: HZHAEVXGLQPJBM-KJZSVCAKNA-N
SMILES: CCCCCCCCCCCCC\C=C/CCC(=O)OCC(COP([O-])(=O)OCC[N+](C)(C)C)OC(=O)CC\C=C/C\C=C/CCCCCCCCCC
RETENTIONTIME: 
CCS: -1
IONMODE: Negative
INSTRUMENTTYPE: LC-ESI-ITFT
INSTRUMENT: 
COLLISIONENERGY: 30
Comment: registered in MassBank
Num Peaks: 3
768.16998	1000
783.10999	6
792.15002	20

NAME: Phosphatidylcholine 18
PRECURSORMZ: 792.554879
PRECURSORTYPE: [M-CH3]-
FORMULA: C46H82NO8P
Ontology: Phosphatidylcholines
INCHIKEY: HYDKDXOLAXLJKA-ICTLDNOWNA-N
SMILES: CCCCCCCCCCCCC\C=C/CCC(=O)OCC(COP([O-])(=O)OCC[N+](C)(C)C)OC(=O)CC\C=C/C\C=C/C\C=C/C\C=C/CCCCCC
RETENTIONTIME: 
CCS: -1
IONMODE: Negative
INSTRUMENTTYPE: LC-ESI-ITFT
INSTRUMENT: 
COLLISIONENERGY: 30
Comment: registered in MassBank
Num Peaks: 7
259.26999	7
267.01999	9
281.09	464
301.12	16
303.10001	1000
506.10999	341
509.70999	33

NAME: Phosphatidylcholine 18
PRECURSORMZ: 874.690644
PRECURSORTYPE: [M+CH3COO]-
FORMULA: C48H94NO8P
Ontology: Phosphatidylcholines
INCHIKEY: RNTSLIRAJXVPLB-ZSWXBHCYNA-N
SMILES: CCCCCCCCCCCCCCCCCCCCCC(=O)OC(COC(=O)CC\C=C/CCCCCCCCCCCCC)COP([O-])(=O)OCC[N+](C)(C)C
RETENTIONTIME: 
CCS: -1
IONMODE: Negative
INSTRUMENTTYPE: LC-ESI-ITFT
INSTRUMENT: 
COLLISIONENERGY: 30
Comment: registered in MassBank
Num Peaks: 4
731.27002	14
815.01001	28
828.32001	1000
843.56	19

NAME: Phosphatidylcholine 18
PRECURSORMZ: 872.674994
PRECURSORTYPE: [M+CH3COO]-
FORMULA: C48H92NO8P
Ontology: Phosphatidylcholines
INCHIKEY: FMJLHUOCIYITDV-IRBDSUPENA-N
SMILES: CCCCCCCCCCCCCCCCC\C=C/CCC(=O)OC(COC(=O)CC\C=C/CCCCCCCCCCCCC)COP([O-])(=O)OCC[N+](C)(C)C
RETENTIONTIME: 
CCS: -1
IONMODE: Negative
INSTRUMENTTYPE: LC-ESI-ITFT
INSTRUMENT: 
COLLISIONENERGY: 30
Comment: registered in MassBank
Num Peaks: 4
337.04999	9
781.40997	14
826.21002	1000
880.14001	38

NAME: Phosphatidylcholine 18
PRECURSORMZ: 862.596743
PRECURSORTYPE: [M+CH3COO]-
FORMULA: C48H82NO8P
Ontology: Phosphatidylcholines
INCHIKEY: SXQSZXLPXRGKHG-SUMKQPSKNA-N
SMILES: CCCCCCCCCCCCC\C=C/CCC(=O)OCC(COP([O-])(=O)OCC[N+](C)(C)C)OC(=O)CC\C=C/C\C=C/C\C=C/C\C=C/C\C=C/C\C=C/CC
RETENTIONTIME: 
CCS: -1
IONMODE: Negative
INSTRUMENTTYPE: LC-ESI-ITFT
INSTRUMENT: 
COLLISIONENERGY: 30
Comment: registered in MassBank
Num Peaks: 6
283.28	8
327.10999	25
505.95001	9
816.04999	1000
816.72998	23
890.87	33

NAME: Phosphatidylcholine 18
PRECURSORMZ: 902.721944
PRECURSORTYPE: [M+CH3COO]-
FORMULA: C50H98NO8P
Ontology: Phosphatidylcholines
INCHIKEY: LGOGTXKSCSWTOW-WASYMBJWNA-N
SMILES: CCCCCCCCCCCCCCCCCCCCCCCC(=O)OC(COC(=O)CC\C=C/CCCCCCCCCCCCC)COP([O-])(=O)OCC[N+](C)(C)C
RETENTIONTIME: 
CCS: -1
IONMODE: Negative
INSTRUMENTTYPE: LC-ESI-ITFT
INSTRUMENT: 
COLLISIONENERGY: 30
Comment: registered in MassBank
Num Peaks: 3
605.12	36
856.10999	1000
856.79999	90

NAME: Phosphatidylcholine 18
PRECURSORMZ: 812.581093
PRECURSORTYPE: [M+CH3COO]-
FORMULA: C44H80NO8P
Ontology: Phosphatidylcholines
INCHIKEY: OLFQKGHJXVWQBX-CTKUXNRFNA-N
SMILES: CCCCCCCCCC\C=C/C\C=C/CCC(=O)OCC(COP([O-])(=O)OCC[N+](C)(C)C)OC(=O)CC\C=C/C\C=C/CCCCCCCCCC
RETENTIONTIME: 
CCS: -1
IONMODE: Negative
INSTRUMENTTYPE: LC-ESI-ITFT
INSTRUMENT: 
COLLISIONENERGY: 30
Comment: registered in MassBank
Num Peaks: 5
241.19	15
284.45001	17
766.09998	1000
779.42999	15
790.12	26

NAME: Phosphatidylcholine 20
PRECURSORMZ: 846.659344
PRECURSORTYPE: [M+CH3COO]-
FORMULA: C46H90NO8P
Ontology: Phosphatidylcholines
INCHIKEY: MIVBFINNAAGALQ-OAPYJULQNA-N
SMILES: CCCCCCCCCCCCCCCCCCCC(=O)OCC(COP([O-])(=O)OCC[N+](C)(C)C)OC(=O)CC\C=C/CCCCCCCCCCCCC
RETENTIONTIME: 
CCS: -1
IONMODE: Negative
INSTRUMENTTYPE: LC-ESI-ITFT
INSTRUMENT: 
COLLISIONENERGY: 30
Comment: registered in MassBank
Num Peaks: 8
311.45001	15
784.89001	24
798.28003	24
800.10999	1000
800.77002	14
814.96002	11
832.72998	10
838.10999	36

NAME: Phosphatidylcholine 20
PRECURSORMZ: 890.628043
PRECURSORTYPE: [M+CH3COO]-
FORMULA: C50H86NO8P
Ontology: Phosphatidylcholines
INCHIKEY: NDXZRODTPALTBU-HCJNTHTKNA-N
SMILES: CCCCCCCCCCCCCCC\C=C/CCC(=O)OCC(COP([O-])(=O)OCC[N+](C)(C)C)OC(=O)CC\C=C/C\C=C/C\C=C/C\C=C/C\C=C/C\C=C/CC
RETENTIONTIME: 
CCS: -1
IONMODE: Negative
INSTRUMENTTYPE: LC-ESI-ITFT
INSTRUMENT: 
COLLISIONENERGY: 30
Comment: registered in MassBank
Num Peaks: 9
505.45999	56
632.10999	46
775.31	30
831.10999	66
836.59998	46
842.40997	36
843.59998	117
844.23999	1000
918.66998	36

NAME: Phosphatidylcholine alkenyl 16
PRECURSORMZ: 748.586179
PRECURSORTYPE: [M+CH3COO]-
FORMULA: C40H80NO7P
Ontology: 1-(1Z-alkenyl),2-acyl-glycerophosphocholines
INCHIKEY: PEWXKAOBUSBJLD-LVYIWIAJNA-N
SMILES: CCCCCCCCCCCCCCCC(=O)OC(CO\C=C\CCCCCCCCCCCCCC)COP([O-])(=O)OCC[N+](C)(C)C
RETENTIONTIME: 
CCS: -1
IONMODE: Negative
INSTRUMENTTYPE: LC-ESI-ITFT
INSTRUMENT: 
COLLISIONENERGY: 30
Comment: registered in MassBank
Num Peaks: 28
228.97	28
231.11	8
249.13	13
251.03999	17
255.23	9
281.29999	13
283.10001	515
284.22	55
285.16	96
286.32999	10
311.26999	6
327.09	980
328.51001	256
329.13	820
330.20001	70
405.01001	14
446.28	84
448.20001	117
449.29001	13
464.09	469
465.57999	152
466.17999	1000
467.26001	80
688.33002	13
689.17999	12
702.15002	910
732.78998	15
740.03998	7

NAME: Phosphatidylcholine alkenyl 16
PRECURSORMZ: 774.601829
PRECURSORTYPE: [M+CH3COO]-
FORMULA: C42H82NO7P
Ontology: 1-(1Z-alkenyl),2-acyl-glycerophosphocholines
INCHIKEY: BKVSUCOFPMXRFF-ZTIAWKCXNA-N
SMILES: CCCCCCCCCCCCCC\C=C\OCC(COP([O-])(=O)OCC[N+](C)(C)C)OC(=O)CC\C=C/CCCCCCCCCCCCC
RETENTIONTIME: 
CCS: -1
IONMODE: Negative
INSTRUMENTTYPE: LC-ESI-ITFT
INSTRUMENT: 
COLLISIONENERGY: 30
Comment: registered in MassBank
Num Peaks: 9
283.07999	5
308.22	10
419.75	6
596.34003	10
630.92999	8
728.20001	1000
729.06	24
743.03003	9
784.40997	6

NAME: Phosphatidylcholine alkenyl 16
PRECURSORMZ: 796.586179
PRECURSORTYPE: [M+CH3COO]-
FORMULA: C44H80NO7P
Ontology: 1-(1Z-alkenyl),2-acyl-glycerophosphocholines
INCHIKEY: WPFUZBNWEKXHJI-TUJGGYRWNA-N
SMILES: CCCCCCCCCCCCCC\C=C\OCC(COP([O-])(=O)OCC[N+](C)(C)C)OC(=O)CC\C=C/C\C=C/C\C=C/C\C=C/CCCCCC
RETENTIONTIME: 
CCS: -1
IONMODE: Negative
INSTRUMENTTYPE: LC-ESI-ITFT
INSTRUMENT: 
COLLISIONENERGY: 30
Comment: registered in MassBank
Num Peaks: 16
281.07999	6
282.35001	8
284.20001	6
417.04999	24
420.82999	17
538.91998	7
561.45001	6
570.42999	7
726.26001	10
736.96997	14
746.17999	8
750.08002	1000
750.94	37
763.94	12
764.98999	10
766.19	8

NAME: Phosphatidylcholine alkenyl 18
PRECURSORMZ: 802.633129
PRECURSORTYPE: [M+CH3COO]-
FORMULA: C44H86NO7P
Ontology: 1-(1Z-alkenyl),2-acyl-glycerophosphocholines
INCHIKEY: NCPPDZAFHCBJRZ-JRNRGEASNA-N
SMILES: CCCCCCCCCCCCCCCC\C=C\OCC(COP([O-])(=O)OCC[N+](C)(C)C)OC(=O)CC\C=C/CCCCCCCCCCCCC
RETENTIONTIME: 
CCS: -1
IONMODE: Negative
INSTRUMENTTYPE: LC-ESI-ITFT
INSTRUMENT: 
COLLISIONENERGY: 30
Comment: registered in MassBank
Num Peaks: 12
281.20999	5
307.04999	6
443.95999	6
482.25	8
502.04999	7
665.09003	6
719.42999	7
744.06	6
756.15997	1000
757.04999	51
771.07001	5
773.35999	5

NAME: Phosphatidylcholine alkenyl 18
PRECURSORMZ: 800.617479
PRECURSORTYPE: [M+CH3COO]-
FORMULA: C44H84NO7P
Ontology: 1-(1Z-alkenyl),2-acyl-glycerophosphocholines
INCHIKEY: AESCCJYARVQUNT-JFFREXDCNA-N
SMILES: CCCCCCCCCCCCC\C=C/CCC(=O)OC(CO\C=C\C\C=C/CCCCCCCCCCCCC)COP([O-])(=O)OCC[N+](C)(C)C
RETENTIONTIME: 
CCS: -1
IONMODE: Negative
INSTRUMENTTYPE: LC-ESI-ITFT
INSTRUMENT: 
COLLISIONENERGY: 30
Comment: registered in MassBank
Num Peaks: 9
281.26001	19
341.79001	23
591.06	45
715.25	199
716.53003	79
754.17999	1000
755.02002	68
768.88	19
785.15002	83

NAME: Phosphatidylcholine alkyl 16
PRECURSORMZ: 750.601829
PRECURSORTYPE: [M+CH3COO]-
FORMULA: C40H82NO7P
Ontology: 1-alkyl,2-acylglycero-3-phosphocholines
INCHIKEY: WOTHHEHCEYHCFE-UHFFFAOYNA-N
SMILES: CCCCCCCCCCCCCCCCOCC(COP([O-])(=O)OCC[N+](C)(C)C)OC(=O)CCCCCCCCCCCCCCC
RETENTIONTIME: 
CCS: -1
IONMODE: Negative
INSTRUMENTTYPE: LC-ESI-ITFT
INSTRUMENT: 
COLLISIONENERGY: 30
Comment: registered in MassBank
Num Peaks: 15
285.14001	9
286.04001	18
329.04001	84
329.98999	69
331.20999	22
359.13	129
359.97	14
405.32001	8
418.07001	7
436.29001	21
448.42999	6
464.25	20
465.20999	29
466.22	33
704.19	1000

NAME: Phosphatidylcholine alkyl 16
PRECURSORMZ: 776.617479
PRECURSORTYPE: [M+CH3COO]-
FORMULA: C42H84NO7P
Ontology: 1-alkyl,2-acylglycero-3-phosphocholines
INCHIKEY: KFLBTRVMABAQOU-YCNYHXFENA-N
SMILES: CCCCCCCCCCCCCCCCOCC(COP([O-])(=O)OCC[N+](C)(C)C)OC(=O)CC\C=C/CCCCCCCCCCCCC
RETENTIONTIME: 
CCS: -1
IONMODE: Negative
INSTRUMENTTYPE: LC-ESI-ITFT
INSTRUMENT: 
COLLISIONENERGY: 30
Comment: registered in MassBank
Num Peaks: 3
281.20999	7
730.21997	1000
731.20001	9

NAME: Phosphatidylcholine alkyl 16
PRECURSORMZ: 804.648779
PRECURSORTYPE: [M+CH3COO]-
FORMULA: C44H88NO7P
Ontology: 1-alkyl,2-acylglycero-3-phosphocholines
INCHIKEY: ZWYHSOBLODWFSU-FPODKLOTNA-N
SMILES: CCCCCCCCCCCCCCCCOCC(COP([O-])(=O)OCC[N+](C)(C)C)OC(=O)CC\C=C/CCCCCCCCCCCCCCC
RETENTIONTIME: 
CCS: -1
IONMODE: Negative
INSTRUMENTTYPE: LC-ESI-ITFT
INSTRUMENT: 
COLLISIONENERGY: 30
Comment: registered in MassBank
Num Peaks: 9
280.07001	7
281.13	9
325.42001	17
336.85999	6
361.23999	9
742.35999	16
745.71002	24
750.42999	19
758.29999	1000

NAME: Phosphatidylcholine alkyl 16
PRECURSORMZ: 798.601829
PRECURSORTYPE: [M+CH3COO]-
FORMULA: C44H82NO7P
Ontology: 1-alkyl,2-acylglycero-3-phosphocholines
INCHIKEY: MHOAZZSMGQCHNX-GJWWTBRZNA-N
SMILES: CCCCCCCCCCCCCCCCOCC(COP([O-])(=O)OCC[N+](C)(C)C)OC(=O)CC\C=C/C\C=C/C\C=C/C\C=C/CCCCCC
RETENTIONTIME: 
CCS: -1
IONMODE: Negative
INSTRUMENTTYPE: LC-ESI-ITFT
INSTRUMENT: 
COLLISIONENERGY: 30
Comment: registered in MassBank
Num Peaks: 4
752.09998	1000
753.12	43
762.89001	10
782.5	12

NAME: Phosphatidylcholine alkyl 16
PRECURSORMZ: 802.633129
PRECURSORTYPE: [M+CH3COO]-
FORMULA: C44H86NO7P
Ontology: 1-alkyl,2-acylglycero-3-phosphocholines
INCHIKEY: DFWVDDDXFIDKMC-UOALMSBLNA-N
SMILES: CCCCCCCCCCCCCCC\C=C/CCC(=O)OC(COCCC\C=C/CCCCCCCCCCC)COP([O-])(=O)OCC[N+](C)(C)C
RETENTIONTIME: 
CCS: -1
IONMODE: Negative
INSTRUMENTTYPE: LC-ESI-ITFT
INSTRUMENT: 
COLLISIONENERGY: 30
Comment: registered in MassBank
Num Peaks: 12
269.07001	15
300.34	12
309.25	8
351.26999	6
464.32999	19
533.21002	15
756.08002	1000
757.03998	15
770.20001	13
771.46002	12
794.23999	127
795.28003	101

NAME: Phosphatidylcholine alkyl 18
PRECURSORMZ: 778.633129
PRECURSORTYPE: [M+CH3COO]-
FORMULA: C42H86NO7P
Ontology: 1-alkyl,2-acylglycero-3-phosphocholines
INCHIKEY: GTFLTTXDLGEBAI-UHFFFAOYNA-N
SMILES: CCCCCCCCCCCCCCCCCCOCC(COP([O-])(=O)OCC[N+](C)(C)C)OC(=O)CCCCCCCCCCCCCCC
RETENTIONTIME: 
CCS: -1
IONMODE: Negative
INSTRUMENTTYPE: LC-ESI-ITFT
INSTRUMENT: 
COLLISIONENERGY: 30
Comment: registered in MassBank
Num Peaks: 10
267.03	10
315.26999	11
329.92999	5
359.17001	766
360.26999	185
446.20001	33
447.26999	9
464.06	140
465.22	26
732.29999	1000

NAME: Phosphatidylcholine alkyl 18
PRECURSORMZ: 804.648779
PRECURSORTYPE: [M+CH3COO]-
FORMULA: C44H88NO7P
Ontology: 1-alkyl,2-acylglycero-3-phosphocholines
INCHIKEY: NQZXFMSISYRTSE-FPODKLOTNA-N
SMILES: CCCCCCCCCCCCCCCCCCOCC(COP([O-])(=O)OCC[N+](C)(C)C)OC(=O)CC\C=C/CCCCCCCCCCCCC
RETENTIONTIME: 
CCS: -1
IONMODE: Negative
INSTRUMENTTYPE: LC-ESI-ITFT
INSTRUMENT: 
COLLISIONENERGY: 30
Comment: registered in MassBank
Num Peaks: 9
281.22	27
727.84003	13
745.28003	62
746.12	18
750.34998	5
751.13	14
758.20001	1000
758.85999	32
796.09998	8

NAME: Phosphatidylcholine alkyl 18
PRECURSORMZ: 776.617479
PRECURSORTYPE: [M+CH3COO]-
FORMULA: C42H84NO7P
Ontology: 1-alkyl,2-acylglycero-3-phosphocholines
INCHIKEY: ITFYCOXGRQISEW-HYOGKJQXNA-N
SMILES: CCCCCCCCCCCCCCCC(=O)OC(COCCC\C=C/CCCCCCCCCCCCC)COP([O-])(=O)OCC[N+](C)(C)C
RETENTIONTIME: 
CCS: -1
IONMODE: Negative
INSTRUMENTTYPE: LC-ESI-ITFT
INSTRUMENT: 
COLLISIONENERGY: 30
Comment: registered in MassBank
Num Peaks: 1
730.15002	1000

NAME: Phosphatidylcholine alkyl 18
PRECURSORMZ: 774.601829
PRECURSORTYPE: [M+CH3COO]-
FORMULA: C42H82NO7P
Ontology: 1-alkyl,2-acylglycero-3-phosphocholines
INCHIKEY: UWMIPWPMIBUVJV-JSCMVKKRNA-N
SMILES: CCCCCCCCCCCCCCCC(=O)OC(COCCC\C=C/C\C=C/CCCCCCCCCC)COP([O-])(=O)OCC[N+](C)(C)C
RETENTIONTIME: 
CCS: -1
IONMODE: Negative
INSTRUMENTTYPE: LC-ESI-ITFT
INSTRUMENT: 
COLLISIONENERGY: 30
Comment: registered in MassBank
Num Peaks: 5
281.32001	143
639.21997	163
715.70001	102
728.32001	1000
742.45001	143

NAME: Phosphatidylcholine lyso 14
PRECURSORMZ: 498.320128
PRECURSORTYPE: [M+CH3COO]-
FORMULA: C22H46NO7P
Ontology: 2-acyl-sn-glycero-3-phosphocholines
INCHIKEY: IGZPHNNYPPAPLA-UHFFFAOYNA-N
SMILES: CCCCCCCCCCCCCC(=O)OC(CO)COP([O-])(=O)OCC[N+](C)(C)C
RETENTIONTIME: 
CCS: -1
IONMODE: Negative
INSTRUMENTTYPE: LC-ESI-ITFT
INSTRUMENT: 
COLLISIONENERGY: 30
Comment: registered in MassBank
Num Peaks: 21
189.06	6
200.64999	10
214.06	7
223.14999	9
231.49001	6
279.89001	5
284.06	31
285.17001	21
286.01999	9
302.69	48
327.12	5
328.20001	27
329.13	169
330.23001	13
362.98999	10
397.04001	6
444.45999	7
452.01999	1000
452.67001	5
467.54001	8
493.54999	8

NAME: Phosphatidylcholine lyso 16
PRECURSORMZ: 526.351428
PRECURSORTYPE: [M+CH3COO]-
FORMULA: C24H50NO7P
Ontology: 2-acyl-sn-glycero-3-phosphocholines
INCHIKEY: NEGQHKSYEYVFTD-UHFFFAOYNA-N
SMILES: CCCCCCCCCCCCCCCC(=O)OC(CO)COP([O-])(=O)OCC[N+](C)(C)C
RETENTIONTIME: 
CCS: -1
IONMODE: Negative
INSTRUMENTTYPE: LC-ESI-ITFT
INSTRUMENT: 
COLLISIONENERGY: 30
Comment: registered in MassBank
Num Peaks: 2
255.10001	8
480.06	1000

NAME: Phosphatidylcholine lyso 16
PRECURSORMZ: 524.335778
PRECURSORTYPE: [M+CH3COO]-
FORMULA: C24H48NO7P
Ontology: 2-acyl-sn-glycero-3-phosphocholines
INCHIKEY: GMEZONVWGDDWOJ-NXVVXOECNA-N
SMILES: CCCCCCCCCCC\C=C/CCC(=O)OC(CO)COP([O-])(=O)OCC[N+](C)(C)C
RETENTIONTIME: 
CCS: -1
IONMODE: Negative
INSTRUMENTTYPE: LC-ESI-ITFT
INSTRUMENT: 
COLLISIONENERGY: 30
Comment: registered in MassBank
Num Peaks: 14
199.74001	19
327.20999	13
408.37	16
411.10999	14
433.69	13
452.54001	6
461.66	10
463.32001	14
467.14001	15
469.98001	8
478.12	1000
491.95001	16
492.75	46
509.32999	6

NAME: Phosphatidylcholine lyso 17
PRECURSORMZ: 540.367078
PRECURSORTYPE: [M+CH3COO]-
FORMULA: C25H52NO7P
Ontology: 2-acyl-sn-glycero-3-phosphocholines
INCHIKEY: ODFZXVWAVNPFPM-UHFFFAOYNA-N
SMILES: CCCCCCCCCCCCCCCCC(=O)OC(CO)COP([O-])(=O)OCC[N+](C)(C)C
RETENTIONTIME: 
CCS: -1
IONMODE: Negative
INSTRUMENTTYPE: LC-ESI-ITFT
INSTRUMENT: 
COLLISIONENERGY: 30
Comment: registered in MassBank
Num Peaks: 15
243.14999	23
386.76001	14
388.5	21
396.79999	9
427.07001	30
453.76001	23
477.91	19
480.82999	81
485.95001	19
494.14999	1000
494.76001	5
504.66	30
508.45999	37
532.28998	7
537.02002	46

NAME: Phosphatidylcholine lyso 18
PRECURSORMZ: 554.382728
PRECURSORTYPE: [M+CH3COO]-
FORMULA: C26H54NO7P
Ontology: 2-acyl-sn-glycero-3-phosphocholines
INCHIKEY: IQGPMZRCLCCXAG-UHFFFAOYNA-N
SMILES: CCCCCCCCCCCCCCCCCC(=O)OC(CO)COP([O-])(=O)OCC[N+](C)(C)C
RETENTIONTIME: 
CCS: -1
IONMODE: Negative
INSTRUMENTTYPE: LC-ESI-ITFT
INSTRUMENT: 
COLLISIONENERGY: 30
Comment: registered in MassBank
Num Peaks: 3
283.20001	5
508.01999	1000
522.97998	5

NAME: Phosphatidylcholine lyso 18
PRECURSORMZ: 552.367078
PRECURSORTYPE: [M+CH3COO]-
FORMULA: C26H52NO7P
Ontology: 2-acyl-sn-glycero-3-phosphocholines
INCHIKEY: WZSWWJLIQCVBRG-ZCXUNETKNA-N
SMILES: CCCCCCCCCCCCC\C=C/CCC(=O)OC(CO)COP([O-])(=O)OCC[N+](C)(C)C
RETENTIONTIME: 
CCS: -1
IONMODE: Negative
INSTRUMENTTYPE: LC-ESI-ITFT
INSTRUMENT: 
COLLISIONENERGY: 30
Comment: registered in MassBank
Num Peaks: 2
506	1000
521.13	7

NAME: Phosphatidylcholine lyso 18
PRECURSORMZ: 550.351428
PRECURSORTYPE: [M+CH3COO]-
FORMULA: C26H50NO7P
Ontology: 2-acyl-sn-glycero-3-phosphocholines
INCHIKEY: HQNGWMLDFPEZSR-NFYLBXPENA-N
SMILES: CCCCCCCCCC\C=C/C\C=C/CCC(=O)OC(CO)COP([O-])(=O)OCC[N+](C)(C)C
RETENTIONTIME: 
CCS: -1
IONMODE: Negative
INSTRUMENTTYPE: LC-ESI-ITFT
INSTRUMENT: 
COLLISIONENERGY: 30
Comment: registered in MassBank
Num Peaks: 7
338.09	10
401.70001	10
442.48999	9
503.01999	13
504.04999	1000
519.01001	20
528.15997	66

NAME: Phosphatidylcholine lyso 20
PRECURSORMZ: 582.414028
PRECURSORTYPE: [M+CH3COO]-
FORMULA: C28H58NO7P
Ontology: 2-acyl-sn-glycero-3-phosphocholines
INCHIKEY: WQBSSUPHAAAVSW-UHFFFAOYNA-N
SMILES: CCCCCCCCCCCCCCCCCCCC(=O)OC(CO)COP([O-])(=O)OCC[N+](C)(C)C
RETENTIONTIME: 
CCS: -1
IONMODE: Negative
INSTRUMENTTYPE: LC-ESI-ITFT
INSTRUMENT: 
COLLISIONENERGY: 30
Comment: registered in MassBank
Num Peaks: 3
462.04999	23
511.57001	26
536.02002	1000

NAME: Phosphatidylcholine lyso 20
PRECURSORMZ: 580.398378
PRECURSORTYPE: [M+CH3COO]-
FORMULA: C28H56NO7P
Ontology: 2-acyl-sn-glycero-3-phosphocholines
INCHIKEY: IDRKESNUEGURSD-VXPUYCOJNA-N
SMILES: CCCCCCCCCCCCCCC\C=C/CCC(=O)OC(CO)COP([O-])(=O)OCC[N+](C)(C)C
RETENTIONTIME: 
CCS: -1
IONMODE: Negative
INSTRUMENTTYPE: LC-ESI-ITFT
INSTRUMENT: 
COLLISIONENERGY: 30
Comment: registered in MassBank
Num Peaks: 12
255.22	17
282.38	8
459.87	5
480.14999	25
509.67999	23
517.73999	17
526.34003	25
527.10999	13
534.03998	1000
534.65997	49
547.96002	6
609.47998	7

NAME: Phosphatidylcholine lyso 20
PRECURSORMZ: 574.351428
PRECURSORTYPE: [M+CH3COO]-
FORMULA: C28H50NO7P
Ontology: 2-acyl-sn-glycero-3-phosphocholines
INCHIKEY: XHKVQFBZSMLFNL-AILJCPQKNA-N
SMILES: CCCCCC\C=C/C\C=C/C\C=C/C\C=C/CCC(=O)OC(CO)COP([O-])(=O)OCC[N+](C)(C)C
RETENTIONTIME: 
CCS: -1
IONMODE: Negative
INSTRUMENTTYPE: LC-ESI-ITFT
INSTRUMENT: 
COLLISIONENERGY: 30
Comment: registered in MassBank
Num Peaks: 4
203.03999	7
528.09998	1000
537.88	6
552	52

NAME: Phosphatidylcholine lyso 22
PRECURSORMZ: 598.351428
PRECURSORTYPE: [M+CH3COO]-
FORMULA: C30H50NO7P
Ontology: 2-acyl-sn-glycero-3-phosphocholines
INCHIKEY: FTLVGMFFHDRYDI-WSDBEMKQNA-N
SMILES: CC\C=C/C\C=C/C\C=C/C\C=C/C\C=C/C\C=C/CCC(=O)OC(CO)COP([O-])(=O)OCC[N+](C)(C)C
RETENTIONTIME: 
CCS: -1
IONMODE: Negative
INSTRUMENTTYPE: LC-ESI-ITFT
INSTRUMENT: 
COLLISIONENERGY: 30
Comment: registered in MassBank
Num Peaks: 7
420.91	5
484.85001	9
543.88	6
551.97998	1000
565.77002	5
582.94	6
590.72998	8

NAME: Phosphatidylethanolamine 14
PRECURSORMZ: 734.476628
PRECURSORTYPE: [M-H]-
FORMULA: C41H70NO8P
Ontology: Phosphatidylethanolamines
INCHIKEY: XQLJDXRKMXWECX-PAHVTNPFNA-N
SMILES: CCCCCCCCCCCCCC(=O)OCC(COP(O)(=O)OCCN)OC(=O)CC\C=C/C\C=C/C\C=C/C\C=C/C\C=C/C\C=C/CC
RETENTIONTIME: 
CCS: 373.430702
IONMODE: Negative
INSTRUMENTTYPE: LC-ESI-ITFT
INSTRUMENT: 
COLLISIONENERGY: 30
Comment: registered in MassBank
Num Peaks: 12
227.14999	403
257.07001	208
283.10999	896
327.14999	1000
328.04999	610
424.29001	442
480.84	156
553.48999	78
635.58002	390
636.52002	234
652.40997	468
691.07001	78

NAME: Phosphatidylethanolamine 15
PRECURSORMZ: 748.492278
PRECURSORTYPE: [M-H]-
FORMULA: C42H72NO8P
Ontology: Phosphatidylethanolamines
INCHIKEY: WIJRNOBSWIZHST-JTURFRPLNA-N
SMILES: CCCCCCCCCCCCCCC(=O)OCC(COP(O)(=O)OCCN)OC(=O)CC\C=C/C\C=C/C\C=C/C\C=C/C\C=C/C\C=C/CC
RETENTIONTIME: 
CCS: 383.7427226
IONMODE: Negative
INSTRUMENTTYPE: LC-ESI-ITFT
INSTRUMENT: 
COLLISIONENERGY: 30
Comment: registered in MassBank
Num Peaks: 13
241.22	1000
242.25999	250
254.07001	232
283.22	161
284.20999	89
327.07999	661
438.17001	339
464.48001	179
570.71002	125
658.06	89
724.09003	196
728.60999	304
733.45001	161

NAME: Phosphatidylethanolamine 16
PRECURSORMZ: 690.507928
PRECURSORTYPE: [M-H]-
FORMULA: C37H74NO8P
Ontology: Phosphatidylethanolamines
INCHIKEY: SLKDGVPOSSLUAI-UHFFFAOYNA-N
SMILES: CCCCCCCCCCCCCCCC(=O)OCC(COP(O)(=O)OCCN)OC(=O)CCCCCCCCCCCCCCC
RETENTIONTIME: 
CCS: 351.7346598
IONMODE: Negative
INSTRUMENTTYPE: LC-ESI-ITFT
INSTRUMENT: 
COLLISIONENERGY: 30
Comment: registered in MassBank
Num Peaks: 10
255.08	1000
256.29999	78
282.95999	5
433.91	35
452	86
453.01999	22
560.40002	13
582.15002	9
625.64001	18
647	19

NAME: Phosphatidylethanolamine 16
PRECURSORMZ: 716.523578
PRECURSORTYPE: [M-H]-
FORMULA: C39H76NO8P
Ontology: Phosphatidylethanolamines
INCHIKEY: RECBGBLFDMTQRS-SGEDCAFJNA-N
SMILES: CCCCCCCCCCCCCCCC(=O)OCC(COP(O)(=O)OCCN)OC(=O)CC\C=C/CCCCCCCCCCCCC
RETENTIONTIME: 
CCS: -1
IONMODE: Negative
INSTRUMENTTYPE: LC-ESI-ITFT
INSTRUMENT: 
COLLISIONENERGY: 30
Comment: registered in MassBank
Num Peaks: 8
255.06	336
256.19	6
281.04999	1000
282.22	5
434.14001	9
452.07999	111
460.14999	9
478.07999	35

NAME: Phosphatidylethanolamine 16
PRECURSORMZ: 714.507928
PRECURSORTYPE: [M-H]-
FORMULA: C39H74NO8P
Ontology: Phosphatidylethanolamines
INCHIKEY: JXRDSKPCJNWQEG-BAOXYHDDNA-N
SMILES: CCCCCCCCCCCCCCCC(=O)OCC(COP(O)(=O)OCCN)OC(=O)CC\C=C/C\C=C/CCCCCCCCCC
RETENTIONTIME: 
CCS: -1
IONMODE: Negative
INSTRUMENTTYPE: LC-ESI-ITFT
INSTRUMENT: 
COLLISIONENERGY: 30
Comment: registered in MassBank
Num Peaks: 10
255.02	288
256.17001	20
279.06	1000
280.14001	88
433.82001	7
452.03	82
453.14001	14
459.09	9
585.60999	6
623.85999	6

NAME: Phosphatidylethanolamine 16
PRECURSORMZ: 740.523578
PRECURSORTYPE: [M-H]-
FORMULA: C41H76NO8P
Ontology: Phosphatidylethanolamines
INCHIKEY: FOZMADPVSAYPHH-PNECARMWNA-N
SMILES: CCCCCCCCCCCCCCCC(=O)OCC(COP(O)(=O)OCCN)OC(=O)CC\C=C/C\C=C/C\C=C/CCCCCCCCC
RETENTIONTIME: 
CCS: -1
IONMODE: Negative
INSTRUMENTTYPE: LC-ESI-ITFT
INSTRUMENT: 
COLLISIONENERGY: 30
Comment: registered in MassBank
Num Peaks: 12
255.13	426
278.95999	43
281.03	53
287.56	10
305.10001	1000
306.14999	54
434.29999	11
452.14001	144
453.23999	23
479.17001	14
502.23999	22
655.71002	14

NAME: Phosphatidylethanolamine 16
PRECURSORMZ: 738.507928
PRECURSORTYPE: [M-H]-
FORMULA: C41H74NO8P
Ontology: Phosphatidylethanolamines
INCHIKEY: ARFPLDYYIYCLNV-WRDNLCFKNA-N
SMILES: CCCCCCCCCCCCCCCC(=O)OCC(COP(O)(=O)OCCN)OC(=O)CC\C=C/C\C=C/C\C=C/C\C=C/CCCCCC
RETENTIONTIME: 
CCS: -1
IONMODE: Negative
INSTRUMENTTYPE: LC-ESI-ITFT
INSTRUMENT: 
COLLISIONENERGY: 30
Comment: registered in MassBank
Num Peaks: 9
255	313
256.01999	19
259.14999	78
303.07001	1000
304.12	41
434.25	6
452.10999	244
453.16	12
500.10001	25

NAME: Phosphatidylethanolamine 16
PRECURSORMZ: 736.492278
PRECURSORTYPE: [M-H]-
FORMULA: C41H72NO8P
Ontology: Phosphatidylethanolamines
INCHIKEY: QLFZCNOCZYRVAU-JPOVHVJANA-N
SMILES: CCCCCCCCCCCCCCCC(=O)OCC(COP(O)(=O)OCCN)OC(=O)CC\C=C/C\C=C/C\C=C/C\C=C/C\C=C/CCC
RETENTIONTIME: 
CCS: -1
IONMODE: Negative
INSTRUMENTTYPE: LC-ESI-ITFT
INSTRUMENT: 
COLLISIONENERGY: 30
Comment: registered in MassBank
Num Peaks: 16
253	41
255.00999	614
256.85001	123
257.47	82
301.10999	1000
302.14999	70
322.76999	146
434.29999	53
437.22	47
452.42999	450
453.28	53
481.26999	53
530.09998	70
655.52002	64
676.54999	140
715.48999	58

NAME: Phosphatidylethanolamine 16
PRECURSORMZ: 766.539229
PRECURSORTYPE: [M-H]-
FORMULA: C43H78NO8P
Ontology: Phosphatidylethanolamines
INCHIKEY: WRJMLLZQXDAGES-ASOJYNRJNA-N
SMILES: CCCCCCCCCCCCCCCC(=O)OCC(COP(O)(=O)OCCN)OC(=O)CC\C=C/C\C=C/C\C=C/C\C=C/CCCCCCCC
RETENTIONTIME: 
CCS: -1
IONMODE: Negative
INSTRUMENTTYPE: LC-ESI-ITFT
INSTRUMENT: 
COLLISIONENERGY: 30
Comment: registered in MassBank
Num Peaks: 17
233.13	9
255.19	318
256.17999	15
281.16	11
287.17001	38
288.04001	12
305.16	27
313.14999	7
331.10001	1000
332.10001	102
434.14001	6
452.01999	147
452.92999	13
453.56	6
478.14001	5
509.82999	7
528.08002	10

NAME: Phosphatidylethanolamine 16
PRECURSORMZ: 764.523578
PRECURSORTYPE: [M-H]-
FORMULA: C43H76NO8P
Ontology: Phosphatidylethanolamines
INCHIKEY: VFGMWCSZLGEBAJ-XONGEEKRNA-N
SMILES: CCCCCCCCCCCCCCCC(=O)OCC(COP(O)(=O)OCCN)OC(=O)CC\C=C/C\C=C/C\C=C/C\C=C/C\C=C/CCCCC
RETENTIONTIME: 
CCS: 366.3430627
IONMODE: Negative
INSTRUMENTTYPE: LC-ESI-ITFT
INSTRUMENT: 
COLLISIONENERGY: 30
Comment: registered in MassBank
Num Peaks: 22
231.13	6
255.10001	220
256.29001	17
259.07999	16
281.10999	80
284.29001	10
285.12	30
286.13	7
303.03	179
304.07999	10
327.22	15
329.10001	426
330.10001	51
436.07999	62
452.07001	93
453.12	15
478.22	60
500.07999	10
525.94	16
690.10999	1000
690.84998	7
705.03003	12

NAME: Phosphatidylethanolamine 16
PRECURSORMZ: 762.507928
PRECURSORTYPE: [M-H]-
FORMULA: C43H74NO8P
Ontology: Phosphatidylethanolamines
INCHIKEY: MPWUZHVZZKSTPV-LGFBOSHVNA-N
SMILES: CCCCCCCCCCCCCCCC(=O)OCC(COP(O)(=O)OCCN)OC(=O)CC\C=C/C\C=C/C\C=C/C\C=C/C\C=C/C\C=C/CC
RETENTIONTIME: 
CCS: 364.4650752
IONMODE: Negative
INSTRUMENTTYPE: LC-ESI-ITFT
INSTRUMENT: 
COLLISIONENERGY: 30
Comment: registered in MassBank
Num Peaks: 16
229.16	16
230.05	9
249	6
255.03999	671
256.13	47
283.07999	590
284.16	33
327.06	1000
328.04001	59
434.07001	24
435.09	6
452.10001	492
453.07001	34
506	38
506.95001	7
524	16

NAME: Phosphatidylethanolamine 16
PRECURSORMZ: 714.507928
PRECURSORTYPE: [M-H]-
FORMULA: C39H74NO8P
Ontology: Phosphatidylethanolamines
INCHIKEY: HGDJXBPLHZFXGO-LBXGSASVNA-N
SMILES: CCCCCCCCCCCCC\C=C/CCC(=O)OC(COC(=O)CC\C=C/CCCCCCCCCCC)COP(O)(=O)OCCN
RETENTIONTIME: 
CCS: -1
IONMODE: Negative
INSTRUMENTTYPE: LC-ESI-ITFT
INSTRUMENT: 
COLLISIONENERGY: 30
Comment: registered in MassBank
Num Peaks: 14
253.02	1000
254.03	177
281.22	843
282.26001	38
403.13	10
450.04999	205
478.14999	113
550.96997	20
551.90002	8
552.65997	56
610.66998	10
623.77002	24
624.82001	58
626.03003	46

NAME: Phosphatidylethanolamine 16
PRECURSORMZ: 736.492278
PRECURSORTYPE: [M-H]-
FORMULA: C41H72NO8P
Ontology: Phosphatidylethanolamines
INCHIKEY: TUAWQIYXFSBSNQ-RQDZWXAXNA-N
SMILES: CCCCCCCCCCC\C=C/CCC(=O)OCC(COP(O)(=O)OCCN)OC(=O)CC\C=C/C\C=C/C\C=C/C\C=C/CCCCCC
RETENTIONTIME: 
CCS: -1
IONMODE: Negative
INSTRUMENTTYPE: LC-ESI-ITFT
INSTRUMENT: 
COLLISIONENERGY: 30
Comment: registered in MassBank
Num Peaks: 18
253.00999	462
254.25999	78
259.26001	79
264.70001	7
274.98001	22
281.04001	41
303.09	1000
304.04999	141
432.13	33
450.03	200
450.69	36
500.23001	16
552.37	11
553.95001	14
651.54999	11
662.37	23
690.23999	12
736.34003	16

NAME: Phosphatidylethanolamine 16
PRECURSORMZ: 760.492278
PRECURSORTYPE: [M-H]-
FORMULA: C43H72NO8P
Ontology: Phosphatidylethanolamines
INCHIKEY: ZJBSZOUPRJVSRB-SIEWZCRLNA-N
SMILES: CCCCCCCCCCC\C=C/CCC(=O)OCC(COP(O)(=O)OCCN)OC(=O)CC\C=C/C\C=C/C\C=C/C\C=C/C\C=C/C\C=C/CC
RETENTIONTIME: 
CCS: -1
IONMODE: Negative
INSTRUMENTTYPE: LC-ESI-ITFT
INSTRUMENT: 
COLLISIONENERGY: 30
Comment: registered in MassBank
Num Peaks: 12
253	620
254.2	39
276.82999	45
283.07001	838
284.19	56
297.22	34
326.85001	1000
328.10999	168
450.13	73
524.14001	50
675.48999	45
741.54999	34

NAME: Phosphatidylethanolamine 17
PRECURSORMZ: 730.539229
PRECURSORTYPE: [M-H]-
FORMULA: C40H78NO8P
Ontology: Phosphatidylethanolamines
INCHIKEY: OCGMRPHRWYLSEA-OHYPFYFLNA-N
SMILES: CCCCCCCCCCCCCCCCC(=O)OCC(COP(O)(=O)OCCN)OC(=O)CC\C=C/CCCCCCCCCCCCC
RETENTIONTIME: 
CCS: -1
IONMODE: Negative
INSTRUMENTTYPE: LC-ESI-ITFT
INSTRUMENT: 
COLLISIONENERGY: 30
Comment: registered in MassBank
Num Peaks: 19
256.06	11
269.13	236
269.95999	43
281.12	1000
282.17999	146
283.38	91
446.03	8
448.35001	6
460.04999	26
461.32999	6
464.35001	30
465.32999	84
466.19	111
467.28	21
478.04999	38
493.20001	9
604.44	7
714.77002	7
731.35999	14

NAME: Phosphatidylethanolamine 17
PRECURSORMZ: 752.523578
PRECURSORTYPE: [M-H]-
FORMULA: C42H76NO8P
Ontology: Phosphatidylethanolamines
INCHIKEY: LUNHOOJLWJQRDB-VTJLAKARNA-N
SMILES: CCCCCCCCCCCCCCCCC(=O)OCC(COP(O)(=O)OCCN)OC(=O)CC\C=C/C\C=C/C\C=C/C\C=C/CCCCCC
RETENTIONTIME: 
CCS: -1
IONMODE: Negative
INSTRUMENTTYPE: LC-ESI-ITFT
INSTRUMENT: 
COLLISIONENERGY: 30
Comment: registered in MassBank
Num Peaks: 20
259.14999	32
260.06	21
269.07999	352
270	11
285.31	7
299.19	19
303.06	1000
304.10999	176
328.31	34
332.07999	21
392.04999	7
420.17999	7
437.97	12
446.66	10
448.32001	16
464.54001	28
466.07999	259
467.12	34
500.06	31
694.44	6

NAME: Phosphatidylethanolamine 17
PRECURSORMZ: 776.523578
PRECURSORTYPE: [M-H]-
FORMULA: C44H76NO8P
Ontology: Phosphatidylethanolamines
INCHIKEY: WVGREBRFGJNLSB-KAFSZNKPNA-N
SMILES: CCCCCCCCCCCCCCCCC(=O)OCC(COP(O)(=O)OCCN)OC(=O)CC\C=C/C\C=C/C\C=C/C\C=C/C\C=C/C\C=C/CC
RETENTIONTIME: 
CCS: -1
IONMODE: Negative
INSTRUMENTTYPE: LC-ESI-ITFT
INSTRUMENT: 
COLLISIONENERGY: 30
Comment: registered in MassBank
Num Peaks: 29
230.27	17
255.21001	17
269.10999	487
270.07999	157
283.12	621
284.12	186
309.14001	10
327.10001	1000
328.14999	309
329.23001	29
330.48001	13
331.23001	57
332.14999	29
403.19	11
437.07001	6
442.20001	19
446.14001	47
447.31	57
448.29999	30
460.23999	29
461.32001	29
464.28	245
465.29999	455
466.16	260
467.07999	29
506.95001	16
685.97998	16
695.21997	10
716.38	5

NAME: Phosphatidylethanolamine 17
PRECURSORMZ: 750.507928
PRECURSORTYPE: [M-H]-
FORMULA: C42H74NO8P
Ontology: Phosphatidylethanolamines
INCHIKEY: BTWJFQUCIMQURY-RQZMTRGUNA-N
SMILES: CCCCCCCCCCCC\C=C/CCC(=O)OCC(COP(O)(=O)OCCN)OC(=O)CC\C=C/C\C=C/C\C=C/C\C=C/CCCCCC
RETENTIONTIME: 
CCS: -1
IONMODE: Negative
INSTRUMENTTYPE: LC-ESI-ITFT
INSTRUMENT: 
COLLISIONENERGY: 30
Comment: registered in MassBank
Num Peaks: 8
267.09	145
303.10001	1000
304.23001	99
464.20999	206
500.20999	160
642.5	46
693.21002	99
733.28003	76

NAME: Phosphatidylethanolamine 18
PRECURSORMZ: 718.539229
PRECURSORTYPE: [M-H]-
FORMULA: C39H78NO8P
Ontology: Phosphatidylethanolamines
INCHIKEY: JRTZGTYHEHCHTM-UHFFFAOYNA-N
SMILES: CCCCCCCCCCCCCCCCCC(=O)OCC(COP(O)(=O)OCCN)OC(=O)CCCCCCCCCCCCCCC
RETENTIONTIME: 
CCS: 342.469734
IONMODE: Negative
INSTRUMENTTYPE: LC-ESI-ITFT
INSTRUMENT: 
COLLISIONENERGY: 30
Comment: registered in MassBank
Num Peaks: 11
255.07001	1000
256.16	82
283.09	329
284.07999	32
434.26001	17
451.84	8
452.66	6
461.95999	22
480.04001	165
481.22	17
635.41998	10

NAME: Phosphatidylethanolamine 18
PRECURSORMZ: 744.554879
PRECURSORTYPE: [M-H]-
FORMULA: C41H80NO8P
Ontology: Phosphatidylethanolamines
INCHIKEY: YNUVHPZRNQDFHS-HYOGKJQXNA-N
SMILES: CCCCCCCCCCCCCCCCCC(=O)OCC(COP(O)(=O)OCCN)OC(=O)CC\C=C/CCCCCCCCCCCCC
RETENTIONTIME: 
CCS: -1
IONMODE: Negative
INSTRUMENTTYPE: LC-ESI-ITFT
INSTRUMENT: 
COLLISIONENERGY: 30
Comment: registered in MassBank
Num Peaks: 9
281.10001	1000
282.20001	55
283.14001	350
284.19	20
460.23001	8
462.19	12
478	10
480.04999	150
481.06	7

NAME: Phosphatidylethanolamine 18
PRECURSORMZ: 742.539229
PRECURSORTYPE: [M-H]-
FORMULA: C41H78NO8P
Ontology: Phosphatidylethanolamines
INCHIKEY: CJVLBVKIFVTUPS-JSCMVKKRNA-N
SMILES: CCCCCCCCCCCCCCCCCC(=O)OCC(COP(O)(=O)OCCN)OC(=O)CC\C=C/C\C=C/CCCCCCCCCC
RETENTIONTIME: 
CCS: -1
IONMODE: Negative
INSTRUMENTTYPE: LC-ESI-ITFT
INSTRUMENT: 
COLLISIONENERGY: 30
Comment: registered in MassBank
Num Peaks: 9
278.98999	1000
280.16	108
281.16	15
283.07001	429
283.94	42
475.92001	6
480.20001	129
481.44	14
531.96997	9

NAME: Phosphatidylethanolamine 18
PRECURSORMZ: 770.570529
PRECURSORTYPE: [M-H]-
FORMULA: C43H82NO8P
Ontology: Phosphatidylethanolamines
INCHIKEY: BDTZWAMVDWXHLM-QIPJBBGZNA-N
SMILES: CCCCCCCCCCCCCCCCCC(=O)OCC(COP(O)(=O)OCCN)OC(=O)CC\C=C/C\C=C/CCCCCCCCCCCC
RETENTIONTIME: 
CCS: -1
IONMODE: Negative
INSTRUMENTTYPE: LC-ESI-ITFT
INSTRUMENT: 
COLLISIONENERGY: 30
Comment: registered in MassBank
Num Peaks: 12
283.20999	451
284.22	41
289.16	5
307.13	1000
308.12	103
461.94	5
480.20999	74
481.04999	26
485.91	5
503.81	28
688.41998	5
694.25	19

NAME: Phosphatidylethanolamine 18
PRECURSORMZ: 768.554879
PRECURSORTYPE: [M-H]-
FORMULA: C43H80NO8P
Ontology: Phosphatidylethanolamines
INCHIKEY: BDESLISUEJTDHD-JCXYTCFZNA-N
SMILES: CCCCCCCCCCCCCCCCCC(=O)OCC(COP(O)(=O)OCCN)OC(=O)CC\C=C/C\C=C/C\C=C/CCCCCCCCC
RETENTIONTIME: 
CCS: -1
IONMODE: Negative
INSTRUMENTTYPE: LC-ESI-ITFT
INSTRUMENT: 
COLLISIONENERGY: 30
Comment: registered in MassBank
Num Peaks: 10
283.14001	400
284.14999	40
305.07001	1000
306.09	132
463.14001	10
480.09	181
481.01999	13
484.17999	8
501.94	12
502.97	6

NAME: Phosphatidylethanolamine 18
PRECURSORMZ: 766.539229
PRECURSORTYPE: [M-H]-
FORMULA: C43H78NO8P
Ontology: Phosphatidylethanolamines
INCHIKEY: VUDFSDNQOHMQTE-NQWSYULSNA-N
SMILES: CCCCCCCCCCCCCCCCCC(=O)OCC(COP(O)(=O)OCCN)OC(=O)CC\C=C/C\C=C/C\C=C/C\C=C/CCCCCC
RETENTIONTIME: 
CCS: -1
IONMODE: Negative
INSTRUMENTTYPE: LC-ESI-ITFT
INSTRUMENT: 
COLLISIONENERGY: 30
Comment: registered in MassBank
Num Peaks: 14
259.10001	80
260.17001	7
283.13	525
284.07999	34
285.01001	5
303.07001	1000
304.07999	71
462.04001	21
480.10999	290
481.12	24
482.25	9
500.01999	22
715.5	7
716.29999	26

NAME: Phosphatidylethanolamine 18
PRECURSORMZ: 800.617479
PRECURSORTYPE: [M-H]-
FORMULA: C45H88NO8P
Ontology: Phosphatidylethanolamines
INCHIKEY: HHIOTAKOFGPHDM-YJKCNMNRNA-N
SMILES: CCCCCCCCCCCCCCCCC\C=C/CCC(=O)OC(COC(=O)CCCCCCCCCCCCCCCCC)COP(O)(=O)OCCN
RETENTIONTIME: 
CCS: -1
IONMODE: Negative
INSTRUMENTTYPE: LC-ESI-ITFT
INSTRUMENT: 
COLLISIONENERGY: 30
Comment: registered in MassBank
Num Peaks: 25
239	5
283.16	272
284.23001	6
307.45999	6
309.17001	69
310.04001	16
311.29999	133
312.45001	18
337.13	1000
338.10999	218
338.70999	8
480.17001	125
481.12	12
506.45999	13
573.59003	5
620.52002	18
633.82001	9
681.06	13
704.63	8
709.78998	11
713.17999	13
717.78003	26
740.40002	11
756.09003	22
765.94	12

NAME: Phosphatidylethanolamine 18
PRECURSORMZ: 796.586179
PRECURSORTYPE: [M-H]-
FORMULA: C45H84NO8P
Ontology: Phosphatidylethanolamines
INCHIKEY: SUKSMPBISVBNOS-SDJUKWJGNA-N
SMILES: CCCCCCCCCCCCCCCCCC(=O)OCC(COP(O)(=O)OCCN)OC(=O)CC\C=C/C\C=C/C\C=C/CCCCCCCCCCC
RETENTIONTIME: 
CCS: -1
IONMODE: Negative
INSTRUMENTTYPE: LC-ESI-ITFT
INSTRUMENT: 
COLLISIONENERGY: 30
Comment: registered in MassBank
Num Peaks: 13
283.14001	148
284.25	15
333.06	1000
334.14999	186
462.29999	11
480.17999	145
481.37	18
512.04999	11
728.32001	22
731.77002	24
744.08002	7
760.87	6
767.73999	9

NAME: Phosphatidylethanolamine 18
PRECURSORMZ: 794.570529
PRECURSORTYPE: [M-H]-
FORMULA: C45H82NO8P
Ontology: Phosphatidylethanolamines
INCHIKEY: QDYAMUDPRJZWQB-BPSDUUPONA-N
SMILES: CCCCCCCCCCCCCCCCCC(=O)OCC(COP(O)(=O)OCCN)OC(=O)CC\C=C/C\C=C/C\C=C/C\C=C/CCCCCCCC
RETENTIONTIME: 
CCS: -1
IONMODE: Negative
INSTRUMENTTYPE: LC-ESI-ITFT
INSTRUMENT: 
COLLISIONENERGY: 30
Comment: registered in MassBank
Num Peaks: 11
283.13	425
284.01999	29
287.10001	37
331.09	1000
332.19	136
462.17999	10
480.04001	167
481.01999	25
510.14999	10
528	21
528.96997	7

NAME: Phosphatidylethanolamine 18
PRECURSORMZ: 790.539229
PRECURSORTYPE: [M-H]-
FORMULA: C45H78NO8P
Ontology: Phosphatidylethanolamines
INCHIKEY: XYYHNDVKALDFHQ-HSBBONCLNA-N
SMILES: CCCCCCCCCCCCCCCCCC(=O)OCC(COP(O)(=O)OCCN)OC(=O)CC\C=C/C\C=C/C\C=C/C\C=C/C\C=C/C\C=C/CC
RETENTIONTIME: 
CCS: 396.325474
IONMODE: Negative
INSTRUMENTTYPE: LC-ESI-ITFT
INSTRUMENT: 
COLLISIONENERGY: 30
Comment: registered in MassBank
Num Peaks: 11
229.02	10
283.10999	1000
284.19	78
327.03	676
328.14001	63
462.13	22
462.92999	7
480.09	351
481.23001	42
505.91	10
524.02002	23

NAME: Phosphatidylethanolamine 18
PRECURSORMZ: 742.539229
PRECURSORTYPE: [M-H]-
FORMULA: C41H78NO8P
Ontology: Phosphatidylethanolamines
INCHIKEY: BQGWAMJRMWMSMT-ZUELCTOONA-N
SMILES: CCCCCCCCCCCCC\C=C/CCC(=O)OCC(COP(O)(=O)OCCN)OC(=O)CC\C=C/CCCCCCCCCCCCC
RETENTIONTIME: 
CCS: -1
IONMODE: Negative
INSTRUMENTTYPE: LC-ESI-ITFT
INSTRUMENT: 
COLLISIONENERGY: 30
Comment: registered in MassBank
Num Peaks: 5
281.12	1000
282.07999	29
460.13	13
478.01001	111
479.06	7

NAME: Phosphatidylethanolamine 18
PRECURSORMZ: 740.523578
PRECURSORTYPE: [M-H]-
FORMULA: C41H76NO8P
Ontology: Phosphatidylethanolamines
INCHIKEY: SDQYMWWODQDLBO-XBCPOCNBNA-N
SMILES: CCCCCCCCCCCCC\C=C/CCC(=O)OCC(COP(O)(=O)OCCN)OC(=O)CC\C=C/C\C=C/CCCCCCCCCC
RETENTIONTIME: 
CCS: -1
IONMODE: Negative
INSTRUMENTTYPE: LC-ESI-ITFT
INSTRUMENT: 
COLLISIONENERGY: 30
Comment: registered in MassBank
Num Peaks: 19
255.13	39
256.20999	19
279.14001	1000
280.14999	40
281.09	865
282.07001	37
303.17999	77
304.19	63
305.17999	13
452.25	6
453.07999	14
458.01001	18
458.62	6
460.19	13
476.04001	72
477.44	22
478.17999	101
688.12	25
690.28998	35

NAME: Phosphatidylethanolamine 18
PRECURSORMZ: 770.570529
PRECURSORTYPE: [M-H]-
FORMULA: C43H82NO8P
Ontology: Phosphatidylethanolamines
INCHIKEY: UVYKYAJJWJKGHK-SZDCHMHBNA-N
SMILES: CCCCCCCCCCCCCCC\C=C/CCC(=O)OC(COC(=O)CC\C=C/CCCCCCCCCCCCC)COP(O)(=O)OCCN
RETENTIONTIME: 
CCS: -1
IONMODE: Negative
INSTRUMENTTYPE: LC-ESI-ITFT
INSTRUMENT: 
COLLISIONENERGY: 30
Comment: registered in MassBank
Num Peaks: 14
281.07999	477
282.10001	51
283.16	9
284.5	6
305.14999	19
306.14001	17
309.13	1000
310.16	102
460.12	9
478.09	102
479.14999	10
481.01999	5
488.06	5
506.10999	47

NAME: Phosphatidylethanolamine 18
PRECURSORMZ: 764.523578
PRECURSORTYPE: [M-H]-
FORMULA: C43H76NO8P
Ontology: Phosphatidylethanolamines
INCHIKEY: QBVUKWXEFSHJOQ-MOYSMJPMNA-N
SMILES: CCCCCCCCCCCCC\C=C/CCC(=O)OCC(COP(O)(=O)OCCN)OC(=O)CC\C=C/C\C=C/C\C=C/C\C=C/CCCCCC
RETENTIONTIME: 
CCS: -1
IONMODE: Negative
INSTRUMENTTYPE: LC-ESI-ITFT
INSTRUMENT: 
COLLISIONENERGY: 30
Comment: registered in MassBank
Num Peaks: 9
259.19	76
281.07001	487
282.10001	29
303.01999	1000
304.14999	51
459.95001	32
478.06	248
479.16	31
500.06	18

NAME: Phosphatidylethanolamine 18
PRECURSORMZ: 762.507928
PRECURSORTYPE: [M-H]-
FORMULA: C43H74NO8P
Ontology: Phosphatidylethanolamines
INCHIKEY: MQYQFMSHGWBKBV-XKMJRSRDNA-N
SMILES: CCCCCCCCCCCCC\C=C/CCC(=O)OCC(COP(O)(=O)OCCN)OC(=O)CC\C=C/C\C=C/C\C=C/C\C=C/C\C=C/CCC
RETENTIONTIME: 
CCS: -1
IONMODE: Negative
INSTRUMENTTYPE: LC-ESI-ITFT
INSTRUMENT: 
COLLISIONENERGY: 30
Comment: registered in MassBank
Num Peaks: 17
257.19	57
259.19	53
264.91	18
279.35001	212
281.12	622
282.10999	131
301.01999	1000
302.92001	343
478.01999	406
479.07999	81
480.32001	21
497.66	85
500.41	92
656.73999	21
684.88	32
688.12	78
690.45001	64

NAME: Phosphatidylethanolamine 18
PRECURSORMZ: 788.523578
PRECURSORTYPE: [M-H]-
FORMULA: C45H76NO8P
Ontology: Phosphatidylethanolamines
INCHIKEY: VPTWUJPVIKSANV-QRPORDCINA-N
SMILES: CCCCCCCCCCCCC\C=C/CCC(=O)OCC(COP(O)(=O)OCCN)OC(=O)CC\C=C/C\C=C/C\C=C/C\C=C/C\C=C/C\C=C/CC
RETENTIONTIME: 
CCS: -1
IONMODE: Negative
INSTRUMENTTYPE: LC-ESI-ITFT
INSTRUMENT: 
COLLISIONENERGY: 30
Comment: registered in MassBank
Num Peaks: 16
228.89	28
249.10001	18
253.14999	6
281.10999	828
282.29001	79
283.13	477
284.26001	51
309.14999	7
327.07001	1000
327.92999	84
460.04001	25
478.07999	525
479.14999	58
505.92999	23
523.94	49
713.95001	11

NAME: Phosphatidylethanolamine 18
PRECURSORMZ: 738.507928
PRECURSORTYPE: [M-H]-
FORMULA: C41H74NO8P
Ontology: Phosphatidylethanolamines
INCHIKEY: WDBJINMJHHHMJV-WRGXGLASNA-N
SMILES: CCCCCCCCCC\C=C/C\C=C/CCC(=O)OCC(COP(O)(=O)OCCN)OC(=O)CC\C=C/C\C=C/CCCCCCCCCC
RETENTIONTIME: 
CCS: -1
IONMODE: Negative
INSTRUMENTTYPE: LC-ESI-ITFT
INSTRUMENT: 
COLLISIONENERGY: 30
Comment: registered in MassBank
Num Peaks: 9
278.53	41
279.14999	1000
279.87	75
476.17999	167
477.07001	44
562.34003	55
631.13	48
637.01001	82
677.37	38

NAME: Phosphatidylethanolamine 18
PRECURSORMZ: 762.507928
PRECURSORTYPE: [M-H]-
FORMULA: C43H74NO8P
Ontology: Phosphatidylethanolamines
INCHIKEY: VTQZPEHDNCIYJA-IPVVXUKZNA-N
SMILES: CCCCCCCCCC\C=C/C\C=C/CCC(=O)OCC(COP(O)(=O)OCCN)OC(=O)CC\C=C/C\C=C/C\C=C/C\C=C/CCCCCC
RETENTIONTIME: 
CCS: -1
IONMODE: Negative
INSTRUMENTTYPE: LC-ESI-ITFT
INSTRUMENT: 
COLLISIONENERGY: 30
Comment: registered in MassBank
Num Peaks: 18
259.14999	178
279.03	416
280.14999	23
285.29999	33
303.04999	1000
304.12	406
387.22	30
451.70001	26
474.42999	46
476.10001	290
477.10999	23
481.98001	59
499.79001	132
588.26001	23
687.85999	119
701.87	125
703.20001	20
742.96002	73

NAME: Phosphatidylethanolamine 18
PRECURSORMZ: 786.507928
PRECURSORTYPE: [M-H]-
FORMULA: C45H74NO8P
Ontology: Phosphatidylethanolamines
INCHIKEY: UWCJYOTVTHYMRF-XPMHQQHXNA-N
SMILES: CCCCCCCCCC\C=C/C\C=C/CCC(=O)OCC(COP(O)(=O)OCCN)OC(=O)CC\C=C/C\C=C/C\C=C/C\C=C/C\C=C/C\C=C/CC
RETENTIONTIME: 
CCS: -1
IONMODE: Negative
INSTRUMENTTYPE: LC-ESI-ITFT
INSTRUMENT: 
COLLISIONENERGY: 30
Comment: registered in MassBank
Num Peaks: 23
259.06	42
279.03	1000
279.92999	126
283.13	765
284.16	123
303.13	65
304.16	45
327.03	881
328.06	77
434.73001	19
459.01001	26
476.04001	445
477.10999	39
500.29001	45
501.04001	13
524.20001	97
525.28998	58
660.84998	71
666.12	23
688.33002	19
700.39001	113
702.84003	45
725.44	35

NAME: Phosphatidylethanolamine 19
PRECURSORMZ: 804.554879
PRECURSORTYPE: [M-H]-
FORMULA: C46H80NO8P
Ontology: Phosphatidylethanolamines
INCHIKEY: PITVJCPCBXGCHJ-MXQGKLILNA-N
SMILES: CCCCCCCCCCCCCCCCCCC(=O)OCC(COP(O)(=O)OCCN)OC(=O)CC\C=C/C\C=C/C\C=C/C\C=C/C\C=C/C\C=C/CC
RETENTIONTIME: 
CCS: -1
IONMODE: Negative
INSTRUMENTTYPE: LC-ESI-ITFT
INSTRUMENT: 
COLLISIONENERGY: 30
Comment: registered in MassBank
Num Peaks: 20
255.05	58
283.20999	415
284.09	105
297.20999	798
298.17001	76
327.23999	722
327.98001	195
329.20999	65
331.22	14
357.22	224
464.29999	69
476.5	101
494.32999	733
512.84998	18
524.97998	69
680.70001	36
717.34003	36
729.27002	227
730.21997	1000
803.91998	43

NAME: Phosphatidylethanolamine 19
PRECURSORMZ: 802.539229
PRECURSORTYPE: [M-H]-
FORMULA: C46H78NO8P
Ontology: Phosphatidylethanolamines
INCHIKEY: ALIRENPDFGUYQE-NSLGBSSLNA-N
SMILES: CCCCCCCCCCCCCC\C=C/CCC(=O)OCC(COP(O)(=O)OCCN)OC(=O)CC\C=C/C\C=C/C\C=C/C\C=C/C\C=C/C\C=C/CC
RETENTIONTIME: 
CCS: -1
IONMODE: Negative
INSTRUMENTTYPE: LC-ESI-ITFT
INSTRUMENT: 
COLLISIONENERGY: 30
Comment: registered in MassBank
Num Peaks: 32
255.16	17
281.47	31
283.14001	262
284.23001	74
295.14001	1000
296.22	152
297.26999	14
309.23999	67
310.98001	19
327.16	901
328.06	109
418.82001	15
474.42999	29
492.07999	554
493.04001	128
493.70001	9
505.64001	36
506.92001	19
515.19	9
519.40997	19
524.15002	15
525.16998	22
544.03998	12
589.16998	14
659.96002	12
689.44	9
701.01001	36
714.90997	15
715.87	32
721.21997	32
742.15002	656
766.40997	15

NAME: Phosphatidylethanolamine 20
PRECURSORMZ: 812.523578
PRECURSORTYPE: [M-H]-
FORMULA: C47H76NO8P
Ontology: Phosphatidylethanolamines
INCHIKEY: LMXHYIDPXWFEQI-GKYWKYGONA-N
SMILES: CCCCCCCCC\C=C/C\C=C/C\C=C/CCC(=O)OCC(COP(O)(=O)OCCN)OC(=O)CC\C=C/C\C=C/C\C=C/C\C=C/C\C=C/C\C=C/CC
RETENTIONTIME: 
CCS: -1
IONMODE: Negative
INSTRUMENTTYPE: LC-ESI-ITFT
INSTRUMENT: 
COLLISIONENERGY: 30
Comment: registered in MassBank
Num Peaks: 26
230.05	55
249.27	32
275.07999	27
283.20999	459
284.34	77
303.75	77
305.14001	1000
306.22	150
327.16	859
328.17001	164
441.04999	36
473.85999	55
502.06	491
502.98999	73
524.14001	64
554.78003	86
613.84998	18
635.60999	141
728.62	18
730.14001	59
737.40002	64
738.29999	109
739.06	82
753.69	55
769.67999	36
793.32001	55

NAME: Phosphatidylethanolamine 20
PRECURSORMZ: 810.507928
PRECURSORTYPE: [M-H]-
FORMULA: C47H74NO8P
Ontology: Phosphatidylethanolamines
INCHIKEY: QYRBWBWQALDZGP-YARNEYDXNA-N
SMILES: CCCCCC\C=C/C\C=C/C\C=C/C\C=C/CCC(=O)OCC(COP(O)(=O)OCCN)OC(=O)CC\C=C/C\C=C/C\C=C/C\C=C/C\C=C/C\C=C/CC
RETENTIONTIME: 
CCS: -1
IONMODE: Negative
INSTRUMENTTYPE: LC-ESI-ITFT
INSTRUMENT: 
COLLISIONENERGY: 30
Comment: registered in MassBank
Num Peaks: 20
259.26001	67
283.07001	202
303.09	1000
304.20999	94
327.07999	455
328.20999	114
376.22	20
419.10001	37
500.03	286
506.16	44
524.08002	212
525.13	20
634.64001	71
708.64001	47
723.07001	195
724.17999	51
757.75	64
760.07001	172
760.77002	20
809.96002	20

NAME: Phosphatidylethanolamine 22
PRECURSORMZ: 800.617479
PRECURSORTYPE: [M-H]-
FORMULA: C45H88NO8P
Ontology: Phosphatidylethanolamines
INCHIKEY: FCSKFRCOAHKOKI-YJKCNMNRNA-N
SMILES: CCCCCCCCCCCCCCCCCCCCCC(=O)OCC(COP(O)(=O)OCCN)OC(=O)CC\C=C/CCCCCCCCCCCCC
RETENTIONTIME: 
CCS: -1
IONMODE: Negative
INSTRUMENTTYPE: LC-ESI-ITFT
INSTRUMENT: 
COLLISIONENERGY: 30
Comment: registered in MassBank
Num Peaks: 21
281.10999	1000
282.32001	121
283.45001	5
309.17001	17
337.10999	43
339.25	411
340.22	77
444.10999	20
460.04001	22
471.28	5
478.03	8
536.12	180
536.84003	33
537.54999	6
620.67999	7
713.09998	32
714.19	7
717.16998	18
718.45001	10
743.22998	12
744.03003	8

NAME: Phosphatidylethanolamine 22
PRECURSORMZ: 814.539229
PRECURSORTYPE: [M-H]-
FORMULA: C47H78NO8P
Ontology: Phosphatidylethanolamines
INCHIKEY: UBLNXNRMLGUFLE-SENCJFLLNA-N
SMILES: CCCCCCCC\C=C/C\C=C/C\C=C/C\C=C/CCC(=O)OCC(COP(O)(=O)OCCN)OC(=O)CC\C=C/C\C=C/C\C=C/C\C=C/CCCCCC
RETENTIONTIME: 
CCS: -1
IONMODE: Negative
INSTRUMENTTYPE: LC-ESI-ITFT
INSTRUMENT: 
COLLISIONENERGY: 30
Comment: registered in MassBank
Num Peaks: 16
259.32999	84
285.14001	15
295.10001	42
303.10999	1000
304.26001	48
331.12	790
332.34	45
499.98999	105
505.84	18
527.52002	72
528.21997	108
528.96997	57
652.87	60
740.07001	411
754.81	27
755.42999	24

NAME: Phosphatidylethanolamine 22
PRECURSORMZ: 838.539229
PRECURSORTYPE: [M-H]-
FORMULA: C49H78NO8P
Ontology: Phosphatidylethanolamines
INCHIKEY: UFXLSRZZVFZURD-YECZQSHBNA-N
SMILES: CCCCCCCC\C=C/C\C=C/C\C=C/C\C=C/CCC(=O)OCC(COP(O)(=O)OCCN)OC(=O)CC\C=C/C\C=C/C\C=C/C\C=C/C\C=C/C\C=C/CC
RETENTIONTIME: 
CCS: -1
IONMODE: Negative
INSTRUMENTTYPE: LC-ESI-ITFT
INSTRUMENT: 
COLLISIONENERGY: 30
Comment: registered in MassBank
Num Peaks: 28
248.78	13
265.26999	15
278.92999	13
283.13	699
287.32001	45
301.29999	23
303.25	41
309.14001	9
313.60001	17
327.06	1000
328.14999	119
330.47	32
331.12	939
332.03	121
354.97	29
437.35999	8
466.79001	7
510.20001	13
523.97998	113
528.03003	487
528.94	85
553	11
629.34998	12
686.52002	9
730.87	16
736.58002	8
751.53998	11
764.06	561

NAME: Phosphatidylethanolamine 22
PRECURSORMZ: 836.523578
PRECURSORTYPE: [M-H]-
FORMULA: C49H76NO8P
Ontology: Phosphatidylethanolamines
INCHIKEY: IWZCRDQSSLJDNV-CYFORYSFNA-N
SMILES: CCCCC\C=C/C\C=C/C\C=C/C\C=C/C\C=C/CCC(=O)OCC(COP(O)(=O)OCCN)OC(=O)CC\C=C/C\C=C/C\C=C/C\C=C/C\C=C/C\C=C/CC
RETENTIONTIME: 
CCS: 401.0170772
IONMODE: Negative
INSTRUMENTTYPE: LC-ESI-ITFT
INSTRUMENT: 
COLLISIONENERGY: 30
Comment: registered in MassBank
Num Peaks: 19
283.20001	327
284.07999	99
285.07999	49
286.23999	94
327.22	502
328.01001	108
329.12	422
330.09	188
508.26001	27
524.03998	63
525.33002	94
526.13	381
527.09003	188
760.20001	40
761.53003	265
762.22998	1000
776.57001	161
793.17999	36
836.63	36

NAME: Phosphatidylethanolamine 22
PRECURSORMZ: 834.507928
PRECURSORTYPE: [M-H]-
FORMULA: C49H74NO8P
Ontology: Phosphatidylethanolamines
INCHIKEY: RBDNSJMXMWTPCS-GZSOIYOPNA-N
SMILES: CC\C=C/C\C=C/C\C=C/C\C=C/C\C=C/C\C=C/CCC(=O)OCC(COP(O)(=O)OCCN)OC(=O)CC\C=C/C\C=C/C\C=C/C\C=C/C\C=C/C\C=C/CC
RETENTIONTIME: 
CCS: 426.1375328
IONMODE: Negative
INSTRUMENTTYPE: LC-ESI-ITFT
INSTRUMENT: 
COLLISIONENERGY: 30
Comment: registered in MassBank
Num Peaks: 17
283.17999	440
284.16	24
309.20001	20
327.01999	1000
327.95001	137
419	16
437.17001	12
450.07999	8
463.88	6
479.95999	28
506.13	18
524.22998	695
525.21997	55
746.88	97
747.59998	6
760.20001	24
790	24

NAME: Phosphatidylethanolamine 22
PRECURSORMZ: 862.539229
PRECURSORTYPE: [M-H]-
FORMULA: C51H78NO8P
Ontology: Phosphatidylethanolamines
INCHIKEY: RYRYLVYZMTURGB-RIJNFFOPNA-N
SMILES: CCCC\C=C/C\C=C/C\C=C/C\C=C/C\C=C/C\C=C/CCC(=O)OC(COC(=O)CC\C=C/C\C=C/C\C=C/C\C=C/C\C=C/C\C=C/CC)COP(O)(=O)OCCN
RETENTIONTIME: 
CCS: -1
IONMODE: Negative
INSTRUMENTTYPE: LC-ESI-ITFT
INSTRUMENT: 
COLLISIONENERGY: 30
Comment: registered in MassBank
Num Peaks: 15
267.85999	67
283.22	380
311.07001	221
312.13	43
327.23001	982
328.23001	43
355.04999	1000
356.20001	110
506.91	37
552.06	712
553.15002	294
685.78003	61
697.76001	31
788.21002	644
825.27002	25

NAME: Phosphatidylethanolamine 24
PRECURSORMZ: 866.570529
PRECURSORTYPE: [M-H]-
FORMULA: C51H82NO8P
Ontology: Phosphatidylethanolamines
INCHIKEY: OYZJPILFCCHSQR-UNVMLCDQNA-N
SMILES: CCCCCCCCCC\C=C/C\C=C/C\C=C/C\C=C/CCC(=O)OCC(COP(O)(=O)OCCN)OC(=O)CC\C=C/C\C=C/C\C=C/C\C=C/C\C=C/C\C=C/CC
RETENTIONTIME: 
CCS: -1
IONMODE: Negative
INSTRUMENTTYPE: LC-ESI-ITFT
INSTRUMENT: 
COLLISIONENERGY: 30
Comment: registered in MassBank
Num Peaks: 14
255.24001	86
283.03	296
283.64001	23
327.07999	679
328.25	7
359.22	1000
400.88	7
495.16	54
524.09003	32
556.14001	647
790.82001	13
792.17999	355
806.35999	22
807.03003	22

NAME: Phosphatidylethanolamine alkenyl 16
PRECURSORMZ: 730.575614
PRECURSORTYPE: [M-H]-
FORMULA: C41H82NO7P
Ontology: 1-(1Z-alkenyl),2-acylglycerophosphoethanolamines
INCHIKEY: LGFRBARRRZCSBV-PKUSAGTQNA-N
SMILES: CCCCCCCCCCCCCCCCCCCC(=O)OC(CO\C=C\CCCCCCCCCCCCCC)COP(O)(=O)OCCN
RETENTIONTIME: 
CCS: 354.1982842
IONMODE: Negative
INSTRUMENTTYPE: LC-ESI-ITFT
INSTRUMENT: 
COLLISIONENERGY: 30
Comment: registered in MassBank
Num Peaks: 12
238.98	9
283.23001	23
311.10001	1000
312.20999	138
418.07999	22
436.17999	175
437.34	14
438.32999	7
461.14001	6
464.22	8
648.21997	12
694.32001	8

NAME: Phosphatidylethanolamine alkenyl 16
PRECURSORMZ: 726.544314
PRECURSORTYPE: [M-H]-
FORMULA: C41H78NO7P
Ontology: 1-(1Z-alkenyl),2-acylglycerophosphoethanolamines
INCHIKEY: NDDBMPXGHSKRHS-CZAAGYDRNA-N
SMILES: CCCCCCCCCCCCCC\C=C\OCC(COP(O)(=O)OCCN)OC(=O)CC\C=C/C\C=C/CCCCCCCCCCCC
RETENTIONTIME: 
CCS: -1
IONMODE: Negative
INSTRUMENTTYPE: LC-ESI-ITFT
INSTRUMENT: 
COLLISIONENERGY: 30
Comment: registered in MassBank
Num Peaks: 13
281.10001	410
282.01999	53
307.14001	1000
308.23001	141
309.17999	23
418.28	47
419.22	7
435.35001	11
436.04001	130
437.17001	37
444.20999	13
462.09	69
463.17999	6

NAME: Phosphatidylethanolamine alkenyl 16
PRECURSORMZ: 724.528664
PRECURSORTYPE: [M-H]-
FORMULA: C41H76NO7P
Ontology: 1-(1Z-alkenyl),2-acylglycerophosphoethanolamines
INCHIKEY: QUEBLWWLERMNAP-RYYWRRNANA-N
SMILES: CCCCCCCCCCCCCC\C=C\OCC(COP(O)(=O)OCCN)OC(=O)CC\C=C/C\C=C/C\C=C/CCCCCCCCC
RETENTIONTIME: 
CCS: -1
IONMODE: Negative
INSTRUMENTTYPE: LC-ESI-ITFT
INSTRUMENT: 
COLLISIONENERGY: 30
Comment: registered in MassBank
Num Peaks: 11
281.26001	12
303.10999	19
305.04999	1000
306.19	117
418.19	17
418.94	10
426.39001	5
436.10999	181
437.17999	27
459.98001	10
651.84998	7

NAME: Phosphatidylethanolamine alkenyl 16
PRECURSORMZ: 722.513014
PRECURSORTYPE: [M-H]-
FORMULA: C41H74NO7P
Ontology: 1-(1Z-alkenyl),2-acylglycerophosphoethanolamines
INCHIKEY: QDRJMAHGAQYRIN-PKKQLAOCNA-N
SMILES: CCCCCCCCCCCCCC\C=C\OCC(COP(O)(=O)OCCN)OC(=O)CC\C=C/C\C=C/C\C=C/C\C=C/CCCCCC
RETENTIONTIME: 
CCS: -1
IONMODE: Negative
INSTRUMENTTYPE: LC-ESI-ITFT
INSTRUMENT: 
COLLISIONENERGY: 30
Comment: registered in MassBank
Num Peaks: 8
255.16	9
256.23999	7
259.01001	78
303.09	1000
304.07999	26
418.10999	44
436.09	361
437.20999	13

NAME: Phosphatidylethanolamine alkenyl 16
PRECURSORMZ: 720.497364
PRECURSORTYPE: [M-H]-
FORMULA: C41H72NO7P
Ontology: 1-(1Z-alkenyl),2-acylglycerophosphoethanolamines
INCHIKEY: RPMVRPOBBVLOLS-HAQSCEBBNA-N
SMILES: CCCCCCCCCCCCCC\C=C\OCC(COP(O)(=O)OCCN)OC(=O)CC\C=C/C\C=C/C\C=C/C\C=C/C\C=C/CCC
RETENTIONTIME: 
CCS: -1
IONMODE: Negative
INSTRUMENTTYPE: LC-ESI-ITFT
INSTRUMENT: 
COLLISIONENERGY: 30
Comment: registered in MassBank
Num Peaks: 19
256.95999	60
281.25	11
283.26001	31
301.07001	1000
302.10001	100
302.98999	94
304.13	17
417.42001	40
418.03	80
427.98001	54
434.23001	51
436.20001	423
436.95001	29
464.56	20
479.89999	11
575.91998	17
631.38	43
638.04999	77
700.53003	23

NAME: Phosphatidylethanolamine alkenyl 16
PRECURSORMZ: 750.544314
PRECURSORTYPE: [M-H]-
FORMULA: C43H78NO7P
Ontology: 1-(1Z-alkenyl),2-acylglycerophosphoethanolamines
INCHIKEY: RKVZUTPSIGLURV-BLAGHTKONA-N
SMILES: CCCCCCCCCCCCCC\C=C\OCC(COP(O)(=O)OCCN)OC(=O)CC\C=C/C\C=C/C\C=C/C\C=C/CCCCCCCC
RETENTIONTIME: 
CCS: -1
IONMODE: Negative
INSTRUMENTTYPE: LC-ESI-ITFT
INSTRUMENT: 
COLLISIONENERGY: 30
Comment: registered in MassBank
Num Peaks: 10
233.16	5
287.22	42
305.23999	17
329.10999	7
331.14999	1000
332.04999	95
375.14999	6
418.16	35
436.09	242
436.98001	20

NAME: Phosphatidylethanolamine alkenyl 16
PRECURSORMZ: 746.513014
PRECURSORTYPE: [M-H]-
FORMULA: C43H74NO7P
Ontology: 1-(1Z-alkenyl),2-acylglycerophosphoethanolamines
INCHIKEY: WVGALBKSWOUIEZ-ULUZTLKMNA-N
SMILES: CCCCCCCCCCCCCC\C=C\OCC(COP(O)(=O)OCCN)OC(=O)CC\C=C/C\C=C/C\C=C/C\C=C/C\C=C/C\C=C/CC
RETENTIONTIME: 
CCS: 377.0007354
IONMODE: Negative
INSTRUMENTTYPE: LC-ESI-ITFT
INSTRUMENT: 
COLLISIONENERGY: 30
Comment: registered in MassBank
Num Peaks: 18
229.07001	28
239.13	8
249.08	9
255.12	66
281.12	131
283.10999	536
283.98999	54
327.01999	1000
328.12	60
375.07999	9
391.13	9
417.10001	7
418.22	103
419.34	12
436.12	766
437.07001	56
465.04001	7
483.26999	14

NAME: Phosphatidylethanolamine alkenyl 17
PRECURSORMZ: 736.528664
PRECURSORTYPE: [M-H]-
FORMULA: C42H76NO7P
Ontology: 1-(1Z-alkenyl),2-acylglycerophosphoethanolamines
INCHIKEY: QTIWXGKYYKPQFH-FKQGHMTJNA-N
SMILES: CCCCCCCCCCCCCCC\C=C\OCC(COP(O)(=O)OCCN)OC(=O)CC\C=C/C\C=C/C\C=C/C\C=C/CCCCCC
RETENTIONTIME: 
CCS: -1
IONMODE: Negative
INSTRUMENTTYPE: LC-ESI-ITFT
INSTRUMENT: 
COLLISIONENERGY: 30
Comment: registered in MassBank
Num Peaks: 16
253.3	10
259.03	129
285.16	13
303.14001	1000
304.07999	187
389.06	34
426	26
432.09	100
450.07999	416
451.19	61
508.28	5
560.21997	14
652.98999	11
692.54999	26
704.37	23
716.71002	33

NAME: Phosphatidylethanolamine alkenyl 17
PRECURSORMZ: 764.559964
PRECURSORTYPE: [M-H]-
FORMULA: C44H80NO7P
Ontology: 1-(1Z-alkenyl),2-acylglycerophosphoethanolamines
INCHIKEY: HYJDBLFZSYMOCC-ORTLTHOANA-N
SMILES: CCCCCCCCCCCCCCC\C=C\OCC(COP(O)(=O)OCCN)OC(=O)CC\C=C/C\C=C/C\C=C/C\C=C/CCCCCCCC
RETENTIONTIME: 
CCS: -1
IONMODE: Negative
INSTRUMENTTYPE: LC-ESI-ITFT
INSTRUMENT: 
COLLISIONENERGY: 30
Comment: registered in MassBank
Num Peaks: 9
252.96001	13
287.23001	15
288.06	13
311.23001	8
331.14001	1000
332.23001	175
432.14999	41
450.16	217
451.10001	21

NAME: Phosphatidylethanolamine alkenyl 18
PRECURSORMZ: 702.544314
PRECURSORTYPE: [M-H]-
FORMULA: C39H78NO7P
Ontology: 1-(1Z-alkenyl),2-acylglycerophosphoethanolamines
INCHIKEY: HEASGCOZOMIKFU-WUVHBKSUNA-N
SMILES: CCCCCCCCCCCCCCCC\C=C\OCC(COP(O)(=O)OCCN)OC(=O)CCCCCCCCCCCCCCC
RETENTIONTIME: 
CCS: 332.1010262
IONMODE: Negative
INSTRUMENTTYPE: LC-ESI-ITFT
INSTRUMENT: 
COLLISIONENERGY: 30
Comment: registered in MassBank
Num Peaks: 6
255.08	1000
256.03	38
283.12	16
446.23999	54
464.12	231
465.25	19

NAME: Phosphatidylethanolamine alkenyl 18
PRECURSORMZ: 728.559964
PRECURSORTYPE: [M-H]-
FORMULA: C41H80NO7P
Ontology: 1-(1Z-alkenyl),2-acylglycerophosphoethanolamines
INCHIKEY: GJEZRMBBMQUCBS-NLBLVIAENA-N
SMILES: CCCCCCCCCCCCCCCC\C=C\OCC(COP(O)(=O)OCCN)OC(=O)CC\C=C/CCCCCCCCCCCCC
RETENTIONTIME: 
CCS: -1
IONMODE: Negative
INSTRUMENTTYPE: LC-ESI-ITFT
INSTRUMENT: 
COLLISIONENERGY: 30
Comment: registered in MassBank
Num Peaks: 7
281.12	1000
282.17001	47
309.32999	8
403.17001	5
446.20999	35
464.10001	215
465.22	13

NAME: Phosphatidylethanolamine alkenyl 18
PRECURSORMZ: 726.544314
PRECURSORTYPE: [M-H]-
FORMULA: C41H78NO7P
Ontology: 1-(1Z-alkenyl),2-acylglycerophosphoethanolamines
INCHIKEY: QBAQUPWJTLVJBD-CZAAGYDRNA-N
SMILES: CCCCCCCCCCCCCCCC\C=C\OCC(COP(O)(=O)OCCN)OC(=O)CC\C=C/C\C=C/CCCCCCCCCC
RETENTIONTIME: 
CCS: -1
IONMODE: Negative
INSTRUMENTTYPE: LC-ESI-ITFT
INSTRUMENT: 
COLLISIONENERGY: 30
Comment: registered in MassBank
Num Peaks: 12
279.04001	1000
280.12	115
281.07001	59
307.17001	69
308.20999	14
435.95999	7
445.48999	6
446.19	31
458.04999	6
462.22	18
464.19	182
465.07001	21

NAME: Phosphatidylethanolamine alkenyl 18
PRECURSORMZ: 758.606914
PRECURSORTYPE: [M-H]-
FORMULA: C43H86NO7P
Ontology: 1-(1Z-alkenyl),2-acylglycerophosphoethanolamines
INCHIKEY: ALJUYAAJNSNTHU-OBEQGSJMNA-N
SMILES: CCCCCCCCCCCCCCCCCCCC(=O)OC(CO\C=C\CCCCCCCCCCCCCCCC)COP(O)(=O)OCCN
RETENTIONTIME: 
CCS: 366.5125179
IONMODE: Negative
INSTRUMENTTYPE: LC-ESI-ITFT
INSTRUMENT: 
COLLISIONENERGY: 30
Comment: registered in MassBank
Num Peaks: 9
311.17999	1000
312.23001	182
339.28	43
436.20999	6
446.25	14
447.42001	6
464.16	202
465.23001	33
675.28998	6

NAME: Phosphatidylethanolamine alkenyl 18
PRECURSORMZ: 754.575614
PRECURSORTYPE: [M-H]-
FORMULA: C43H82NO7P
Ontology: 1-(1Z-alkenyl),2-acylglycerophosphoethanolamines
INCHIKEY: PWKATOOFMDDUBO-SGMJUNKUNA-N
SMILES: CCCCCCCCCCCCCCCC\C=C\OCC(COP(O)(=O)OCCN)OC(=O)CC\C=C/C\C=C/CCCCCCCCCCCC
RETENTIONTIME: 
CCS: -1
IONMODE: Negative
INSTRUMENTTYPE: LC-ESI-ITFT
INSTRUMENT: 
COLLISIONENERGY: 30
Comment: registered in MassBank
Num Peaks: 8
289.10001	8
307.14001	1000
308.17999	136
309.23999	25
335.28	8
446.26001	43
464.16	225
465.26001	19

NAME: Phosphatidylethanolamine alkenyl 18
PRECURSORMZ: 752.559964
PRECURSORTYPE: [M-H]-
FORMULA: C43H80NO7P
Ontology: 1-(1Z-alkenyl),2-acylglycerophosphoethanolamines
INCHIKEY: IAZMKBZMIIUNID-DXSDZVOINA-N
SMILES: CCCCCCCCCCCCCCCC\C=C\OCC(COP(O)(=O)OCCN)OC(=O)CC\C=C/C\C=C/C\C=C/CCCCCCCCC
RETENTIONTIME: 
CCS: -1
IONMODE: Negative
INSTRUMENTTYPE: LC-ESI-ITFT
INSTRUMENT: 
COLLISIONENERGY: 30
Comment: registered in MassBank
Num Peaks: 7
261.13	7
303.25	8
305.07999	1000
306.23999	130
446.20001	31
464.09	255
465.26999	26

NAME: Phosphatidylethanolamine alkenyl 18
PRECURSORMZ: 750.544314
PRECURSORTYPE: [M-H]-
FORMULA: C43H78NO7P
Ontology: 1-(1Z-alkenyl),2-acylglycerophosphoethanolamines
INCHIKEY: RZZGAMUARHRLJN-ZOWVHDLQNA-N
SMILES: CCCCCCCCCCCCCCCC\C=C\OCC(COP(O)(=O)OCCN)OC(=O)CC\C=C/C\C=C/C\C=C/C\C=C/CCCCCC
RETENTIONTIME: 
CCS: -1
IONMODE: Negative
INSTRUMENTTYPE: LC-ESI-ITFT
INSTRUMENT: 
COLLISIONENERGY: 30
Comment: registered in MassBank
Num Peaks: 7
259.07001	70
284.48999	8
303.04001	1000
304.04999	73
446.16	54
464.20999	389
465.35999	34

NAME: Phosphatidylethanolamine alkenyl 18
PRECURSORMZ: 748.528664
PRECURSORTYPE: [M-H]-
FORMULA: C43H76NO7P
Ontology: 1-(1Z-alkenyl),2-acylglycerophosphoethanolamines
INCHIKEY: UZKXXUJVNWVEAA-GWWWPDGYNA-N
SMILES: CCCCCCCCCCCCCCCC\C=C\OCC(COP(O)(=O)OCCN)OC(=O)CC\C=C/C\C=C/C\C=C/C\C=C/C\C=C/CCC
RETENTIONTIME: 
CCS: -1
IONMODE: Negative
INSTRUMENTTYPE: LC-ESI-ITFT
INSTRUMENT: 
COLLISIONENERGY: 30
Comment: registered in MassBank
Num Peaks: 20
257.09	146
258.04001	10
264.76999	13
283.16	89
284	13
285.37	12
301.04001	1000
301.91	84
303.01001	67
329.03	20
416.5	20
419.23001	7
436.26999	20
437.07001	15
446.17999	61
464.23999	382
465.29999	79
482.37	32
655.84998	7
711.19	13

NAME: Phosphatidylethanolamine alkenyl 18
PRECURSORMZ: 784.622564
PRECURSORTYPE: [M-H]-
FORMULA: C45H88NO7P
Ontology: 1-(1Z-alkenyl),2-acylglycerophosphoethanolamines
INCHIKEY: MIKCEBQQTIVKSQ-LITAQCTLNA-N
SMILES: CCCCCCCCCCCCCCCCC\C=C/CCC(=O)OC(CO\C=C\CCCCCCCCCCCCCCCC)COP(O)(=O)OCCN
RETENTIONTIME: 
CCS: -1
IONMODE: Negative
INSTRUMENTTYPE: LC-ESI-ITFT
INSTRUMENT: 
COLLISIONENERGY: 30
Comment: registered in MassBank
Num Peaks: 21
255.07001	9
267.60001	6
337.16	1000
338.28	201
339.41	9
351.06	10
365.10999	321
366.28	57
403.04999	6
404.35999	6
417.29001	7
419.01001	5
436.06	39
437.39001	8
446.23999	31
462.69	8
464.20999	139
465.23999	28
619.57001	5
629.21002	7
702.27002	23

NAME: Phosphatidylethanolamine alkenyl 18
PRECURSORMZ: 780.591264
PRECURSORTYPE: [M-H]-
FORMULA: C45H84NO7P
Ontology: 1-(1Z-alkenyl),2-acylglycerophosphoethanolamines
INCHIKEY: VBVLUHGCJVMQFI-DTZLILKHNA-N
SMILES: CCCCCCCCCCCCCCCC\C=C\OCC(COP(O)(=O)OCCN)OC(=O)CC\C=C/C\C=C/C\C=C/CCCCCCCCCCC
RETENTIONTIME: 
CCS: -1
IONMODE: Negative
INSTRUMENTTYPE: LC-ESI-ITFT
INSTRUMENT: 
COLLISIONENERGY: 30
Comment: registered in MassBank
Num Peaks: 13
331.13	23
333.14999	1000
334.16	114
335.32999	22
337.37	11
446.04001	21
464.20001	130
465.35001	8
466.14001	16
476.20001	10
660.29999	12
715.45001	6
752.81	6

NAME: Phosphatidylethanolamine alkenyl 18
PRECURSORMZ: 778.575614
PRECURSORTYPE: [M-H]-
FORMULA: C45H82NO7P
Ontology: 1-(1Z-alkenyl),2-acylglycerophosphoethanolamines
INCHIKEY: GZMXKUALKXYCMM-XSEHFSNENA-N
SMILES: CCCCCCCCCCCCCCCC\C=C\OCC(COP(O)(=O)OCCN)OC(=O)CC\C=C/C\C=C/C\C=C/C\C=C/CCCCCCCC
RETENTIONTIME: 
CCS: -1
IONMODE: Negative
INSTRUMENTTYPE: LC-ESI-ITFT
INSTRUMENT: 
COLLISIONENERGY: 30
Comment: registered in MassBank
Num Peaks: 7
287.07999	35
331.14999	1000
332.23999	94
446.16	41
447.26001	6
464.13	278
465.07001	32

NAME: Phosphatidylethanolamine alkenyl 18
PRECURSORMZ: 774.544314
PRECURSORTYPE: [M-H]-
FORMULA: C45H78NO7P
Ontology: 1-(1Z-alkenyl),2-acylglycerophosphoethanolamines
INCHIKEY: FIJFPUAJUDAZEY-NUANVQICNA-N
SMILES: CCCCCCCCCCCCCCCC\C=C\OCC(COP(O)(=O)OCCN)OC(=O)CC\C=C/C\C=C/C\C=C/C\C=C/C\C=C/C\C=C/CC
RETENTIONTIME: 
CCS: 346.2524854
IONMODE: Negative
INSTRUMENTTYPE: LC-ESI-ITFT
INSTRUMENT: 
COLLISIONENERGY: 30
Comment: registered in MassBank
Num Peaks: 11
229.12	21
249.06	18
281.23001	9
283.10999	518
284.04999	54
327.04999	989
328.23001	107
446.12	143
447.13	15
464.14999	1000
465.25	111

NAME: Phosphatidylethanolamine alkenyl 18
PRECURSORMZ: 806.606914
PRECURSORTYPE: [M-H]-
FORMULA: C47H86NO7P
Ontology: 1-(1Z-alkenyl),2-acylglycerophosphoethanolamines
INCHIKEY: LAUMCRQBKCWQHU-NKPKNEKKNA-N
SMILES: CCCCCCCCCCCCCCCC\C=C\OCC(COP(O)(=O)OCCN)OC(=O)CC\C=C/C\C=C/C\C=C/C\C=C/CCCCCCCCCC
RETENTIONTIME: 
CCS: -1
IONMODE: Negative
INSTRUMENTTYPE: LC-ESI-ITFT
INSTRUMENT: 
COLLISIONENERGY: 30
Comment: registered in MassBank
Num Peaks: 17
305.26999	9
315.51001	21
340.89001	8
359.14999	1000
360.25	327
402.89001	15
409.35001	6
446.16	17
464.26001	214
465.12	69
501.04001	6
665.34998	6
732.19	128
745.53998	14
762.65997	12
788.97998	6
805.71002	12

NAME: Phosphatidylethanolamine alkenyl 18
PRECURSORMZ: 804.591264
PRECURSORTYPE: [M-H]-
FORMULA: C47H84NO7P
Ontology: 1-(1Z-alkenyl),2-acylglycerophosphoethanolamines
INCHIKEY: OXSYLAKUJGJRGC-PBMCJBRHNA-N
SMILES: CCCCCCCCCCCCCCCC\C=C\OCC(COP(O)(=O)OCCN)OC(=O)CC\C=C/C\C=C/C\C=C/C\C=C/C\C=C/CCCCCCC
RETENTIONTIME: 
CCS: -1
IONMODE: Negative
INSTRUMENTTYPE: LC-ESI-ITFT
INSTRUMENT: 
COLLISIONENERGY: 30
Comment: registered in MassBank
Num Peaks: 31
229.47	9
256.07001	12
259.29999	7
273.01001	16
282.84	25
284.22	62
285.20001	7
310.44	14
313.25	101
314.20001	13
327.07999	101
328.19	58
357.07001	1000
358.12	158
432.98001	8
446.23999	82
447.32001	10
464.13	297
465.12	59
475.10001	7
492.29001	70
493.26999	72
494.23001	41
519.34998	8
649.21997	16
702.59998	18
703.42999	15
713.88	8
728.15002	7
730.15997	8
771.91998	7

NAME: Phosphatidylethanolamine alkenyl 18
PRECURSORMZ: 802.575614
PRECURSORTYPE: [M-H]-
FORMULA: C47H82NO7P
Ontology: 1-(1Z-alkenyl),2-acylglycerophosphoethanolamines
INCHIKEY: JKMKRFYKYHILMM-ZUVFDMEGNA-N
SMILES: CCCCCCCCCCCCCCCC\C=C\OCC(COP(O)(=O)OCCN)OC(=O)CC\C=C/C\C=C/C\C=C/C\C=C/C\C=C/C\C=C/CCCC
RETENTIONTIME: 
CCS: -1
IONMODE: Negative
INSTRUMENTTYPE: LC-ESI-ITFT
INSTRUMENT: 
COLLISIONENERGY: 30
Comment: registered in MassBank
Num Peaks: 23
257.22	9
276.85999	6
292.97	9
311.10001	76
312.45001	13
337.13	6
355.04001	1000
356.14999	177
403.17001	14
446.34	52
447.39001	21
455.23001	6
464.13	542
465.20999	74
565.56	6
716.45001	8
717.31	8
721.25	14
728.23999	14
741.70001	33
742.37	11
785.15002	6
801.83002	9

NAME: Phosphatidylethanolamine alkenyl 18
PRECURSORMZ: 726.544314
PRECURSORTYPE: [M-H]-
FORMULA: C41H78NO7P
Ontology: 1-(1Z-alkenyl),2-acylglycerophosphoethanolamines
INCHIKEY: IEKMVBFEEDNXGT-WECHNZQXNA-N
SMILES: CCCCCCCCCCCCC\C=C/CCC(=O)OC(CO\C=C\C\C=C/CCCCCCCCCCCCC)COP(O)(=O)OCCN
RETENTIONTIME: 
CCS: -1
IONMODE: Negative
INSTRUMENTTYPE: LC-ESI-ITFT
INSTRUMENT: 
COLLISIONENERGY: 30
Comment: registered in MassBank
Num Peaks: 5
281.16	1000
282.19	30
444.16	38
462.13	210
463.07001	9

NAME: Phosphatidylethanolamine alkenyl 18
PRECURSORMZ: 754.575614
PRECURSORTYPE: [M-H]-
FORMULA: C43H82NO7P
Ontology: 1-(1Z-alkenyl),2-acylglycerophosphoethanolamines
INCHIKEY: REJQSLUNBGQJLW-KHJLVCBXNA-N
SMILES: CCCCCCCCCCCCCCC\C=C/CCC(=O)OC(CO\C=C\C\C=C/CCCCCCCCCCCCC)COP(O)(=O)OCCN
RETENTIONTIME: 
CCS: -1
IONMODE: Negative
INSTRUMENTTYPE: LC-ESI-ITFT
INSTRUMENT: 
COLLISIONENERGY: 30
Comment: registered in MassBank
Num Peaks: 6
281.01999	14
309.06	1000
310.23999	85
444.12	37
462.10999	162
463.17999	14

NAME: Phosphatidylethanolamine alkenyl 18
PRECURSORMZ: 748.528664
PRECURSORTYPE: [M-H]-
FORMULA: C43H76NO7P
Ontology: 1-(1Z-alkenyl),2-acylglycerophosphoethanolamines
INCHIKEY: YJPYELPDWSEQHM-KTUZNUCGNA-N
SMILES: CCCCCCCCCCCCC\C=C/C\C=C\OCC(COP(O)(=O)OCCN)OC(=O)CC\C=C/C\C=C/C\C=C/C\C=C/CCCCCC
RETENTIONTIME: 
CCS: -1
IONMODE: Negative
INSTRUMENTTYPE: LC-ESI-ITFT
INSTRUMENT: 
COLLISIONENERGY: 30
Comment: registered in MassBank
Num Peaks: 7
259.12	100
283.41	5
303.07999	1000
304.20001	51
444.22	68
462.06	467
463.13	31

NAME: Phosphatidylethanolamine alkenyl 18
PRECURSORMZ: 780.591264
PRECURSORTYPE: [M-H]-
FORMULA: C45H84NO7P
Ontology: 1-(1Z-alkenyl),2-acylglycerophosphoethanolamines
INCHIKEY: AINWEGSZBADWKE-CFOOOPRVNA-N
SMILES: CCCCCCCCCCCCCC\C=C/C\C=C/CCC(=O)OC(CO\C=C\C\C=C/CCCCCCCCCCCCC)COP(O)(=O)OCCN
RETENTIONTIME: 
CCS: -1
IONMODE: Negative
INSTRUMENTTYPE: LC-ESI-ITFT
INSTRUMENT: 
COLLISIONENERGY: 30
Comment: registered in MassBank
Num Peaks: 17
307.35999	8
308.14001	6
309.22	46
310.20001	9
331.10001	47
332.09	47
333.25	15
335.12	1000
336.03	142
444.03	19
462.19	175
463.25	34
465.34	19
466.29999	8
618.5	8
719.94	9
780.96002	7

NAME: Phosphatidylethanolamine alkenyl 18
PRECURSORMZ: 776.559964
PRECURSORTYPE: [M-H]-
FORMULA: C45H80NO7P
Ontology: 1-(1Z-alkenyl),2-acylglycerophosphoethanolamines
INCHIKEY: LLGDMLIODPBDGJ-IVEVXDSTNA-N
SMILES: CCCCCCCCCCCCC\C=C/C\C=C\OCC(COP(O)(=O)OCCN)OC(=O)CC\C=C/C\C=C/C\C=C/C\C=C/CCCCCCCC
RETENTIONTIME: 
CCS: -1
IONMODE: Negative
INSTRUMENTTYPE: LC-ESI-ITFT
INSTRUMENT: 
COLLISIONENERGY: 30
Comment: registered in MassBank
Num Peaks: 10
233.16	6
287.16	37
288.22	5
331.13	1000
332.20999	111
401.04001	6
444.23999	34
445.19	7
462.06	247
463.10001	49

NAME: Phosphatidylethanolamine alkenyl 18
PRECURSORMZ: 772.528664
PRECURSORTYPE: [M-H]-
FORMULA: C45H76NO7P
Ontology: 1-(1Z-alkenyl),2-acylglycerophosphoethanolamines
INCHIKEY: MEWSEYMCACAAEE-YLACOYRINA-N
SMILES: CCCCCCCCCCCCC\C=C/C\C=C\OCC(COP(O)(=O)OCCN)OC(=O)CC\C=C/C\C=C/C\C=C/C\C=C/C\C=C/C\C=C/CC
RETENTIONTIME: 
CCS: -1
IONMODE: Negative
INSTRUMENTTYPE: LC-ESI-ITFT
INSTRUMENT: 
COLLISIONENERGY: 30
Comment: registered in MassBank
Num Peaks: 15
228.95	12
255.39	8
265.10999	6
281.16	27
282.45999	17
283.14001	523
284.29999	47
327.07001	1000
328.10001	68
401.03	16
416.98999	7
444.19	143
445.10999	15
462.10001	862
463.17001	100

NAME: Phosphatidylethanolamine alkenyl 18
PRECURSORMZ: 804.591264
PRECURSORTYPE: [M-H]-
FORMULA: C47H84NO7P
Ontology: 1-(1Z-alkenyl),2-acylglycerophosphoethanolamines
INCHIKEY: CGXFPCHJSFOKMF-ITNHFFAINA-N
SMILES: CCCCCCCCCCCCC\C=C/C\C=C\OCC(COP(O)(=O)OCCN)OC(=O)CC\C=C/C\C=C/C\C=C/C\C=C/CCCCCCCCCC
RETENTIONTIME: 
CCS: -1
IONMODE: Negative
INSTRUMENTTYPE: LC-ESI-ITFT
INSTRUMENT: 
COLLISIONENERGY: 30
Comment: registered in MassBank
Num Peaks: 11
315.22	41
341.19	11
359.17001	1000
360.17999	232
362.16	8
444.16	46
445.07001	16
462.10001	213
463.14999	48
717.39001	11
730.21002	161

NAME: Phosphatidylethanolamine alkenyl 19
PRECURSORMZ: 764.559964
PRECURSORTYPE: [M-H]-
FORMULA: C44H80NO7P
Ontology: 1-(1Z-alkenyl),2-acylglycerophosphoethanolamines
INCHIKEY: OVZSKAHQJGVGGL-JYQPGMKLNA-N
SMILES: CCCCCCCCCCCCCCCCC\C=C\OCC(COP(O)(=O)OCCN)OC(=O)CC\C=C/C\C=C/C\C=C/C\C=C/CCCCCC
RETENTIONTIME: 
CCS: -1
IONMODE: Negative
INSTRUMENTTYPE: LC-ESI-ITFT
INSTRUMENT: 
COLLISIONENERGY: 30
Comment: registered in MassBank
Num Peaks: 11
251.12	39
259.14999	122
281.37	51
303.12	1000
304.06	125
335.75	27
449.10001	20
460.03	27
461.45999	27
478.14999	545
690.58002	59

NAME: Phosphatidylethanolamine alkenyl 20
PRECURSORMZ: 802.575614
PRECURSORTYPE: [M-H]-
FORMULA: C47H82NO7P
Ontology: 1-(1Z-alkenyl),2-acylglycerophosphoethanolamines
INCHIKEY: GWWKPJFGKBNJDJ-DYEXTAMENA-N
SMILES: CCCCCCCCCCCCCCCCCC\C=C\OCC(COP(O)(=O)OCCN)OC(=O)CC\C=C/C\C=C/C\C=C/C\C=C/C\C=C/C\C=C/CC
RETENTIONTIME: 
CCS: -1
IONMODE: Negative
INSTRUMENTTYPE: LC-ESI-ITFT
INSTRUMENT: 
COLLISIONENERGY: 30
Comment: registered in MassBank
Num Peaks: 25
229.14999	21
254.97	17
256.28	17
283.17001	609
284.14001	68
309.04001	23
327.03	726
328.04999	116
431.04001	17
474.29001	196
475.07001	49
492.20999	1000
493.17001	208
641.15997	19
701.31	30
702.45001	12
715.47998	21
716.47998	17
717.97998	75
719.13	118
720.13	90
722.45001	14
741.35999	19
775.33002	9
785.40002	23

NAME: Phosphatidylethanolamine alkenyl 20
PRECURSORMZ: 800.559964
PRECURSORTYPE: [M-H]-
FORMULA: C47H80NO7P
Ontology: 1-(1Z-alkenyl),2-acylglycerophosphoethanolamines
INCHIKEY: GKRHXMAWUOFXDX-NRAOZCPZNA-N
SMILES: CCCCCCCCCCCCCCC\C=C/C\C=C\OCC(COP(O)(=O)OCCN)OC(=O)CC\C=C/C\C=C/C\C=C/C\C=C/C\C=C/C\C=C/CC
RETENTIONTIME: 
CCS: -1
IONMODE: Negative
INSTRUMENTTYPE: LC-ESI-ITFT
INSTRUMENT: 
COLLISIONENERGY: 30
Comment: registered in MassBank
Num Peaks: 24
249.35001	9
281.39999	23
283.07999	556
284.14999	35
306.32001	12
308.69	6
311.29001	25
327.13	730
328.04001	274
338.62	22
387.10001	38
431.26999	16
472.39001	57
473.23999	7
490.13	1000
491.17999	180
713.01001	29
713.91998	22
716.14001	35
717.33002	100
718.22998	287
719.35999	18
742.15997	73
768.72998	9

NAME: Phosphatidylethanolamine alkyl 16
PRECURSORMZ: 702.544314
PRECURSORTYPE: [M-H]-
FORMULA: C39H78NO7P
Ontology: 1-alkyl,2-acylglycerophosphoethanolamines
INCHIKEY: XDIGIEOFWXOONN-SGEDCAFJNA-N
SMILES: CCCCCCCCCCCCCCCCOCC(COP(O)(=O)OCCN)OC(=O)CC\C=C/CCCCCCCCCCCCC
RETENTIONTIME: 
CCS: -1
IONMODE: Negative
INSTRUMENTTYPE: LC-ESI-ITFT
INSTRUMENT: 
COLLISIONENERGY: 30
Comment: registered in MassBank
Num Peaks: 15
253	15
255.07001	102
256.29001	10
281.12	1000
282.26001	80
283.07999	7
301.97	5
377.07001	11
419.10001	6
420	21
438.16	325
439.22	26
464.25	32
659.14001	5
667.65997	5

NAME: Phosphatidylethanolamine alkyl 16
PRECURSORMZ: 724.528664
PRECURSORTYPE: [M-H]-
FORMULA: C41H76NO7P
Ontology: 1-alkyl,2-acylglycerophosphoethanolamines
INCHIKEY: MAYZJBKZHVGHAB-HNBVIXCXNA-N
SMILES: CCCCCCCCCCCCCCCCOCC(COP(O)(=O)OCCN)OC(=O)CC\C=C/C\C=C/C\C=C/C\C=C/CCCCCC
RETENTIONTIME: 
CCS: -1
IONMODE: Negative
INSTRUMENTTYPE: LC-ESI-ITFT
INSTRUMENT: 
COLLISIONENERGY: 30
Comment: registered in MassBank
Num Peaks: 17
259.19	80
260.07001	13
279.09	87
281.04999	40
282.17999	16
303.07001	1000
304.14001	108
377.12	6
378.13	12
420.20001	24
421.32001	15
438.17001	599
439.10999	103
462.23999	24
467.76001	16
486.82001	15
703.52002	5

NAME: Phosphatidylethanolamine alkyl 16
PRECURSORMZ: 752.559964
PRECURSORTYPE: [M-H]-
FORMULA: C43H80NO7P
Ontology: 1-alkyl,2-acylglycerophosphoethanolamines
INCHIKEY: LGZPAQOAFXJDTR-CBQGOMEFNA-N
SMILES: CCCCCCCCCCCCCCCCOCC(COP(O)(=O)OCCN)OC(=O)CC\C=C/C\C=C/C\C=C/C\C=C/CCCCCCCC
RETENTIONTIME: 
CCS: -1
IONMODE: Negative
INSTRUMENTTYPE: LC-ESI-ITFT
INSTRUMENT: 
COLLISIONENERGY: 30
Comment: registered in MassBank
Num Peaks: 19
281.20001	81
282.14001	5
287.10999	29
307.14999	1000
308.09	118
309.28	113
310.19	24
328.98999	7
331.09	571
332.16	75
420.29999	20
438.14001	199
439.17001	39
444.23999	39
460.06	21
462.17999	155
463.16	20
470.39999	6
488.25	8

NAME: Phosphatidylethanolamine alkyl 16
PRECURSORMZ: 748.528664
PRECURSORTYPE: [M-H]-
FORMULA: C43H76NO7P
Ontology: 1-alkyl,2-acylglycerophosphoethanolamines
INCHIKEY: JJMPYAHUHHQAJB-YKPVOZFUNA-N
SMILES: CCCCCCCCCCCCCCCCOCC(COP(O)(=O)OCCN)OC(=O)CC\C=C/C\C=C/C\C=C/C\C=C/C\C=C/C\C=C/CC
RETENTIONTIME: 
CCS: -1
IONMODE: Negative
INSTRUMENTTYPE: LC-ESI-ITFT
INSTRUMENT: 
COLLISIONENERGY: 30
Comment: registered in MassBank
Num Peaks: 27
229.06	19
230.2	6
249.36	9
250.25	6
259.04999	65
281.32999	6
283.17999	564
284.09	64
303.07001	510
304.14001	59
309.39999	16
327.06	956
328.07001	105
328.70001	5
377.01001	30
419.20999	7
420.10001	164
436.23999	15
438.14999	1000
439.12	110
439.79999	5
444.14001	34
462.16	169
462.89999	27
674.21002	5
688.97998	6
730.38	13

NAME: Phosphatidylethanolamine alkyl 18
PRECURSORMZ: 704.559964
PRECURSORTYPE: [M-H]-
FORMULA: C39H80NO7P
Ontology: 1-alkyl,2-acylglycerophosphoethanolamines
INCHIKEY: FENSRZKRANTRCP-UHFFFAOYNA-N
SMILES: CCCCCCCCCCCCCCCCCCOCC(COP(O)(=O)OCCN)OC(=O)CCCCCCCCCCCCCCC
RETENTIONTIME: 
CCS: -1
IONMODE: Negative
INSTRUMENTTYPE: LC-ESI-ITFT
INSTRUMENT: 
COLLISIONENERGY: 30
Comment: registered in MassBank
Num Peaks: 14
255.11	1000
256.23999	140
283.12	47
284.23001	31
420.31	5
438.10001	9
448.17001	43
466.23001	193
467.35001	22
621.46002	9
623.92999	7
644.79999	10
688.46002	7
704.83002	8

NAME: Phosphatidylethanolamine alkyl 18
PRECURSORMZ: 730.575614
PRECURSORTYPE: [M-H]-
FORMULA: C41H82NO7P
Ontology: 1-alkyl,2-acylglycerophosphoethanolamines
INCHIKEY: LULOMARGYGRZLR-HYOGKJQXNA-N
SMILES: CCCCCCCCCCCCCCCCCCOCC(COP(O)(=O)OCCN)OC(=O)CC\C=C/CCCCCCCCCCCCC
RETENTIONTIME: 
CCS: -1
IONMODE: Negative
INSTRUMENTTYPE: LC-ESI-ITFT
INSTRUMENT: 
COLLISIONENERGY: 30
Comment: registered in MassBank
Num Peaks: 8
281.10001	1000
282.22	125
309.26001	11
438.19	7
448.10001	32
449.23001	6
466.12	228
467.13	33

NAME: Phosphatidylethanolamine alkyl 18
PRECURSORMZ: 760.622564
PRECURSORTYPE: [M-H]-
FORMULA: C43H88NO7P
Ontology: 1-alkyl,2-acylglycerophosphoethanolamines
INCHIKEY: CBAHOKDELPGZAO-UHFFFAOYNA-N
SMILES: CCCCCCCCCCCCCCCCCCCC(=O)OC(COCCCCCCCCCCCCCCCCCC)COP(O)(=O)OCCN
RETENTIONTIME: 
CCS: -1
IONMODE: Negative
INSTRUMENTTYPE: LC-ESI-ITFT
INSTRUMENT: 
COLLISIONENERGY: 30
Comment: registered in MassBank
Num Peaks: 23
283.29999	31
311.17001	1000
312.16	340
313.45999	19
339.22	538
340.38	69
403.98001	85
417.14999	104
438.23999	157
439.17999	19
448.26001	57
466.17999	157
467.13	154
509.67001	41
527.79999	57
594.44	16
595.25	16
619.51001	47
678.26001	53
684.40002	41
692.69	113
700.15002	97
700.76001	72

NAME: Phosphatidylethanolamine alkyl 18
PRECURSORMZ: 758.606914
PRECURSORTYPE: [M-H]-
FORMULA: C43H86NO7P
Ontology: 1-alkyl,2-acylglycerophosphoethanolamines
INCHIKEY: WLQZPEPFGFEUCQ-GCUVURNUNA-N
SMILES: CCCCCCCCCCCCCCCCCCOCC(COP(O)(=O)OCCN)OC(=O)CC\C=C/CCCCCCCCCCCCCCC
RETENTIONTIME: 
CCS: -1
IONMODE: Negative
INSTRUMENTTYPE: LC-ESI-ITFT
INSTRUMENT: 
COLLISIONENERGY: 30
Comment: registered in MassBank
Num Peaks: 18
281.17001	84
282.16	55
283.25	13
309.12	1000
310.17999	159
311.17001	95
312.17001	24
337.17999	48
338.17999	15
438.20001	9
447.59	8
448.35001	23
464.07999	38
465.28	33
466.10999	192
467.23999	29
492.22	11
493.29001	14

NAME: Phosphatidylethanolamine alkyl 18
PRECURSORMZ: 752.559964
PRECURSORTYPE: [M-H]-
FORMULA: C43H80NO7P
Ontology: 1-alkyl,2-acylglycerophosphoethanolamines
INCHIKEY: DTYWTGFWGGLGBS-NZPWPDRSNA-N
SMILES: CCCCCCCCCCCCCCCCCCOCC(COP(O)(=O)OCCN)OC(=O)CC\C=C/C\C=C/C\C=C/C\C=C/CCCCCC
RETENTIONTIME: 
CCS: -1
IONMODE: Negative
INSTRUMENTTYPE: LC-ESI-ITFT
INSTRUMENT: 
COLLISIONENERGY: 30
Comment: registered in MassBank
Num Peaks: 12
259.09	74
303.14999	1000
304.14001	108
307.35001	15
309.20001	8
333.17001	114
334.29001	16
405.10001	12
435.82001	7
448.14999	49
466.10001	617
467.14999	107

NAME: Phosphatidylethanolamine alkyl 18
PRECURSORMZ: 780.591264
PRECURSORTYPE: [M-H]-
FORMULA: C45H84NO7P
Ontology: 1-alkyl,2-acylglycerophosphoethanolamines
INCHIKEY: ZGPUIIVBMRUOLZ-CXMGKGRNNA-N
SMILES: CCCCCCCCCCCCCCCCCCOCC(COP(O)(=O)OCCN)OC(=O)CC\C=C/C\C=C/C\C=C/C\C=C/CCCCCCCC
RETENTIONTIME: 
CCS: -1
IONMODE: Negative
INSTRUMENTTYPE: LC-ESI-ITFT
INSTRUMENT: 
COLLISIONENERGY: 30
Comment: registered in MassBank
Num Peaks: 11
287.23001	46
306.92001	5
331.09	1000
332.14999	156
334.95999	5
361.22	8
405.32001	6
448.31	32
449.23001	6
466.20999	292
467.22	48

NAME: Phosphatidylethanolamine alkyl 18
PRECURSORMZ: 776.559964
PRECURSORTYPE: [M-H]-
FORMULA: C45H80NO7P
Ontology: 1-alkyl,2-acylglycerophosphoethanolamines
INCHIKEY: CFLIAMAPAOTPGM-NPBPTTFKNA-N
SMILES: CCCCCCCCCCCCCCCCCCOCC(COP(O)(=O)OCCN)OC(=O)CC\C=C/C\C=C/C\C=C/C\C=C/C\C=C/C\C=C/CC
RETENTIONTIME: 
CCS: -1
IONMODE: Negative
INSTRUMENTTYPE: LC-ESI-ITFT
INSTRUMENT: 
COLLISIONENERGY: 30
Comment: registered in MassBank
Num Peaks: 23
229.19	13
231.02	7
232.33	7
249.22	10
281.23001	7
283.14999	335
284.22	37
285.12	103
286.09	17
290.31	7
327.07999	674
328.26999	138
329.14001	1000
330.16	104
405.22	14
446.17001	65
448.10999	138
464.14999	454
466.12	865
467.25	85
508.29999	14
688.03003	9
702.21997	615

NAME: Phosphatidylethanolamine alkyl 18
PRECURSORMZ: 756.591264
PRECURSORTYPE: [M-H]-
FORMULA: C43H84NO7P
Ontology: 1-alkyl,2-acylglycerophosphoethanolamines
INCHIKEY: MECYDABSYWGKLH-SZDCHMHBNA-N
SMILES: CCCCCCCCCCCCCCC\C=C/CCC(=O)OC(COCCC\C=C/CCCCCCCCCCCCC)COP(O)(=O)OCCN
RETENTIONTIME: 
CCS: -1
IONMODE: Negative
INSTRUMENTTYPE: LC-ESI-ITFT
INSTRUMENT: 
COLLISIONENERGY: 30
Comment: registered in MassBank
Num Peaks: 11
281.20001	17
282.39001	12
306.95001	6
309.07001	1000
310.04999	188
311.04999	24
446.04999	28
447.20999	6
464.22	223
465.07999	24
674.04999	12

NAME: Phosphatidylethanolamine alkyl 18
PRECURSORMZ: 784.622564
PRECURSORTYPE: [M-H]-
FORMULA: C45H88NO7P
Ontology: 1-alkyl,2-acylglycerophosphoethanolamines
INCHIKEY: QJORDLMKMATKBL-WANSBIPINA-N
SMILES: CCCCCCCCCCCCCCCCC\C=C/CCC(=O)OC(COCCC\C=C/CCCCCCCCCCCCC)COP(O)(=O)OCCN
RETENTIONTIME: 
CCS: -1
IONMODE: Negative
INSTRUMENTTYPE: LC-ESI-ITFT
INSTRUMENT: 
COLLISIONENERGY: 30
Comment: registered in MassBank
Num Peaks: 26
281.28	12
282.35999	5
309.23999	49
310.28	24
335.01001	9
337.10001	1000
338.29999	197
339.20999	25
340.26001	30
363.31	5
364.17001	9
403.20999	6
446.17001	24
463.20001	5
464.20999	164
465.12	39
492.45001	21
501.37	7
603.28998	5
620.27002	13
621.35999	129
622.22998	8
696.79999	6
701.23999	6
702.33002	19
765.15997	6

NAME: Phosphatidylethanolamine lyso 16
PRECURSORMZ: 452.278263
PRECURSORTYPE: [M-H]-
FORMULA: C21H44NO7P
Ontology: 2-acyl-sn-glycero-3-phosphoethanolamines
INCHIKEY: CKPBBEOJHAPPBT-UHFFFAOYNA-N
SMILES: CCCCCCCCCCCCCCCC(=O)OC(CO)COP(O)(=O)OCCN
RETENTIONTIME: 
CCS: 251.8398466
IONMODE: Negative
INSTRUMENTTYPE: LC-ESI-ITFT
INSTRUMENT: 
COLLISIONENERGY: 30
Comment: registered in MassBank
Num Peaks: 3
196.00999	19
213.99001	24
255.14999	1000

NAME: Phosphatidylethanolamine lyso 18
PRECURSORMZ: 480.309563
PRECURSORTYPE: [M-H]-
FORMULA: C23H48NO7P
Ontology: 2-acyl-sn-glycero-3-phosphoethanolamines
INCHIKEY: KIHAGWUUUHJRMS-UHFFFAOYNA-N
SMILES: CCCCCCCCCCCCCCCCCC(=O)OC(CO)COP(O)(=O)OCCN
RETENTIONTIME: 
CCS: 264.1964953
IONMODE: Negative
INSTRUMENTTYPE: LC-ESI-ITFT
INSTRUMENT: 
COLLISIONENERGY: 30
Comment: registered in MassBank
Num Peaks: 4
195.89999	21
213.95	10
283.06	1000
284.14999	22

NAME: Phosphatidylethanolamine lyso 18
PRECURSORMZ: 478.293913
PRECURSORTYPE: [M-H]-
FORMULA: C23H46NO7P
Ontology: 2-acyl-sn-glycero-3-phosphoethanolamines
INCHIKEY: FEVAUEZKXSRQPS-PFONDFGANA-N
SMILES: CCCCCCCCCCCCC\C=C/CCC(=O)OC(CO)COP(O)(=O)OCCN
RETENTIONTIME: 
CCS: -1
IONMODE: Negative
INSTRUMENTTYPE: LC-ESI-ITFT
INSTRUMENT: 
COLLISIONENERGY: 30
Comment: registered in MassBank
Num Peaks: 3
213.97	14
281.12	1000
302.94	17

NAME: Phosphatidylethanolamine lyso 20
PRECURSORMZ: 506.325213
PRECURSORTYPE: [M-H]-
FORMULA: C25H50NO7P
Ontology: 2-acyl-sn-glycero-3-phosphoethanolamines
INCHIKEY: URXPORXPKXWHEF-MSUUIHNZNA-N
SMILES: CCCCCCCCCCCCCCC\C=C/CCC(=O)OC(CO)COP(O)(=O)OCCN
RETENTIONTIME: 
CCS: -1
IONMODE: Negative
INSTRUMENTTYPE: LC-ESI-ITFT
INSTRUMENT: 
COLLISIONENERGY: 30
Comment: registered in MassBank
Num Peaks: 5
309.19	1000
310.07999	55
418.48001	11
424.62	9
488.64999	12

NAME: Phosphatidylethanolamine lyso 20
PRECURSORMZ: 500.278263
PRECURSORTYPE: [M-H]-
FORMULA: C25H44NO7P
Ontology: 2-acyl-sn-glycero-3-phosphoethanolamines
INCHIKEY: SOFGMCJQWLTKCE-ZKWNWVNENA-N
SMILES: CCCCCC\C=C/C\C=C/C\C=C/C\C=C/CCC(=O)OC(CO)COP(O)(=O)OCCN
RETENTIONTIME: 
CCS: -1
IONMODE: Negative
INSTRUMENTTYPE: LC-ESI-ITFT
INSTRUMENT: 
COLLISIONENERGY: 30
Comment: registered in MassBank
Num Peaks: 7
195.85001	6
204.88	5
213.86	29
259.09	46
302.98999	1000
304.04999	8
358.60999	9

NAME: Phosphatidylethanolamine lyso 22
PRECURSORMZ: 528.309563
PRECURSORTYPE: [M-H]-
FORMULA: C27H48NO7P
Ontology: 2-acyl-sn-glycero-3-phosphoethanolamines
INCHIKEY: FGMFOVUNMMIBGB-SNPVRQPZNA-N
SMILES: CCCCCCCC\C=C/C\C=C/C\C=C/C\C=C/CCC(=O)OC(CO)COP(O)(=O)OCCN
RETENTIONTIME: 
CCS: -1
IONMODE: Negative
INSTRUMENTTYPE: LC-ESI-ITFT
INSTRUMENT: 
COLLISIONENERGY: 30
Comment: registered in MassBank
Num Peaks: 7
213.97	16
287.10999	37
288.07001	7
331.09	1000
332.20999	136
446.07999	20
446.79999	15

NAME: Phosphatidylethanolamine lyso 22
PRECURSORMZ: 524.278263
PRECURSORTYPE: [M-H]-
FORMULA: C27H44NO7P
Ontology: 2-acyl-sn-glycero-3-phosphoethanolamines
INCHIKEY: TWBVHOYVCUOMJY-KUBAVDMBNA-N
SMILES: CC\C=C/C\C=C/C\C=C/C\C=C/C\C=C/C\C=C/CCC(=O)OC(CO)COP(O)(=O)OCCN
RETENTIONTIME: 
CCS: 293.7164849
IONMODE: Negative
INSTRUMENTTYPE: LC-ESI-ITFT
INSTRUMENT: 
COLLISIONENERGY: 30
Comment: registered in MassBank
Num Peaks: 10
176.94	7
191.07001	34
195.81	6
213.89999	44
229.05	33
248.86	10
283.03	483
309.07001	6
327.03	1000
328.14001	12

NAME: Phosphatidylethanolamine lyso alkenyl 16
PRECURSORMZ: 436.283348
PRECURSORTYPE: [M-H]-
FORMULA: C21H44NO6P
Ontology: Glycerophosphoethanolamines
INCHIKEY: LULXDGNUFGVYDS-BMRADRMJNA-N
SMILES: CCCCCCCCCCCCCC\C=C\OC(CO)COP(O)(=O)OCCN
RETENTIONTIME: 
CCS: -1
IONMODE: Negative
INSTRUMENTTYPE: LC-ESI-ITFT
INSTRUMENT: 
COLLISIONENERGY: 30
Comment: registered in MassBank
Num Peaks: 17
139.71001	115
152.57001	23
165.99001	6
195.85001	1000
196.89999	27
208.2	9
235.97	7
239.06	236
240.27	11
280.95001	6
337.72	20
340.04001	16
375.01999	741
376.12	40
393.12	19
408.04001	16
420.48001	11

NAME: Phosphatidylethanolamine lyso alkenyl 18
PRECURSORMZ: 464.314648
PRECURSORTYPE: [M-H]-
FORMULA: C23H48NO6P
Ontology: Glycerophosphoethanolamines
INCHIKEY: RGAPGIRIYHJSJY-HTXNQAPBNA-N
SMILES: CCCCCCCCCCCCCCCC\C=C\OC(CO)COP(O)(=O)OCCN
RETENTIONTIME: 
CCS: -1
IONMODE: Negative
INSTRUMENTTYPE: LC-ESI-ITFT
INSTRUMENT: 
COLLISIONENERGY: 30
Comment: registered in MassBank
Num Peaks: 15
136.09	5
139.82001	55
181.14	8
195.91	1000
196.85001	57
235.69	5
264.84	6
267.14999	196
268.23999	57
381.69	21
403.07999	499
404.14999	119
404.89999	9
421.85001	12
447.62	16

NAME: Phosphatidylethanolamine lyso alkenyl 18
PRECURSORMZ: 462.298998
PRECURSORTYPE: [M-H]-
FORMULA: C23H46NO6P
Ontology: Glycerophosphoethanolamines
INCHIKEY: KBMHJSYYECHZKI-QOLMDKRLNA-N
SMILES: CCCCCCCCCCCCC\C=C/C\C=C\OC(CO)COP(O)(=O)OCCN
RETENTIONTIME: 
CCS: -1
IONMODE: Negative
INSTRUMENTTYPE: LC-ESI-ITFT
INSTRUMENT: 
COLLISIONENERGY: 30
Comment: registered in MassBank
Num Peaks: 11
139.78999	73
152.89999	6
195.91	1000
196.78999	19
265.13	223
266.17001	19
401.01001	548
402.26001	81
417.94	6
418.98001	19
445.29001	9

NAME: Phosphatidylglyceride 16
PRECURSORMZ: 769.502509
PRECURSORTYPE: [M-H]-
FORMULA: C42H75O10P
Ontology: Phosphatidylglycerols
INCHIKEY: UAEIOGMLUFANFU-WRDNLCFKNA-N
SMILES: CCCCCCCCCCCCCCCC(=O)OCC(COP(O)(=O)OCC(O)CO)OC(=O)CC\C=C/C\C=C/C\C=C/C\C=C/CCCCCC
RETENTIONTIME: 
CCS: -1
IONMODE: Negative
INSTRUMENTTYPE: LC-ESI-ITFT
INSTRUMENT: 
COLLISIONENERGY: 30
Comment: registered in MassBank
Num Peaks: 23
255.00999	646
256.13	19
257.17999	30
260.34	35
270.42999	27
283.54999	46
303	1000
304.19	60
327.04999	84
460.28	139
465.23001	117
466.16	35
483.06	177
483.98001	16
485.82999	14
604.46002	27
622	35
657.97998	22
687.42999	54
708.63	16
709.69	14
719.23999	54
726.14001	44

NAME: Phosphatidylglyceride 18
PRECURSORMZ: 797.533809
PRECURSORTYPE: [M-H]-
FORMULA: C44H79O10P
Ontology: Phosphatidylglycerols
INCHIKEY: ZLCQYNUSDYQZNJ-NQWSYULSNA-N
SMILES: CCCCCCCCCCCCCCCCCC(=O)OCC(COP(O)(=O)OCC(O)CO)OC(=O)CC\C=C/C\C=C/C\C=C/C\C=C/CCCCCC
RETENTIONTIME: 
CCS: -1
IONMODE: Negative
INSTRUMENTTYPE: LC-ESI-ITFT
INSTRUMENT: 
COLLISIONENERGY: 30
Comment: registered in MassBank
Num Peaks: 20
259.12	143
260.26999	7
283.09	435
284.07999	79
285.16	6
303.07999	1000
304.06	137
306.17999	7
418.95999	107
419.75	34
420.51999	6
437.42001	8
493.07999	73
493.85001	14
511.06	251
512.14001	74
513.08002	29
531.15997	13
619.79999	8
710.38	7

NAME: Phosphatidylglyceride 18
PRECURSORMZ: 821.533809
PRECURSORTYPE: [M-H]-
FORMULA: C46H79O10P
Ontology: Phosphatidylglycerols
INCHIKEY: CLQKBJHAUYGCOB-HSBBONCLNA-N
SMILES: CCCCCCCCCCCCCCCCCC(=O)OCC(COP(O)(=O)OCC(O)CO)OC(=O)CC\C=C/C\C=C/C\C=C/C\C=C/C\C=C/C\C=C/CC
RETENTIONTIME: 
CCS: 415.2281126
IONMODE: Negative
INSTRUMENTTYPE: LC-ESI-ITFT
INSTRUMENT: 
COLLISIONENERGY: 30
Comment: registered in MassBank
Num Peaks: 35
256.73999	9
269.29999	11
283.17999	312
284.12	35
299.16	5
303.17999	31
315.09	6
326.98999	216
327.98999	24
405.20001	13
406.76999	6
418.98999	14
423	10
462.88	9
493.17001	17
509.95999	13
511.14001	114
512.17999	14
537.38	16
538.21997	11
539.12	63
540.16998	131
541.25	59
565.34998	6
719.13	10
722.67999	5
732.97998	143
734.16998	69
738.08002	1000
739.12	486
746.23999	8
770.14001	5
802.57001	6
804.22998	5
820.37	159

NAME: Phosphatidylglyceride 18
PRECURSORMZ: 795.518159
PRECURSORTYPE: [M-H]-
FORMULA: C44H77O10P
Ontology: Phosphatidylglycerols
INCHIKEY: ITIOHRDVKOPUBF-MOYSMJPMNA-N
SMILES: CCCCCCCCCCCCC\C=C/CCC(=O)OCC(COP(O)(=O)OCC(O)CO)OC(=O)CC\C=C/C\C=C/C\C=C/C\C=C/CCCCCC
RETENTIONTIME: 
CCS: -1
IONMODE: Negative
INSTRUMENTTYPE: LC-ESI-ITFT
INSTRUMENT: 
COLLISIONENERGY: 30
Comment: registered in MassBank
Num Peaks: 14
259.31	163
281.07001	1000
283.37	27
303.04999	551
304.09	54
507.20001	41
508.53	48
561.54999	27
588.40997	34
730.69	694
731.65002	163
737.01001	102
745.28998	150
798.96002	109

NAME: Phosphatidylglyceride 18
PRECURSORMZ: 819.518159
PRECURSORTYPE: [M-H]-
FORMULA: C46H77O10P
Ontology: Phosphatidylglycerols
INCHIKEY: VGGGUMPTGJTNFQ-QRPORDCINA-N
SMILES: CCCCCCCCCCCCC\C=C/CCC(=O)OCC(COP(O)(=O)OCC(O)CO)OC(=O)CC\C=C/C\C=C/C\C=C/C\C=C/C\C=C/C\C=C/CC
RETENTIONTIME: 
CCS: -1
IONMODE: Negative
INSTRUMENTTYPE: LC-ESI-ITFT
INSTRUMENT: 
COLLISIONENERGY: 30
Comment: registered in MassBank
Num Peaks: 18
249.16	91
281.07001	1000
282.19	266
283.19	133
284.20001	49
303.73001	56
327	420
328.16	161
329.04001	63
416.06	140
465.13	98
537.15997	84
582.12	112
718.5	70
745.32001	98
762.54999	224
812.01001	112
819.92999	182

NAME: Phosphatidylglyceride 17
PRECURSORMZ: 817.502509
PRECURSORTYPE: [M-H]-
FORMULA: C46H75O10P
Ontology: Phosphatidylglycerols
INCHIKEY: QVDNNCVPBKNHNS-XPMHQQHXNA-N
SMILES: CCCCCCCCCC\C=C/C\C=C/CCC(=O)OCC(COP(O)(=O)OCC(O)CO)OC(=O)CC\C=C/C\C=C/C\C=C/C\C=C/C\C=C/C\C=C/CC
RETENTIONTIME: 
CCS: -1
IONMODE: Negative
INSTRUMENTTYPE: LC-ESI-ITFT
INSTRUMENT: 
COLLISIONENERGY: 30
Comment: registered in MassBank
Num Peaks: 25
248.92	67
279.07001	1000
280.26001	288
283.13	317
303.10001	500
327.04001	558
327.97	173
463.20001	96
508.26999	67
530.84998	125
536.92999	144
538.07001	48
550.63	67
555.21002	106
556.08002	67
638.60999	67
641.31	38
675.22998	221
693.03998	48
719.22998	58
729.07001	144
734.33002	115
735.90002	106
742.91998	163
798.76001	38

NAME: Phosphatidylglyceride 20
PRECURSORMZ: 841.502509
PRECURSORTYPE: [M-H]-
FORMULA: C48H75O10P
Ontology: Phosphatidylglycerols
INCHIKEY: WAHLPBOVXFIGAP-YARNEYDXNA-N
SMILES: CCCCCC\C=C/C\C=C/C\C=C/C\C=C/CCC(=O)OCC(COP(O)(=O)OCC(O)CO)OC(=O)CC\C=C/C\C=C/C\C=C/C\C=C/C\C=C/C\C=C/CC
RETENTIONTIME: 
CCS: -1
IONMODE: Negative
INSTRUMENTTYPE: LC-ESI-ITFT
INSTRUMENT: 
COLLISIONENERGY: 30
Comment: registered in MassBank
Num Peaks: 14
283.20001	283
303.01999	1000
304.07001	137
309.44	35
327.10001	425
328.29001	44
391.89001	31
441.19	97
456.78	27
509.14001	71
555.08002	88
585.77002	31
737.29999	102
758.15997	53

NAME: Phosphatidylglyceride 22
PRECURSORMZ: 867.518159
PRECURSORTYPE: [M-H]-
FORMULA: C50H77O10P
Ontology: Phosphatidylglycerols
INCHIKEY: XHLZURIDNJOINR-WBRRUXEENA-N
SMILES: CCCCC\C=C/C\C=C/C\C=C/C\C=C/C\C=C/CCC(=O)OC(COC(=O)CC\C=C/C\C=C/C\C=C/C\C=C/C\C=C/C\C=C/CC)COP(O)(=O)OCC(O)CO
RETENTIONTIME: 
CCS: 432.3055905
IONMODE: Negative
INSTRUMENTTYPE: LC-ESI-ITFT
INSTRUMENT: 
COLLISIONENERGY: 30
Comment: registered in MassBank
Num Peaks: 4
283.20999	200
329.10001	1000
557.53998	300
601.78998	550

NAME: Phosphatidylglyceride 22
PRECURSORMZ: 865.502509
PRECURSORTYPE: [M-H]-
FORMULA: C50H75O10P
Ontology: Phosphatidylglycerols
INCHIKEY: XACKZSRNTPEYBU-GZSOIYOPNA-N
SMILES: CC\C=C/C\C=C/C\C=C/C\C=C/C\C=C/C\C=C/CCC(=O)OCC(COP(O)(=O)OCC(O)CO)OC(=O)CC\C=C/C\C=C/C\C=C/C\C=C/C\C=C/C\C=C/CC
RETENTIONTIME: 
CCS: 424.3166899
IONMODE: Negative
INSTRUMENTTYPE: LC-ESI-ITFT
INSTRUMENT: 
COLLISIONENERGY: 30
Comment: registered in MassBank
Num Peaks: 15
283.12	320
284.12	39
327.14001	1000
328.23001	130
536.71997	56
555.13	66
565.53998	24
634.14001	44
689.33002	10
744.65997	20
750.32001	17
783.90002	34
785.16998	29
790.84998	17
813.38	64

NAME: Phosphatidylinositol 16
PRECURSORMZ: 835.534203
PRECURSORTYPE: [M-H]-
FORMULA: C43H81O13P
Ontology: Phosphatidylinositols
INCHIKEY: IBBOEPTXNHPBRH-AFOMSZMQSA-N
SMILES: CCCCCCCCCCCCCCCC(=O)OCC(COP(O)(=O)O[C@H]1[C@H](O)[C@@H](O)[C@H](O)[C@@H](O)[C@H]1O)OC(=O)CC\C=C/CCCCCCCCCCCCC
RETENTIONTIME: 
CCS: -1
IONMODE: Negative
INSTRUMENTTYPE: LC-ESI-ITFT
INSTRUMENT: 
COLLISIONENERGY: 30
Comment: registered in MassBank
Num Peaks: 30
240.85001	112
255.07001	166
256.17999	19
281.04999	273
282.14001	34
296.92001	76
298.98999	18
315.01001	16
315.89999	5
391.04999	202
392.04999	26
409.17001	10
417.01001	159
418.09	19
435.17999	7
525.15002	66
526.15002	15
553.09003	1000
554.09998	200
571.07001	60
572.09003	11
579.10999	735
580.12	207
597.10999	39
598.22998	9
607.20001	65
608.26001	10
747.98999	7
834.34998	10
835.42999	37

NAME: Phosphatidylinositol 16
PRECURSORMZ: 859.534203
PRECURSORTYPE: [M-H]-
FORMULA: C45H81O13P
Ontology: Phosphatidylinositols
INCHIKEY: TYVNWAWTRSCTFD-PSOMHJJNSA-N
SMILES: CCCCCCCCCCCCCCCC(=O)OCC(COP(O)(=O)O[C@H]1[C@H](O)[C@@H](O)[C@H](O)[C@@H](O)[C@H]1O)OC(=O)CC\C=C/C\C=C/C\C=C/CCCCCCCCC
RETENTIONTIME: 
CCS: -1
IONMODE: Negative
INSTRUMENTTYPE: LC-ESI-ITFT
INSTRUMENT: 
COLLISIONENERGY: 30
Comment: registered in MassBank
Num Peaks: 25
254.74001	372
255.39999	157
296.91	140
305.23999	169
305.94	116
391.12	1000
391.94	233
441.09	163
461.29999	58
462.07001	64
528.89001	52
553.23999	936
554.28998	151
571.21002	215
572.12	41
603.17999	308
604.02002	58
624.65002	87
654.84003	145
696.95001	29
698.03998	122
771.34998	180
772.34998	116
773.26001	140
785.03998	209

NAME: Phosphatidylinositol 16
PRECURSORMZ: 857.518553
PRECURSORTYPE: [M-H]-
FORMULA: C45H79O13P
Ontology: Phosphatidylinositols
INCHIKEY: QAOYQEIOBPZFPB-VHZSRAIHSA-N
SMILES: CCCCCCCCCCCCCCCC(=O)OCC(COP(O)(=O)O[C@H]1[C@H](O)[C@@H](O)[C@H](O)[C@@H](O)[C@H]1O)OC(=O)CC\C=C/C\C=C/C\C=C/C\C=C/CCCCCC
RETENTIONTIME: 
CCS: -1
IONMODE: Negative
INSTRUMENTTYPE: LC-ESI-ITFT
INSTRUMENT: 
COLLISIONENERGY: 30
Comment: registered in MassBank
Num Peaks: 23
240.96001	61
241.83	11
255.09	457
256.20999	43
259.10001	44
296.94	211
297.92001	11
303.09	270
304.09	37
314.92001	21
391.01999	696
392.03	83
409.12	21
438.39999	6
439.04999	69
439.76999	7
553.13	1000
554.04999	231
570.97998	213
572.19	75
601.08002	205
602.09998	40
618.92999	16

NAME: Phosphatidylinositol 16
PRECURSORMZ: 855.502903
PRECURSORTYPE: [M-H]-
FORMULA: C45H77O13P
Ontology: Phosphatidylinositols
INCHIKEY: CTYGZBOFLKSVSJ-AYZKUARYSA-N
SMILES: CCCCCCCCCCCCCCCC(=O)OCC(COP(O)(=O)O[C@H]1[C@H](O)[C@@H](O)[C@H](O)[C@@H](O)[C@H]1O)OC(=O)CC\C=C/C\C=C/C\C=C/C\C=C/C\C=C/CCC
RETENTIONTIME: 
CCS: -1
IONMODE: Negative
INSTRUMENTTYPE: LC-ESI-ITFT
INSTRUMENT: 
COLLISIONENERGY: 30
Comment: registered in MassBank
Num Peaks: 30
240.94	18
241.91	27
255.14	293
256.09	58
257.89001	40
285.09	31
297.01999	222
301.17999	173
304	111
315.03	31
390.87	444
392.14001	58
437.07999	89
437.70999	18
439.89999	31
440.81	133
456.92999	40
551.39001	27
553.13	1000
554.10999	351
570.91998	196
572.40997	49
597.64001	36
598.96002	400
600.15002	27
660.5	58
693.20001	89
765.32001	49
767.98999	796
768.98999	262

NAME: Phosphatidylinositol 16
PRECURSORMZ: 833.518553
PRECURSORTYPE: [M-H]-
FORMULA: C43H79O13P
Ontology: Phosphatidylinositols
INCHIKEY: KIDMVLLBZCDJPI-BDZOPLRHSA-N
SMILES: CCCCCCCCCCCCC\C=C/CCC(=O)OC(COC(=O)CC\C=C/CCCCCCCCCCC)COP(O)(=O)O[C@H]1[C@H](O)[C@@H](O)[C@H](O)[C@@H](O)[C@H]1O
RETENTIONTIME: 
CCS: -1
IONMODE: Negative
INSTRUMENTTYPE: LC-ESI-ITFT
INSTRUMENT: 
COLLISIONENERGY: 30
Comment: registered in MassBank
Num Peaks: 17
240.75999	160
281.06	1000
283.20001	259
296.56	99
388.67999	148
417.03	778
418.89001	136
435.23999	49
550.96002	309
552.07001	457
579.27002	679
580.12	148
597.19	457
745.84998	222
747.21997	123
750.84998	173
833.35999	86

NAME: Phosphatidylinositol 16
PRECURSORMZ: 855.502903
PRECURSORTYPE: [M-H]-
FORMULA: C45H77O13P
Ontology: Phosphatidylinositols
INCHIKEY: BYKLOOOZTSWGPM-PREZKPSWSA-N
SMILES: CCCCCCCCCCC\C=C/CCC(=O)OCC(COP(O)(=O)O[C@H]1[C@H](O)[C@@H](O)[C@H](O)[C@@H](O)[C@H]1O)OC(=O)CC\C=C/C\C=C/C\C=C/C\C=C/CCCCCC
RETENTIONTIME: 
CCS: -1
IONMODE: Negative
INSTRUMENTTYPE: LC-ESI-ITFT
INSTRUMENT: 
COLLISIONENERGY: 30
Comment: registered in MassBank
Num Peaks: 13
240.85001	75
253.31	65
297.13	131
388.89999	626
438.82999	252
509.06	75
551.06	1000
569.13	542
570	150
601.13	271
768	75
769.03998	112
781.27002	187

NAME: Phosphatidylinositol 17
PRECURSORMZ: 871.534203
PRECURSORTYPE: [M-H]-
FORMULA: C46H81O13P
Ontology: Phosphatidylinositols
INCHIKEY: DFLHJZQZIPIWSG-VAUUZOHPSA-N
SMILES: CCCCCCCCCCCCCCCCC(=O)OCC(COP(O)(=O)O[C@H]1[C@H](O)[C@@H](O)[C@H](O)[C@@H](O)[C@H]1O)OC(=O)CC\C=C/C\C=C/C\C=C/C\C=C/CCCCCC
RETENTIONTIME: 
CCS: -1
IONMODE: Negative
INSTRUMENTTYPE: LC-ESI-ITFT
INSTRUMENT: 
COLLISIONENERGY: 30
Comment: registered in MassBank
Num Peaks: 31
259.07001	22
269.25	422
270.12	47
297	89
300.85999	6
303.12	111
303.88	13
314.89999	5
327.22	12
328.14001	26
404.17999	10
404.97	345
405.78	49
417.03	6
423.51001	26
439.10999	44
440.10999	22
526.09003	16
543.07001	12
567.03998	771
568.08002	98
585.21002	167
586.37	12
601.09003	178
602.06	6
618.58002	8
619.22998	16
708.76001	14
783.91998	24
788.58002	363
789.22998	1000

NAME: Phosphatidylinositol 18
PRECURSORMZ: 887.565503
PRECURSORTYPE: [M-H]-
FORMULA: C47H85O13P
Ontology: Phosphatidylinositols
INCHIKEY: IVPVQEZYLVFIGH-FLPISHNPSA-N
SMILES: CCCCCCCCCCCCCCCCCC(=O)OCC(COP(O)(=O)O[C@H]1[C@H](O)[C@@H](O)[C@H](O)[C@@H](O)[C@H]1O)OC(=O)CC\C=C/C\C=C/C\C=C/CCCCCCCCC
RETENTIONTIME: 
CCS: -1
IONMODE: Negative
INSTRUMENTTYPE: LC-ESI-ITFT
INSTRUMENT: 
COLLISIONENERGY: 30
Comment: registered in MassBank
Num Peaks: 25
283.07999	681
284.10001	62
296.85001	153
305.17999	250
315.07999	6
419.07001	756
420.10001	81
440.91	56
448.5	29
486.48001	18
506.84	13
581.21997	1000
582.13	53
583.15997	11
599.01001	167
600	37
603.03003	211
604.09998	22
621.31	16
625.21997	30
725.23999	59
783.15002	10
800.64001	22
825.62	18
887.59998	38

NAME: Phosphatidylinositol 18
PRECURSORMZ: 885.549853
PRECURSORTYPE: [M-H]-
FORMULA: C47H83O13P
Ontology: Phosphatidylinositols
INCHIKEY: QTBZDDLLDFZGQX-KVUJAYRISA-N
SMILES: CCCCCCCCCCCCCCCCCC(=O)OCC(COP(O)(=O)O[C@H]1[C@H](O)[C@@H](O)[C@H](O)[C@@H](O)[C@H]1O)OC(=O)CC\C=C/C\C=C/C\C=C/C\C=C/CCCCCC
RETENTIONTIME: 
CCS: -1
IONMODE: Negative
INSTRUMENTTYPE: LC-ESI-ITFT
INSTRUMENT: 
COLLISIONENERGY: 30
Comment: registered in MassBank
Num Peaks: 18
259.10999	14
283.12	608
284.09	42
296.95001	150
303.13	155
303.89999	7
314.91	12
419.04999	574
419.95999	15
437.03	19
439.01001	77
581.08002	1000
582.12	104
599.08002	260
600.58002	99
601.21997	168
602.15997	17
619.09998	16

NAME: Phosphatidylinositol 18
PRECURSORMZ: 913.581153
PRECURSORTYPE: [M-H]-
FORMULA: C49H87O13P
Ontology: Phosphatidylinositols
INCHIKEY: LBMMQTGWTSTFIZ-WJEBLFDXSA-N
SMILES: CCCCCCCCCCCCCCCCCC(=O)OCC(COP(O)(=O)O[C@H]1[C@H](O)[C@@H](O)[C@H](O)[C@@H](O)[C@H]1O)OC(=O)CC\C=C/C\C=C/C\C=C/C\C=C/CCCCCCCC
RETENTIONTIME: 
CCS: -1
IONMODE: Negative
INSTRUMENTTYPE: LC-ESI-ITFT
INSTRUMENT: 
COLLISIONENERGY: 30
Comment: registered in MassBank
Num Peaks: 16
283.09	662
284.09	26
296.98001	182
331.23001	156
332.22	20
419.03	534
420.07999	43
466.91	34
468.09	48
581.09998	1000
581.90997	142
582.53998	20
599.09998	173
629.02002	324
630.20001	17
826.38	34

NAME: Phosphatidylinositol 18
PRECURSORMZ: 909.549853
PRECURSORTYPE: [M-H]-
FORMULA: C49H83O13P
Ontology: Phosphatidylinositols
INCHIKEY: DJVOKHFQPGWUPK-CONVNOKZSA-N
SMILES: CCCCCCCCCCCCCCCCCC(=O)OCC(COP(O)(=O)O[C@H]1[C@H](O)[C@@H](O)[C@H](O)[C@@H](O)[C@H]1O)OC(=O)CC\C=C/C\C=C/C\C=C/C\C=C/C\C=C/C\C=C/CC
RETENTIONTIME: 
CCS: 418.8282198
IONMODE: Negative
INSTRUMENTTYPE: LC-ESI-ITFT
INSTRUMENT: 
COLLISIONENERGY: 30
Comment: registered in MassBank
Num Peaks: 23
258.69	16
283.12	479
284.19	42
296.92001	83
297.85001	35
314.88	14
327.14001	138
419.01001	422
420.17999	101
462.48001	19
463.13	155
483.10999	14
489.28	25
581.12	1000
581.94	67
598.98999	357
599.62	9
600.23999	28
624.88	87
626.32001	7
749.21997	32
750.26001	28
822.10999	41

NAME: Phosphatidylinositol 18
PRECURSORMZ: 863.565503
PRECURSORTYPE: [M-H]-
FORMULA: C45H85O13P
Ontology: Phosphatidylinositols
INCHIKEY: WQMQEJCRDIIRGN-VWFGVUABSA-N
SMILES: CCCCCCCCCCCCCCCCCC(=O)OC(COC(=O)CC\C=C/CCCCCCCCCCCCC)COP(O)(=O)O[C@H]1[C@H](O)[C@@H](O)[C@H](O)[C@@H](O)[C@H]1O
RETENTIONTIME: 
CCS: -1
IONMODE: Negative
INSTRUMENTTYPE: LC-ESI-ITFT
INSTRUMENT: 
COLLISIONENERGY: 30
Comment: registered in MassBank
Num Peaks: 34
258.92001	21
281.13	206
282.12	62
283.23999	824
284.16	119
296.91	182
297.95001	14
298.92001	6
314.75	35
417.07999	58
419.03	851
420.06	105
437.01999	8
525.28998	9
526.06	6
579.08002	415
580.48999	201
581.14001	1000
582.09003	258
597.13	10
599.06	200
600.03998	79
669.08002	8
701.40997	8
716.46997	10
719.66998	8
750.17999	6
752.39001	13
775.37	23
776.12	36
777.23999	10
781.72998	7
862.23999	190
863.54999	43

NAME: Phosphatidylinositol 18
PRECURSORMZ: 861.549853
PRECURSORTYPE: [M-H]-
FORMULA: C45H83O13P
Ontology: Phosphatidylinositols
INCHIKEY: OEIRDSPUMTVTLZ-ZKCAXHNESA-N
SMILES: CCCCCCCCCCCCC\C=C/CCC(=O)OCC(COP(O)(=O)O[C@H]1[C@H](O)[C@@H](O)[C@H](O)[C@@H](O)[C@H]1O)OC(=O)CC\C=C/CCCCCCCCCCCCC
RETENTIONTIME: 
CCS: -1
IONMODE: Negative
INSTRUMENTTYPE: LC-ESI-ITFT
INSTRUMENT: 
COLLISIONENERGY: 30
Comment: registered in MassBank
Num Peaks: 19
240.86	7
281.10999	157
282.12	35
296.89999	34
298.98999	9
299.88	6
417.01999	187
418.10001	15
435.10001	12
551.09003	164
551.98999	49
579.15002	1000
580.15997	251
597.02002	56
598.15997	7
607.13	115
608.19	44
774.03998	7
861.14001	42

NAME: Phosphatidylinositol 20
PRECURSORMZ: 905.518553
PRECURSORTYPE: [M-H]-
FORMULA: C49H79O13P
Ontology: Phosphatidylinositols
INCHIKEY: BQGBJGDIIRNCBP-WLQFNMGVSA-N
SMILES: CCCCCC\C=C/C\C=C/C\C=C/C\C=C/CCC(=O)OCC(COP(O)(=O)O[C@H]1[C@H](O)[C@@H](O)[C@H](O)[C@@H](O)[C@H]1O)OC(=O)CC\C=C/C\C=C/C\C=C/C\C=C/CCCCCC
RETENTIONTIME: 
CCS: -1
IONMODE: Negative
INSTRUMENTTYPE: LC-ESI-ITFT
INSTRUMENT: 
COLLISIONENERGY: 30
Comment: registered in MassBank
Num Peaks: 16
258.85999	59
284.29999	32
303.01999	376
303.95999	172
327.20001	45
415.12	18
438.98001	516
439.85001	181
457.38	63
577.03003	27
596.28003	41
600.95001	1000
602.01001	299
619.16998	389
712.44	63
905.63	68

NAME: Phosphatidylinositol lyso 16
PRECURSORMZ: 571.288887
PRECURSORTYPE: [M-H]-
FORMULA: C25H49O12P
Ontology: 2-acyl-sn-glycerol-3-phosphoinositols
INCHIKEY: NUDRHGDMWNFXMD-PYXWJOJKSA-N
SMILES: CCCCCCCCCCCCCCCC(=O)OC(CO)COP(O)(=O)O[C@H]1[C@H](O)[C@@H](O)[C@H](O)[C@@H](O)[C@H]1O
RETENTIONTIME: 
CCS: -1
IONMODE: Negative
INSTRUMENTTYPE: LC-ESI-ITFT
INSTRUMENT: 
COLLISIONENERGY: 30
Comment: registered in MassBank
Num Peaks: 20
222.96001	24
240.91	420
241.85001	77
255.10001	1000
256.26001	121
314.95999	522
315.87	24
332.89001	188
391.17001	643
409.29001	82
428.97	565
460.95001	111
484.14999	101
490.25	106
497	14
499.42999	68
510.97	24
527.65002	39
552.32001	29
557.40002	19

NAME: Phosphatidylinositol lyso 18
PRECURSORMZ: 599.320187
PRECURSORTYPE: [M-H]-
FORMULA: C27H53O12P
Ontology: 2-acyl-sn-glycerol-3-phosphoinositols
INCHIKEY: AGVRWBBFKKEVAX-WAPMBQLLSA-N
SMILES: CCCCCCCCCCCCCCCCCC(=O)OC(CO)COP(O)(=O)O[C@H]1[C@H](O)[C@@H](O)[C@H](O)[C@@H](O)[C@H]1O
RETENTIONTIME: 
CCS: 275.2004289
IONMODE: Negative
INSTRUMENTTYPE: LC-ESI-ITFT
INSTRUMENT: 
COLLISIONENERGY: 30
Comment: registered in MassBank
Num Peaks: 13
222.88	37
240.84	527
241.95	7
283.10001	1000
284.14001	125
314.92001	407
315.94	15
333.01999	18
370.87	11
419.03	607
419.97	63
437.16	10
571	6

NAME: Phosphatidylinositol lyso 20
PRECURSORMZ: 619.288887
PRECURSORTYPE: [M-H]-
FORMULA: C29H49O12P
Ontology: 2-acyl-sn-glycerol-3-phosphoinositols
INCHIKEY: GCTCZDZDLCVEBR-BMBRPNNFSA-N
SMILES: CCCCCC\C=C/C\C=C/C\C=C/C\C=C/CCC(=O)OC(CO)COP(O)(=O)O[C@H]1[C@H](O)[C@@H](O)[C@H](O)[C@@H](O)[C@H]1O
RETENTIONTIME: 
CCS: -1
IONMODE: Negative
INSTRUMENTTYPE: LC-ESI-ITFT
INSTRUMENT: 
COLLISIONENERGY: 30
Comment: registered in MassBank
Num Peaks: 20
199.89	71
204.84	152
223.10001	61
240.78999	525
303.26001	1000
304	111
314.98001	828
332.78	71
409.79001	232
439.20001	343
444.81	81
474.88	61
477.01999	162
536.40002	444
537.15997	141
558.62	414
559.71997	111
576.41998	131
601.15997	212
620.88	81

NAME: Phosphatidylserine 16
PRECURSORMZ: 806.497758
PRECURSORTYPE: [M-H]-
FORMULA: C44H74NO10P
Ontology: Phosphatidylserines
INCHIKEY: PWBBJQOVCTWPIM-LGFBOSHVNA-N
SMILES: CCCCCCCCCCCCCCCC(=O)OCC(COP(O)(=O)OCC(N)C(O)=O)OC(=O)CC\C=C/C\C=C/C\C=C/C\C=C/C\C=C/C\C=C/CC
RETENTIONTIME: 
CCS: 392.052821
IONMODE: Negative
INSTRUMENTTYPE: LC-ESI-ITFT
INSTRUMENT: 
COLLISIONENERGY: 30
Comment: registered in MassBank
Num Peaks: 20
255.17999	41
256.39001	6
391.09	175
392.31	14
409.13	87
409.85999	6
463.03	15
551.07001	23
553.09998	147
601.71997	14
702.34998	14
715.95001	10
719.06	1000
720.07001	424
723.97998	19
731.91998	18
742.63	21
747.13	9
805.09998	18
806.21997	37

NAME: Phosphatidylserine 18
PRECURSORMZ: 816.576008
PRECURSORTYPE: [M-H]-
FORMULA: C44H84NO10P
Ontology: Phosphatidylserines
INCHIKEY: CWSHAMZVMDYRSO-GCUVURNUNA-N
SMILES: CCCCCCCCCCCCCCCCCC(=O)OCC(COP(O)(=O)OCC(N)C(O)=O)OC(=O)CC\C=C/CCCCCCCCCCCCCCC
RETENTIONTIME: 
CCS: -1
IONMODE: Negative
INSTRUMENTTYPE: LC-ESI-ITFT
INSTRUMENT: 
COLLISIONENERGY: 30
Comment: registered in MassBank
Num Peaks: 13
281.26999	6
282.94	33
309.14999	27
417.04999	15
419.04999	105
420.14999	36
437.17999	24
445.09	47
447.19	29
448.19	7
729.09998	1000
730.09003	334
742.20001	7

NAME: Phosphatidylserine 18
PRECURSORMZ: 814.560358
PRECURSORTYPE: [M-H]-
FORMULA: C44H82NO10P
Ontology: Phosphatidylserines
INCHIKEY: XYOBNNJBURXNAH-QIPJBBGZNA-N
SMILES: CCCCCCCCCCCCCCCCCC(=O)OCC(COP(O)(=O)OCC(N)C(O)=O)OC(=O)CC\C=C/C\C=C/CCCCCCCCCCCC
RETENTIONTIME: 
CCS: -1
IONMODE: Negative
INSTRUMENTTYPE: LC-ESI-ITFT
INSTRUMENT: 
COLLISIONENERGY: 30
Comment: registered in MassBank
Num Peaks: 21
398.98001	15
417.14001	58
419.13	130
435.16	9
443.16	35
444.92001	72
445.85001	15
529.76001	19
548.29999	28
698.98999	15
709.85999	24
714.15002	11
716.23999	11
717.34003	24
726.57001	180
727.17999	1000
728.14001	750
744.16998	19
744.98999	6
753.03003	15
754.65997	108

NAME: Phosphatidylserine 18
PRECURSORMZ: 812.544708
PRECURSORTYPE: [M-H]-
FORMULA: C44H80NO10P
Ontology: Phosphatidylserines
INCHIKEY: JRRYKGRILWVSHS-JCXYTCFZNA-N
SMILES: CCCCCCCCCCCCCCCCCC(=O)OCC(COP(O)(=O)OCC(N)C(O)=O)OC(=O)CC\C=C/C\C=C/C\C=C/CCCCCCCCC
RETENTIONTIME: 
CCS: -1
IONMODE: Negative
INSTRUMENTTYPE: LC-ESI-ITFT
INSTRUMENT: 
COLLISIONENERGY: 30
Comment: registered in MassBank
Num Peaks: 13
283.20001	52
305.22	12
305.97	10
419.06	153
420.10999	37
422.45001	10
436.98001	33
440.92999	62
441.85001	10
723.59003	29
724.44	186
725.17999	1000
726.09003	354

NAME: Phosphatidylserine 18
PRECURSORMZ: 810.529058
PRECURSORTYPE: [M-H]-
FORMULA: C44H78NO10P
Ontology: Phosphatidylserines
INCHIKEY: AENVCOSUVDLDFA-NQWSYULSNA-N
SMILES: CCCCCCCCCCCCCCCCCC(=O)OCC(COP(O)(=O)OCC(N)C(O)=O)OC(=O)CC\C=C/C\C=C/C\C=C/C\C=C/CCCCCC
RETENTIONTIME: 
CCS: -1
IONMODE: Negative
INSTRUMENTTYPE: LC-ESI-ITFT
INSTRUMENT: 
COLLISIONENERGY: 30
Comment: registered in MassBank
Num Peaks: 13
281.20001	6
283.10999	59
284.14999	9
303.20001	12
417.10001	6
419	166
420.12	22
437.20001	31
438.38	19
439.12	28
722.48999	97
723.10999	1000
724.20001	290

NAME: Phosphatidylserine 18
PRECURSORMZ: 838.560358
PRECURSORTYPE: [M-H]-
FORMULA: C46H82NO10P
Ontology: Phosphatidylserines
INCHIKEY: IKWBXMMMFROIHT-BPSDUUPONA-N
SMILES: CCCCCCCCCCCCCCCCCC(=O)OCC(COP(O)(=O)OCC(N)C(O)=O)OC(=O)CC\C=C/C\C=C/C\C=C/C\C=C/CCCCCCCC
RETENTIONTIME: 
CCS: -1
IONMODE: Negative
INSTRUMENTTYPE: LC-ESI-ITFT
INSTRUMENT: 
COLLISIONENERGY: 30
Comment: registered in MassBank
Num Peaks: 12
283.20001	44
331.20001	17
419.10001	99
420.16	10
437.04001	29
467.01999	34
553.06	9
554.15997	30
581.12	12
582.10999	16
751.03998	1000
752.12	106

NAME: Phosphatidylserine 18
PRECURSORMZ: 836.544708
PRECURSORTYPE: [M-H]-
FORMULA: C46H80NO10P
Ontology: Phosphatidylserines
INCHIKEY: KMPUODCMAGXMDR-WZARRQHINA-N
SMILES: CCCCCCCCCCCCCCCCCC(=O)OCC(COP(O)(=O)OCC(N)C(O)=O)OC(=O)CC\C=C/C\C=C/C\C=C/C\C=C/C\C=C/CCCCC
RETENTIONTIME: 
CCS: 368.65133
IONMODE: Negative
INSTRUMENTTYPE: LC-ESI-ITFT
INSTRUMENT: 
COLLISIONENERGY: 30
Comment: registered in MassBank
Num Peaks: 17
283.17001	55
284.14999	7
329.25	9
419.09	140
420.17001	13
436.97	24
465.07001	38
524.23999	16
524.96997	19
748.91998	1000
750.09998	163
751.19	9
762.23999	9
767.91998	14
818.23999	7
835.40002	26
836.46002	67

NAME: Phosphatidylserine 18
PRECURSORMZ: 834.529058
PRECURSORTYPE: [M-H]-
FORMULA: C46H78NO10P
Ontology: Phosphatidylserines
INCHIKEY: LYYHRRPTEXPVOR-HSBBONCLNA-N
SMILES: CCCCCCCCCCCCCCCCCC(=O)OCC(COP(O)(=O)OCC(N)C(O)=O)OC(=O)CC\C=C/C\C=C/C\C=C/C\C=C/C\C=C/C\C=C/CC
RETENTIONTIME: 
CCS: 404.9164861
IONMODE: Negative
INSTRUMENTTYPE: LC-ESI-ITFT
INSTRUMENT: 
COLLISIONENERGY: 30
Comment: registered in MassBank
Num Peaks: 8
283.09	58
418.98001	152
437.01001	26
462.98999	31
553.07001	68
579.09998	46
747.01001	1000
748.16998	70

NAME: Phosphatidylserine 18
PRECURSORMZ: 788.544708
PRECURSORTYPE: [M-H]-
FORMULA: C42H80NO10P
Ontology: Phosphatidylserines
INCHIKEY: IPZRENQGCCSGRE-OHYPFYFLNA-N
SMILES: CCCCCCCCCCCCCCCCCC(=O)OC(COC(=O)CC\C=C/CCCCCCCCCCCCC)COP(O)(=O)OCC(N)C(O)=O
RETENTIONTIME: 
CCS: -1
IONMODE: Negative
INSTRUMENTTYPE: LC-ESI-ITFT
INSTRUMENT: 
COLLISIONENERGY: 30
Comment: registered in MassBank
Num Peaks: 8
281.19	15
283.20001	41
416.98001	44
418.95001	133
420.07999	17
437.10001	22
701.16998	1000
702.21997	208

NAME: Phosphatidylserine 18
PRECURSORMZ: 786.529058
PRECURSORTYPE: [M-H]-
FORMULA: C42H78NO10P
Ontology: Phosphatidylserines
INCHIKEY: JTUPNPXBWXOEFZ-ZUELCTOONA-N
SMILES: CCCCCCCCCCCCC\C=C/CCC(=O)OCC(COP(O)(=O)OCC(N)C(O)=O)OC(=O)CC\C=C/CCCCCCCCCCCCC
RETENTIONTIME: 
CCS: -1
IONMODE: Negative
INSTRUMENTTYPE: LC-ESI-ITFT
INSTRUMENT: 
COLLISIONENERGY: 30
Comment: registered in MassBank
Num Peaks: 7
281.10999	61
282.26001	8
416.95001	148
418.12	30
435.07001	34
699.13	1000
700.10999	217

NAME: Phosphatidylserine 18
PRECURSORMZ: 814.560358
PRECURSORTYPE: [M-H]-
FORMULA: C44H82NO10P
Ontology: Phosphatidylserines
INCHIKEY: OHVPXIJWGQXNSY-SZDCHMHBNA-N
SMILES: CCCCCCCCCCCCCCC\C=C/CCC(=O)OC(COC(=O)CC\C=C/CCCCCCCCCCCCC)COP(O)(=O)OCC(N)C(O)=O
RETENTIONTIME: 
CCS: -1
IONMODE: Negative
INSTRUMENTTYPE: LC-ESI-ITFT
INSTRUMENT: 
COLLISIONENERGY: 30
Comment: registered in MassBank
Num Peaks: 26
281.14999	16
283.32001	6
284.25	14
305.20999	14
309.22	54
310.22	15
327.92999	6
417	82
418.95999	34
420.07999	9
435.17999	7
437.64001	9
439.17001	8
441.87	6
445.01999	143
446.04001	34
463.25	25
522.20001	14
564.06	7
701.02002	9
725.14001	48
726.56	594
727.20001	1000
728.28998	523
752.77002	10
773.84998	5

NAME: Phosphatidylserine 18
PRECURSORMZ: 844.607308
PRECURSORTYPE: [M-H]-
FORMULA: C46H88NO10P
Ontology: Phosphatidylserines
INCHIKEY: RGMUYILZSPVWSQ-FPODKLOTNA-N
SMILES: CCCCCCCCCCCCCCCCCCCCCC(=O)OC(COC(=O)CC\C=C/CCCCCCCCCCCCC)COP(O)(=O)OCC(N)C(O)=O
RETENTIONTIME: 
CCS: -1
IONMODE: Negative
INSTRUMENTTYPE: LC-ESI-ITFT
INSTRUMENT: 
COLLISIONENERGY: 30
Comment: registered in MassBank
Num Peaks: 25
281.10999	8
283.20999	14
339.37	40
340.12	9
367.56	15
403.14999	13
417.29999	5
444.92001	41
447.09	8
473.06	7
475.25	131
476.25	9
493.03	18
493.82001	8
516.04999	5
680.96997	15
691.76001	8
704.13	5
757.25	1000
758.29999	166
762.64001	42
770.16998	17
772.40002	18
780.83002	15
800.67999	14

NAME: Phosphatidylserine 18
PRECURSORMZ: 832.513408
PRECURSORTYPE: [M-H]-
FORMULA: C46H76NO10P
Ontology: Phosphatidylserines
INCHIKEY: ZBHJZQBBODCTLM-QRPORDCINA-N
SMILES: CCCCCCCCCCCCC\C=C/CCC(=O)OCC(COP(O)(=O)OCC(N)C(O)=O)OC(=O)CC\C=C/C\C=C/C\C=C/C\C=C/C\C=C/C\C=C/CC
RETENTIONTIME: 
CCS: -1
IONMODE: Negative
INSTRUMENTTYPE: LC-ESI-ITFT
INSTRUMENT: 
COLLISIONENERGY: 30
Comment: registered in MassBank
Num Peaks: 11
281.13	51
327.07999	15
417.10001	183
418.26001	8
435.04001	33
463.01999	25
463.94	8
553.12	63
577.19	61
745.01001	1000
746.09003	216

NAME: Phosphatidylserine 19
PRECURSORMZ: 848.544708
PRECURSORTYPE: [M-H]-
FORMULA: C47H80NO10P
Ontology: Phosphatidylserines
INCHIKEY: KQUCBTRVYDUHMT-MXQGKLILNA-N
SMILES: CCCCCCCCCCCCCCCCCCC(=O)OCC(COP(O)(=O)OCC(N)C(O)=O)OC(=O)CC\C=C/C\C=C/C\C=C/C\C=C/C\C=C/C\C=C/CC
RETENTIONTIME: 
CCS: -1
IONMODE: Negative
INSTRUMENTTYPE: LC-ESI-ITFT
INSTRUMENT: 
COLLISIONENERGY: 30
Comment: registered in MassBank
Num Peaks: 12
302.95999	8
432.87	11
451.14001	9
693.98999	6
747.22998	14
750.09998	18
761.08002	61
762.08002	9
766.22998	1000
767.32001	7
773.32001	6
774.23999	10

NAME: Phosphatidylserine 20
PRECURSORMZ: 854.497758
PRECURSORTYPE: [M-H]-
FORMULA: C48H74NO10P
Ontology: Phosphatidylserines
INCHIKEY: ZGLJCKUIELGDPR-YARNEYDXNA-N
SMILES: CCCCCC\C=C/C\C=C/C\C=C/C\C=C/CCC(=O)OCC(COP(O)(=O)OCC(N)C(O)=O)OC(=O)CC\C=C/C\C=C/C\C=C/C\C=C/C\C=C/C\C=C/CC
RETENTIONTIME: 
CCS: -1
IONMODE: Negative
INSTRUMENTTYPE: LC-ESI-ITFT
INSTRUMENT: 
COLLISIONENERGY: 30
Comment: registered in MassBank
Num Peaks: 12
259.42999	7
303.04001	7
391.07999	14
439.07999	127
457.14001	55
463.17999	40
481.42999	11
745.29999	11
767.03998	1000
768.03998	257
768.71002	23
794.40997	23

NAME: Phosphatidylserine 22
PRECURSORMZ: 878.497758
PRECURSORTYPE: [M-H]-
FORMULA: C50H74NO10P
Ontology: Phosphatidylserines
INCHIKEY: RJCZACBLQGCNCW-GZSOIYOPNA-N
SMILES: CC\C=C/C\C=C/C\C=C/C\C=C/C\C=C/C\C=C/CCC(=O)OCC(COP(O)(=O)OCC(N)C(O)=O)OC(=O)CC\C=C/C\C=C/C\C=C/C\C=C/C\C=C/C\C=C/CC
RETENTIONTIME: 
CCS: 379.0794439
IONMODE: Negative
INSTRUMENTTYPE: LC-ESI-ITFT
INSTRUMENT: 
COLLISIONENERGY: 30
Comment: registered in MassBank
Num Peaks: 6
283.12	9
327.10999	14
462.94	231
481.04999	24
791	1000
792.04999	11

NAME: Sphingomyelin d18
PRECURSORMZ: 763.633463
PRECURSORTYPE: [M+CH3COO]-
FORMULA: C41H85N2O6P
Ontology: Phosphosphingolipids
INCHIKEY: JCELSEVNSMXGKA-PVXQIPPMSA-N
SMILES: CCCCCCCCCCCCCCCCCC(O)=N[C@H](COP([O-])(=O)OCC[N+](C)(C)C)[C@@H](O)CCCCCCCCCCCCCCC
RETENTIONTIME: 
CCS: -1
IONMODE: Negative
INSTRUMENTTYPE: LC-ESI-ITFT
INSTRUMENT: 
COLLISIONENERGY: 30
Comment: registered in MassBank
Num Peaks: 16
284.35001	13
296.13	9
417.39001	11
419.10001	10
419.95001	17
421.32001	7
439.10001	6
481.51999	8
702.09998	30
703.13	141
704.13	222
705.15002	55
717.34003	1000
731.39001	5
732.29999	12
748.23999	5

NAME: Sphingomyelin d18
PRECURSORMZ: 733.586513
PRECURSORTYPE: [M+CH3COO]-
FORMULA: C39H79N2O6P
Ontology: Phosphosphingolipids
INCHIKEY: RWKUXQNLWDTSLO-KHDLYOHESA-N
SMILES: CCCCCCCCCCCCCCCC(O)=N[C@H](COP([O-])(=O)OCC[N+](C)(C)C)[C@@H](O)\C=C\CCCCCCCCCCCCC
RETENTIONTIME: 
CCS: -1
IONMODE: Negative
INSTRUMENTTYPE: LC-ESI-ITFT
INSTRUMENT: 
COLLISIONENERGY: 30
Comment: registered in MassBank
Num Peaks: 20
216.86	6
229.14999	19
255.16	304
281.22	6
283.07001	229
283.69	6
303.23999	8
304.17001	10
309.06	10
311.17999	9
327	392
434.10999	6
452.14999	175
454.92001	11
523.90997	8
675.28998	9
680.32001	9
687.38	1000
724.88	11
730.25	16

NAME: Sphingomyelin d18
PRECURSORMZ: 747.602163
PRECURSORTYPE: [M+CH3COO]-
FORMULA: C40H81N2O6P
Ontology: Phosphosphingolipids
INCHIKEY: YMQZQHIESOAPQH-QSTWNKESSA-N
SMILES: CCCCCCCCCCCCCCCCC(O)=N[C@H](COP([O-])(=O)OCC[N+](C)(C)C)[C@@H](O)\C=C\CCCCCCCCCCCCC
RETENTIONTIME: 
CCS: -1
IONMODE: Negative
INSTRUMENTTYPE: LC-ESI-ITFT
INSTRUMENT: 
COLLISIONENERGY: 30
Comment: registered in MassBank
Num Peaks: 20
232.00999	9
263.01001	11
281.09	8
285.35001	69
286.07999	8
301.29999	24
329.13	78
330.16	83
356.22	17
403.32999	10
417.87	18
445.07999	18
446.26001	11
461.91	10
463.14001	82
674.22998	7
684.83002	17
701.21002	1000
702.02002	12
730.84003	8

NAME: Sphingomyelin d18
PRECURSORMZ: 761.617813
PRECURSORTYPE: [M+CH3COO]-
FORMULA: C41H83N2O6P
Ontology: Phosphosphingolipids
INCHIKEY: LKQLRGMMMAHREN-GDBDMVKWSA-N
SMILES: CCCCCCCCCCCCCCCCCC(O)=N[C@H](COP([O-])(=O)OCC[N+](C)(C)C)[C@@H](O)\C=C\CCCCCCCCCCCCC
RETENTIONTIME: 
CCS: -1
IONMODE: Negative
INSTRUMENTTYPE: LC-ESI-ITFT
INSTRUMENT: 
COLLISIONENERGY: 30
Comment: registered in MassBank
Num Peaks: 2
715.27002	1000
730.14001	8

NAME: Sphingomyelin d18
PRECURSORMZ: 817.680413
PRECURSORTYPE: [M+CH3COO]-
FORMULA: C45H91N2O6P
Ontology: Phosphosphingolipids
INCHIKEY: FJJANLYCZUNFSE-QVMKKYBKSA-N
SMILES: CCCCCCCCCCCCCCCCCCCCCC(O)=N[C@H](COP([O-])(=O)OCC[N+](C)(C)C)[C@@H](O)\C=C\CCCCCCCCCCCCC
RETENTIONTIME: 
CCS: -1
IONMODE: Negative
INSTRUMENTTYPE: LC-ESI-ITFT
INSTRUMENT: 
COLLISIONENERGY: 30
Comment: registered in MassBank
Num Peaks: 5
758.33002	9
759.28003	6
771.38	1000
808.67999	10
809.28998	17

NAME: Sphingomyelin d18
PRECURSORMZ: 731.570863
PRECURSORTYPE: [M+CH3COO]-
FORMULA: C39H77N2O6P
Ontology: Phosphosphingolipids
INCHIKEY: RYPRHPLEPBYJJE-SFDSNHFWSA-N
SMILES: CCCCCCCCCCCCCCCC(O)=N[C@H](COP([O-])(=O)OCC[N+](C)(C)C)[C@@H](O)\C=C\CC\C=C\CCCCCCCCC
RETENTIONTIME: 
CCS: -1
IONMODE: Negative
INSTRUMENTTYPE: LC-ESI-ITFT
INSTRUMENT: 
COLLISIONENERGY: 30
Comment: registered in MassBank
Num Peaks: 8
326.97	51
391.48999	12
613.59003	12
673.47998	19
676.78003	42
677.73999	33
685.26001	1000
699.15002	33

NAME: Sphingomyelin d18
PRECURSORMZ: 759.602163
PRECURSORTYPE: [M+CH3COO]-
FORMULA: C41H81N2O6P
Ontology: Phosphosphingolipids
INCHIKEY: GCHHFAWECQPLHL-KCJNDVAJSA-N
SMILES: CCCCCCCCCCCCCCCCCC(O)=N[C@H](COP([O-])(=O)OCC[N+](C)(C)C)[C@@H](O)\C=C\CC\C=C\CCCCCCCCC
RETENTIONTIME: 
CCS: -1
IONMODE: Negative
INSTRUMENTTYPE: LC-ESI-ITFT
INSTRUMENT: 
COLLISIONENERGY: 30
Comment: registered in MassBank
Num Peaks: 10
281.22	17
282.13	7
417.10001	35
418.06	26
699.06	85
700.12	228
701.10999	44
713.33002	1000
726.71997	10
728.10999	8

NAME: Metamitron-desamino; LC-ESI-ITFT; MS2; CE
PRECURSORMZ: 186.067285
PRECURSORTYPE: [M-H]-
FORMULA: C10H9N3O
Ontology: 1,2,4-triazines
INCHIKEY: OUSYWCQYMPDAEO-UHFFFAOYSA-N
SMILES: CC1=NC(O)=C(N=N1)C1=CC=CC=C1
RETENTIONTIME: 
CCS: 146.2017026
IONMODE: Negative
INSTRUMENTTYPE: LC-ESI-ITFT
INSTRUMENT: 
COLLISIONENERGY: 35
Comment: registered in MassBank
Num Peaks: 2
117.0342	5
186.06779	1000

NAME: Metamitron-desamino; LC-ESI-ITFT; MS2; CE
PRECURSORMZ: 186.067285
PRECURSORTYPE: [M-H]-
FORMULA: C10H9N3O
Ontology: 1,2,4-triazines
INCHIKEY: OUSYWCQYMPDAEO-UHFFFAOYSA-N
SMILES: CC1=NC(O)=C(N=N1)C1=CC=CC=C1
RETENTIONTIME: 
CCS: 146.2017026
IONMODE: Negative
INSTRUMENTTYPE: LC-ESI-ITFT
INSTRUMENT: 
COLLISIONENERGY: 60
Comment: registered in MassBank
Num Peaks: 2
117.0348	23
186.06779	1000

NAME: Metamitron-desamino; LC-ESI-ITFT; MS2; CE
PRECURSORMZ: 186.067285
PRECURSORTYPE: [M-H]-
FORMULA: C10H9N3O
Ontology: 1,2,4-triazines
INCHIKEY: OUSYWCQYMPDAEO-UHFFFAOYSA-N
SMILES: CC1=NC(O)=C(N=N1)C1=CC=CC=C1
RETENTIONTIME: 
CCS: 146.2017026
IONMODE: Negative
INSTRUMENTTYPE: LC-ESI-ITFT
INSTRUMENT: 
COLLISIONENERGY: 75
Comment: registered in MassBank
Num Peaks: 2
117.0349	206
186.0677	1000

NAME: Metamitron-desamino; LC-ESI-ITFT; MS2; CE
PRECURSORMZ: 186.067285
PRECURSORTYPE: [M-H]-
FORMULA: C10H9N3O
Ontology: 1,2,4-triazines
INCHIKEY: OUSYWCQYMPDAEO-UHFFFAOYSA-N
SMILES: CC1=NC(O)=C(N=N1)C1=CC=CC=C1
RETENTIONTIME: 
CCS: 146.2017026
IONMODE: Negative
INSTRUMENTTYPE: LC-ESI-ITFT
INSTRUMENT: 
COLLISIONENERGY: 90
Comment: registered in MassBank
Num Peaks: 1
117.0349	1000

NAME: Metamitron-desamino; LC-ESI-ITFT; MS2; CE
PRECURSORMZ: 186.067285
PRECURSORTYPE: [M-H]-
FORMULA: C10H9N3O
Ontology: 1,2,4-triazines
INCHIKEY: OUSYWCQYMPDAEO-UHFFFAOYSA-N
SMILES: CC1=NC(O)=C(N=N1)C1=CC=CC=C1
RETENTIONTIME: 
CCS: 146.2017026
IONMODE: Negative
INSTRUMENTTYPE: LC-ESI-ITFT
INSTRUMENT: 
COLLISIONENERGY: 60
Comment: registered in MassBank
Num Peaks: 2
117.0348	21
186.0677	1000

NAME: Metamitron-desamino; LC-ESI-ITFT; MS2; CE
PRECURSORMZ: 186.067285
PRECURSORTYPE: [M-H]-
FORMULA: C10H9N3O
Ontology: 1,2,4-triazines
INCHIKEY: OUSYWCQYMPDAEO-UHFFFAOYSA-N
SMILES: CC1=NC(O)=C(N=N1)C1=CC=CC=C1
RETENTIONTIME: 
CCS: 146.2017026
IONMODE: Negative
INSTRUMENTTYPE: LC-ESI-ITFT
INSTRUMENT: 
COLLISIONENERGY: 75
Comment: registered in MassBank
Num Peaks: 2
117.0347	102
186.0677	1000

NAME: Metamitron-desamino; LC-ESI-ITFT; MS2; CE
PRECURSORMZ: 186.067285
PRECURSORTYPE: [M-H]-
FORMULA: C10H9N3O
Ontology: 1,2,4-triazines
INCHIKEY: OUSYWCQYMPDAEO-UHFFFAOYSA-N
SMILES: CC1=NC(O)=C(N=N1)C1=CC=CC=C1
RETENTIONTIME: 
CCS: 146.2017026
IONMODE: Negative
INSTRUMENTTYPE: LC-ESI-ITFT
INSTRUMENT: 
COLLISIONENERGY: 90
Comment: registered in MassBank
Num Peaks: 2
117.0346	889
186.067	1000

NAME: Bromoxynil; LC-ESI-ITFT; MS2; CE
PRECURSORMZ: 273.850863
PRECURSORTYPE: [M-H]-
FORMULA: C7H3Br2NO
Ontology: Benzonitriles
INCHIKEY: UPMXNNIRAGDFEH-UHFFFAOYSA-N
SMILES: OC1=C(Br)C=C(C=C1Br)C#N
RETENTIONTIME: 
CCS: 137.2303731
IONMODE: Negative
INSTRUMENTTYPE: LC-ESI-ITFT
INSTRUMENT: 
COLLISIONENERGY: 35
Comment: registered in MassBank
Num Peaks: 2
78.9189	1000
273.8508	143

NAME: Bromoxynil; LC-ESI-ITFT; MS2; CE
PRECURSORMZ: 273.850863
PRECURSORTYPE: [M-H]-
FORMULA: C7H3Br2NO
Ontology: Benzonitriles
INCHIKEY: UPMXNNIRAGDFEH-UHFFFAOYSA-N
SMILES: OC1=C(Br)C=C(C=C1Br)C#N
RETENTIONTIME: 
CCS: 137.2303731
IONMODE: Negative
INSTRUMENTTYPE: LC-ESI-ITFT
INSTRUMENT: 
COLLISIONENERGY: 30
Comment: registered in MassBank
Num Peaks: 2
78.9188	98
273.85089	1000

NAME: Bromoxynil; LC-ESI-ITFT; MS2; CE
PRECURSORMZ: 273.850863
PRECURSORTYPE: [M-H]-
FORMULA: C7H3Br2NO
Ontology: Benzonitriles
INCHIKEY: UPMXNNIRAGDFEH-UHFFFAOYSA-N
SMILES: OC1=C(Br)C=C(C=C1Br)C#N
RETENTIONTIME: 
CCS: 137.2303731
IONMODE: Negative
INSTRUMENTTYPE: LC-ESI-ITFT
INSTRUMENT: 
COLLISIONENERGY: 45
Comment: registered in MassBank
Num Peaks: 3
78.9189	1000
193.925	22
273.85089	941

NAME: Bromoxynil; LC-ESI-ITFT; MS2; CE
PRECURSORMZ: 273.850863
PRECURSORTYPE: [M-H]-
FORMULA: C7H3Br2NO
Ontology: Benzonitriles
INCHIKEY: UPMXNNIRAGDFEH-UHFFFAOYSA-N
SMILES: OC1=C(Br)C=C(C=C1Br)C#N
RETENTIONTIME: 
CCS: 137.2303731
IONMODE: Negative
INSTRUMENTTYPE: LC-ESI-ITFT
INSTRUMENT: 
COLLISIONENERGY: 60
Comment: registered in MassBank
Num Peaks: 3
78.9189	1000
193.9241	20
273.8512	131

NAME: Bromoxynil; LC-ESI-ITFT; MS2; CE
PRECURSORMZ: 273.850863
PRECURSORTYPE: [M-H]-
FORMULA: C7H3Br2NO
Ontology: Benzonitriles
INCHIKEY: UPMXNNIRAGDFEH-UHFFFAOYSA-N
SMILES: OC1=C(Br)C=C(C=C1Br)C#N
RETENTIONTIME: 
CCS: 137.2303731
IONMODE: Negative
INSTRUMENTTYPE: LC-ESI-ITFT
INSTRUMENT: 
COLLISIONENERGY: 75
Comment: registered in MassBank
Num Peaks: 3
78.9189	1000
193.9248	11
273.8501	16

NAME: Bromoxynil; LC-ESI-ITFT; MS2; CE
PRECURSORMZ: 273.850863
PRECURSORTYPE: [M-H]-
FORMULA: C7H3Br2NO
Ontology: Benzonitriles
INCHIKEY: UPMXNNIRAGDFEH-UHFFFAOYSA-N
SMILES: OC1=C(Br)C=C(C=C1Br)C#N
RETENTIONTIME: 
CCS: 137.2303731
IONMODE: Negative
INSTRUMENTTYPE: LC-ESI-ITFT
INSTRUMENT: 
COLLISIONENERGY: 90
Comment: registered in MassBank
Num Peaks: 1
78.9189	1000

NAME: Bromoxynil; LC-ESI-ITFT; MS2; CE
PRECURSORMZ: 273.850863
PRECURSORTYPE: [M-H]-
FORMULA: C7H3Br2NO
Ontology: Benzonitriles
INCHIKEY: UPMXNNIRAGDFEH-UHFFFAOYSA-N
SMILES: OC1=C(Br)C=C(C=C1Br)C#N
RETENTIONTIME: 
CCS: 137.2303731
IONMODE: Negative
INSTRUMENTTYPE: LC-ESI-ITFT
INSTRUMENT: 
COLLISIONENERGY: 30
Comment: registered in MassBank
Num Peaks: 2
78.9189	73
273.85101	1000

NAME: Bromoxynil; LC-ESI-ITFT; MS2; CE
PRECURSORMZ: 273.850863
PRECURSORTYPE: [M-H]-
FORMULA: C7H3Br2NO
Ontology: Benzonitriles
INCHIKEY: UPMXNNIRAGDFEH-UHFFFAOYSA-N
SMILES: OC1=C(Br)C=C(C=C1Br)C#N
RETENTIONTIME: 
CCS: 137.2303731
IONMODE: Negative
INSTRUMENTTYPE: LC-ESI-ITFT
INSTRUMENT: 
COLLISIONENERGY: 45
Comment: registered in MassBank
Num Peaks: 3
78.9189	1000
193.9249	20
273.8508	868

NAME: Bromoxynil; LC-ESI-ITFT; MS2; CE
PRECURSORMZ: 273.850863
PRECURSORTYPE: [M-H]-
FORMULA: C7H3Br2NO
Ontology: Benzonitriles
INCHIKEY: UPMXNNIRAGDFEH-UHFFFAOYSA-N
SMILES: OC1=C(Br)C=C(C=C1Br)C#N
RETENTIONTIME: 
CCS: 137.2303731
IONMODE: Negative
INSTRUMENTTYPE: LC-ESI-ITFT
INSTRUMENT: 
COLLISIONENERGY: 60
Comment: registered in MassBank
Num Peaks: 3
78.9189	1000
193.9252	19
273.85059	123

NAME: Bromoxynil; LC-ESI-ITFT; MS2; CE
PRECURSORMZ: 273.850863
PRECURSORTYPE: [M-H]-
FORMULA: C7H3Br2NO
Ontology: Benzonitriles
INCHIKEY: UPMXNNIRAGDFEH-UHFFFAOYSA-N
SMILES: OC1=C(Br)C=C(C=C1Br)C#N
RETENTIONTIME: 
CCS: 137.2303731
IONMODE: Negative
INSTRUMENTTYPE: LC-ESI-ITFT
INSTRUMENT: 
COLLISIONENERGY: 75
Comment: registered in MassBank
Num Peaks: 3
78.9188	1000
193.92461	15
273.8512	22

NAME: Bromoxynil; LC-ESI-ITFT; MS2; CE
PRECURSORMZ: 273.850863
PRECURSORTYPE: [M-H]-
FORMULA: C7H3Br2NO
Ontology: Benzonitriles
INCHIKEY: UPMXNNIRAGDFEH-UHFFFAOYSA-N
SMILES: OC1=C(Br)C=C(C=C1Br)C#N
RETENTIONTIME: 
CCS: 137.2303731
IONMODE: Negative
INSTRUMENTTYPE: LC-ESI-ITFT
INSTRUMENT: 
COLLISIONENERGY: 90
Comment: registered in MassBank
Num Peaks: 1
78.9188	1000

NAME: Bromoxynil; LC-ESI-ITFT; MS2; CE
PRECURSORMZ: 273.850863
PRECURSORTYPE: [M-H]-
FORMULA: C7H3Br2NO
Ontology: Benzonitriles
INCHIKEY: UPMXNNIRAGDFEH-UHFFFAOYSA-N
SMILES: OC1=C(Br)C=C(C=C1Br)C#N
RETENTIONTIME: 
CCS: 137.2303731
IONMODE: Negative
INSTRUMENTTYPE: LC-ESI-ITFT
INSTRUMENT: 
COLLISIONENERGY: 35
Comment: registered in MassBank
Num Peaks: 2
78.9189	1000
273.85049	142

NAME: Metamitron; LC-ESI-ITFT; MS2; CE
PRECURSORMZ: 201.078185
PRECURSORTYPE: [M-H]-
FORMULA: C10H10N4O
Ontology: 1,2,4-triazines
INCHIKEY: VHCNQEUWZYOAEV-UHFFFAOYSA-N
SMILES: CC1=NN=C(C(=O)N1N)C1=CC=CC=C1
RETENTIONTIME: 
CCS: 145.6543981
IONMODE: Negative
INSTRUMENTTYPE: LC-ESI-ITFT
INSTRUMENT: 
COLLISIONENERGY: 35
Comment: registered in MassBank
Num Peaks: 1
185.0594	1000

NAME: Metamitron; LC-ESI-ITFT; MS2; CE
PRECURSORMZ: 201.078185
PRECURSORTYPE: [M-H]-
FORMULA: C10H10N4O
Ontology: 1,2,4-triazines
INCHIKEY: VHCNQEUWZYOAEV-UHFFFAOYSA-N
SMILES: CC1=NN=C(C(=O)N1N)C1=CC=CC=C1
RETENTIONTIME: 
CCS: 145.6543981
IONMODE: Negative
INSTRUMENTTYPE: LC-ESI-ITFT
INSTRUMENT: 
COLLISIONENERGY: 45
Comment: registered in MassBank
Num Peaks: 1
117.0345	1000

NAME: Metamitron; LC-ESI-ITFT; MS2; CE
PRECURSORMZ: 201.078185
PRECURSORTYPE: [M-H]-
FORMULA: C10H10N4O
Ontology: 1,2,4-triazines
INCHIKEY: VHCNQEUWZYOAEV-UHFFFAOYSA-N
SMILES: CC1=NN=C(C(=O)N1N)C1=CC=CC=C1
RETENTIONTIME: 
CCS: 145.6543981
IONMODE: Negative
INSTRUMENTTYPE: LC-ESI-ITFT
INSTRUMENT: 
COLLISIONENERGY: 60
Comment: registered in MassBank
Num Peaks: 1
117.0348	1000

NAME: Metamitron; LC-ESI-ITFT; MS2; CE
PRECURSORMZ: 201.078185
PRECURSORTYPE: [M-H]-
FORMULA: C10H10N4O
Ontology: 1,2,4-triazines
INCHIKEY: VHCNQEUWZYOAEV-UHFFFAOYSA-N
SMILES: CC1=NN=C(C(=O)N1N)C1=CC=CC=C1
RETENTIONTIME: 
CCS: 145.6543981
IONMODE: Negative
INSTRUMENTTYPE: LC-ESI-ITFT
INSTRUMENT: 
COLLISIONENERGY: 90
Comment: registered in MassBank
Num Peaks: 1
117.0346	1000

NAME: Metamitron; LC-ESI-ITFT; MS2; CE
PRECURSORMZ: 201.078185
PRECURSORTYPE: [M-H]-
FORMULA: C10H10N4O
Ontology: 1,2,4-triazines
INCHIKEY: VHCNQEUWZYOAEV-UHFFFAOYSA-N
SMILES: CC1=NN=C(C(=O)N1N)C1=CC=CC=C1
RETENTIONTIME: 
CCS: 145.6543981
IONMODE: Negative
INSTRUMENTTYPE: LC-ESI-ITFT
INSTRUMENT: 
COLLISIONENERGY: 75
Comment: registered in MassBank
Num Peaks: 1
117.0343	1000

NAME: Metamitron; LC-ESI-ITFT; MS2; CE
PRECURSORMZ: 201.078185
PRECURSORTYPE: [M-H]-
FORMULA: C10H10N4O
Ontology: 1,2,4-triazines
INCHIKEY: VHCNQEUWZYOAEV-UHFFFAOYSA-N
SMILES: CC1=NN=C(C(=O)N1N)C1=CC=CC=C1
RETENTIONTIME: 
CCS: 145.6543981
IONMODE: Negative
INSTRUMENTTYPE: LC-ESI-ITFT
INSTRUMENT: 
COLLISIONENERGY: 35
Comment: registered in MassBank
Num Peaks: 1
185.05949	1000

NAME: Ioxynil; LC-ESI-ITFT; MS2; CE
PRECURSORMZ: 369.823124
PRECURSORTYPE: [M-H]-
FORMULA: C7H3I2NO
Ontology: Benzonitriles
INCHIKEY: NRXQIUSYPAHGNM-UHFFFAOYSA-N
SMILES: OC1=C(I)C=C(C=C1I)C#N
RETENTIONTIME: 
CCS: 150.9848609
IONMODE: Negative
INSTRUMENTTYPE: LC-ESI-ITFT
INSTRUMENT: 
COLLISIONENERGY: 35
Comment: registered in MassBank
Num Peaks: 4
126.905	1000
214.92371	31
242.91859	66
369.8226	484

NAME: Ioxynil; LC-ESI-ITFT; MS2; CE
PRECURSORMZ: 369.823124
PRECURSORTYPE: [M-H]-
FORMULA: C7H3I2NO
Ontology: Benzonitriles
INCHIKEY: NRXQIUSYPAHGNM-UHFFFAOYSA-N
SMILES: OC1=C(I)C=C(C=C1I)C#N
RETENTIONTIME: 
CCS: 150.9848609
IONMODE: Negative
INSTRUMENTTYPE: LC-ESI-ITFT
INSTRUMENT: 
COLLISIONENERGY: 15
Comment: registered in MassBank
Num Peaks: 2
126.9046	9
369.8233	1000

NAME: Ioxynil; LC-ESI-ITFT; MS2; CE
PRECURSORMZ: 369.823124
PRECURSORTYPE: [M-H]-
FORMULA: C7H3I2NO
Ontology: Benzonitriles
INCHIKEY: NRXQIUSYPAHGNM-UHFFFAOYSA-N
SMILES: OC1=C(I)C=C(C=C1I)C#N
RETENTIONTIME: 
CCS: 150.9848609
IONMODE: Negative
INSTRUMENTTYPE: LC-ESI-ITFT
INSTRUMENT: 
COLLISIONENERGY: 30
Comment: registered in MassBank
Num Peaks: 2
126.905	706
369.823	1000

NAME: Ioxynil; LC-ESI-ITFT; MS2; CE
PRECURSORMZ: 369.823124
PRECURSORTYPE: [M-H]-
FORMULA: C7H3I2NO
Ontology: Benzonitriles
INCHIKEY: NRXQIUSYPAHGNM-UHFFFAOYSA-N
SMILES: OC1=C(I)C=C(C=C1I)C#N
RETENTIONTIME: 
CCS: 150.9848609
IONMODE: Negative
INSTRUMENTTYPE: LC-ESI-ITFT
INSTRUMENT: 
COLLISIONENERGY: 45
Comment: registered in MassBank
Num Peaks: 4
116.014	11
126.9051	1000
230.91949	13
369.82291	147

NAME: Ioxynil; LC-ESI-ITFT; MS2; CE
PRECURSORMZ: 369.823124
PRECURSORTYPE: [M-H]-
FORMULA: C7H3I2NO
Ontology: Benzonitriles
INCHIKEY: NRXQIUSYPAHGNM-UHFFFAOYSA-N
SMILES: OC1=C(I)C=C(C=C1I)C#N
RETENTIONTIME: 
CCS: 150.9848609
IONMODE: Negative
INSTRUMENTTYPE: LC-ESI-ITFT
INSTRUMENT: 
COLLISIONENERGY: 60
Comment: registered in MassBank
Num Peaks: 3
116.0143	20
126.9051	1000
369.82431	18

NAME: Ioxynil; LC-ESI-ITFT; MS2; CE
PRECURSORMZ: 369.823124
PRECURSORTYPE: [M-H]-
FORMULA: C7H3I2NO
Ontology: Benzonitriles
INCHIKEY: NRXQIUSYPAHGNM-UHFFFAOYSA-N
SMILES: OC1=C(I)C=C(C=C1I)C#N
RETENTIONTIME: 
CCS: 150.9848609
IONMODE: Negative
INSTRUMENTTYPE: LC-ESI-ITFT
INSTRUMENT: 
COLLISIONENERGY: 75
Comment: registered in MassBank
Num Peaks: 2
116.0143	28
126.905	1000

NAME: Ioxynil; LC-ESI-ITFT; MS2; CE
PRECURSORMZ: 369.823124
PRECURSORTYPE: [M-H]-
FORMULA: C7H3I2NO
Ontology: Benzonitriles
INCHIKEY: NRXQIUSYPAHGNM-UHFFFAOYSA-N
SMILES: OC1=C(I)C=C(C=C1I)C#N
RETENTIONTIME: 
CCS: 150.9848609
IONMODE: Negative
INSTRUMENTTYPE: LC-ESI-ITFT
INSTRUMENT: 
COLLISIONENERGY: 90
Comment: registered in MassBank
Num Peaks: 3
65.0032	6
116.0144	17
126.9049	1000

NAME: Ioxynil; LC-ESI-ITFT; MS2; CE
PRECURSORMZ: 369.823124
PRECURSORTYPE: [M-H]-
FORMULA: C7H3I2NO
Ontology: Benzonitriles
INCHIKEY: NRXQIUSYPAHGNM-UHFFFAOYSA-N
SMILES: OC1=C(I)C=C(C=C1I)C#N
RETENTIONTIME: 
CCS: 150.9848609
IONMODE: Negative
INSTRUMENTTYPE: LC-ESI-ITFT
INSTRUMENT: 
COLLISIONENERGY: 30
Comment: registered in MassBank
Num Peaks: 2
126.905	721
369.82309	1000

NAME: Ioxynil; LC-ESI-ITFT; MS2; CE
PRECURSORMZ: 369.823124
PRECURSORTYPE: [M-H]-
FORMULA: C7H3I2NO
Ontology: Benzonitriles
INCHIKEY: NRXQIUSYPAHGNM-UHFFFAOYSA-N
SMILES: OC1=C(I)C=C(C=C1I)C#N
RETENTIONTIME: 
CCS: 150.9848609
IONMODE: Negative
INSTRUMENTTYPE: LC-ESI-ITFT
INSTRUMENT: 
COLLISIONENERGY: 45
Comment: registered in MassBank
Num Peaks: 4
116.0141	8
126.9051	1000
230.9182	7
369.823	117

NAME: Ioxynil; LC-ESI-ITFT; MS2; CE
PRECURSORMZ: 369.823124
PRECURSORTYPE: [M-H]-
FORMULA: C7H3I2NO
Ontology: Benzonitriles
INCHIKEY: NRXQIUSYPAHGNM-UHFFFAOYSA-N
SMILES: OC1=C(I)C=C(C=C1I)C#N
RETENTIONTIME: 
CCS: 150.9848609
IONMODE: Negative
INSTRUMENTTYPE: LC-ESI-ITFT
INSTRUMENT: 
COLLISIONENERGY: 60
Comment: registered in MassBank
Num Peaks: 4
116.0137	20
126.9051	1000
230.9176	6
369.8222	17

NAME: Ioxynil; LC-ESI-ITFT; MS2; CE
PRECURSORMZ: 369.823124
PRECURSORTYPE: [M-H]-
FORMULA: C7H3I2NO
Ontology: Benzonitriles
INCHIKEY: NRXQIUSYPAHGNM-UHFFFAOYSA-N
SMILES: OC1=C(I)C=C(C=C1I)C#N
RETENTIONTIME: 
CCS: 150.9848609
IONMODE: Negative
INSTRUMENTTYPE: LC-ESI-ITFT
INSTRUMENT: 
COLLISIONENERGY: 75
Comment: registered in MassBank
Num Peaks: 2
116.0137	12
126.9051	1000

NAME: Ioxynil; LC-ESI-ITFT; MS2; CE
PRECURSORMZ: 369.823124
PRECURSORTYPE: [M-H]-
FORMULA: C7H3I2NO
Ontology: Benzonitriles
INCHIKEY: NRXQIUSYPAHGNM-UHFFFAOYSA-N
SMILES: OC1=C(I)C=C(C=C1I)C#N
RETENTIONTIME: 
CCS: 150.9848609
IONMODE: Negative
INSTRUMENTTYPE: LC-ESI-ITFT
INSTRUMENT: 
COLLISIONENERGY: 90
Comment: registered in MassBank
Num Peaks: 2
116.0143	6
126.905	1000

NAME: Ioxynil; LC-ESI-ITFT; MS2; CE
PRECURSORMZ: 369.823124
PRECURSORTYPE: [M-H]-
FORMULA: C7H3I2NO
Ontology: Benzonitriles
INCHIKEY: NRXQIUSYPAHGNM-UHFFFAOYSA-N
SMILES: OC1=C(I)C=C(C=C1I)C#N
RETENTIONTIME: 
CCS: 150.9848609
IONMODE: Negative
INSTRUMENTTYPE: LC-ESI-ITFT
INSTRUMENT: 
COLLISIONENERGY: 35
Comment: registered in MassBank
Num Peaks: 4
126.9049	1000
214.9236	17
242.9184	47
369.82251	435

NAME: Chloridazon; LC-ESI-ITFT; MS2; CE
PRECURSORMZ: 220.028313
PRECURSORTYPE: [M-H]-
FORMULA: C10H8ClN3O
Ontology: Pyridazinones
INCHIKEY: WYKYKTKDBLFHCY-UHFFFAOYSA-N
SMILES: NC1=C(Cl)C(=O)N(N=C1)C1=CC=CC=C1
RETENTIONTIME: 
CCS: 145.2151672
IONMODE: Negative
INSTRUMENTTYPE: LC-ESI-ITFT
INSTRUMENT: 
COLLISIONENERGY: 35
Comment: registered in MassBank
Num Peaks: 14
65.0145	156
65.9985	35
73.9803	369
74.9644	40
100.9674	240
100.9912	346
117.0459	92
126.9703	114
144.0565	176
150.0116	283
177.0219	30
184.0517	325
193.0172	60
220.0284	1000

NAME: Chloridazon; LC-ESI-ITFT; MS2; CE
PRECURSORMZ: 220.028313
PRECURSORTYPE: [M-H]-
FORMULA: C10H8ClN3O
Ontology: Pyridazinones
INCHIKEY: WYKYKTKDBLFHCY-UHFFFAOYSA-N
SMILES: NC1=C(Cl)C(=O)N(N=C1)C1=CC=CC=C1
RETENTIONTIME: 
CCS: 145.2151672
IONMODE: Negative
INSTRUMENTTYPE: LC-ESI-ITFT
INSTRUMENT: 
COLLISIONENERGY: 30
Comment: registered in MassBank
Num Peaks: 5
65.0145	8
73.9803	12
150.01131	8
184.05119	6
220.0285	1000

NAME: Chloridazon; LC-ESI-ITFT; MS2; CE
PRECURSORMZ: 220.028313
PRECURSORTYPE: [M-H]-
FORMULA: C10H8ClN3O
Ontology: Pyridazinones
INCHIKEY: WYKYKTKDBLFHCY-UHFFFAOYSA-N
SMILES: NC1=C(Cl)C(=O)N(N=C1)C1=CC=CC=C1
RETENTIONTIME: 
CCS: 145.2151672
IONMODE: Negative
INSTRUMENTTYPE: LC-ESI-ITFT
INSTRUMENT: 
COLLISIONENERGY: 45
Comment: registered in MassBank
Num Peaks: 9
65.0145	56
65.9985	44
73.9804	119
74.9643	232
117.046	123
144.0573	31
150.0119	162
184.05161	49
220.0284	1000

NAME: Chloridazon; LC-ESI-ITFT; MS2; CE
PRECURSORMZ: 220.028313
PRECURSORTYPE: [M-H]-
FORMULA: C10H8ClN3O
Ontology: Pyridazinones
INCHIKEY: WYKYKTKDBLFHCY-UHFFFAOYSA-N
SMILES: NC1=C(Cl)C(=O)N(N=C1)C1=CC=CC=C1
RETENTIONTIME: 
CCS: 145.2151672
IONMODE: Negative
INSTRUMENTTYPE: LC-ESI-ITFT
INSTRUMENT: 
COLLISIONENERGY: 60
Comment: registered in MassBank
Num Peaks: 8
65.0145	158
65.9986	141
73.9803	261
74.9643	1000
117.046	399
144.0567	45
150.0116	292
220.0285	194

NAME: Chloridazon; LC-ESI-ITFT; MS2; CE
PRECURSORMZ: 220.028313
PRECURSORTYPE: [M-H]-
FORMULA: C10H8ClN3O
Ontology: Pyridazinones
INCHIKEY: WYKYKTKDBLFHCY-UHFFFAOYSA-N
SMILES: NC1=C(Cl)C(=O)N(N=C1)C1=CC=CC=C1
RETENTIONTIME: 
CCS: 145.2151672
IONMODE: Negative
INSTRUMENTTYPE: LC-ESI-ITFT
INSTRUMENT: 
COLLISIONENERGY: 75
Comment: registered in MassBank
Num Peaks: 6
65.0144	116
65.9985	120
73.9804	164
74.9643	1000
117.046	346
150.01151	151

NAME: Chloridazon; LC-ESI-ITFT; MS2; CE
PRECURSORMZ: 220.028313
PRECURSORTYPE: [M-H]-
FORMULA: C10H8ClN3O
Ontology: Pyridazinones
INCHIKEY: WYKYKTKDBLFHCY-UHFFFAOYSA-N
SMILES: NC1=C(Cl)C(=O)N(N=C1)C1=CC=CC=C1
RETENTIONTIME: 
CCS: 145.2151672
IONMODE: Negative
INSTRUMENTTYPE: LC-ESI-ITFT
INSTRUMENT: 
COLLISIONENERGY: 90
Comment: registered in MassBank
Num Peaks: 5
65.0145	127
65.9984	184
73.9803	151
74.9643	1000
117.0459	275

NAME: Chloridazon; LC-ESI-ITFT; MS2; CE
PRECURSORMZ: 220.028313
PRECURSORTYPE: [M-H]-
FORMULA: C10H8ClN3O
Ontology: Pyridazinones
INCHIKEY: WYKYKTKDBLFHCY-UHFFFAOYSA-N
SMILES: NC1=C(Cl)C(=O)N(N=C1)C1=CC=CC=C1
RETENTIONTIME: 
CCS: 145.2151672
IONMODE: Negative
INSTRUMENTTYPE: LC-ESI-ITFT
INSTRUMENT: 
COLLISIONENERGY: 30
Comment: registered in MassBank
Num Peaks: 4
65.0144	6
73.9803	9
150.01199	7
220.02859	1000

NAME: Chloridazon; LC-ESI-ITFT; MS2; CE
PRECURSORMZ: 220.028313
PRECURSORTYPE: [M-H]-
FORMULA: C10H8ClN3O
Ontology: Pyridazinones
INCHIKEY: WYKYKTKDBLFHCY-UHFFFAOYSA-N
SMILES: NC1=C(Cl)C(=O)N(N=C1)C1=CC=CC=C1
RETENTIONTIME: 
CCS: 145.2151672
IONMODE: Negative
INSTRUMENTTYPE: LC-ESI-ITFT
INSTRUMENT: 
COLLISIONENERGY: 45
Comment: registered in MassBank
Num Peaks: 8
65.0145	54
65.9985	21
73.9803	108
74.9643	173
117.046	99
150.0116	141
184.0524	19
220.02831	1000

NAME: Chloridazon; LC-ESI-ITFT; MS2; CE
PRECURSORMZ: 220.028313
PRECURSORTYPE: [M-H]-
FORMULA: C10H8ClN3O
Ontology: Pyridazinones
INCHIKEY: WYKYKTKDBLFHCY-UHFFFAOYSA-N
SMILES: NC1=C(Cl)C(=O)N(N=C1)C1=CC=CC=C1
RETENTIONTIME: 
CCS: 145.2151672
IONMODE: Negative
INSTRUMENTTYPE: LC-ESI-ITFT
INSTRUMENT: 
COLLISIONENERGY: 60
Comment: registered in MassBank
Num Peaks: 7
65.0144	196
65.9985	96
73.9803	255
74.9643	1000
117.0457	433
150.0116	403
220.02859	286

NAME: Chloridazon; LC-ESI-ITFT; MS2; CE
PRECURSORMZ: 220.028313
PRECURSORTYPE: [M-H]-
FORMULA: C10H8ClN3O
Ontology: Pyridazinones
INCHIKEY: WYKYKTKDBLFHCY-UHFFFAOYSA-N
SMILES: NC1=C(Cl)C(=O)N(N=C1)C1=CC=CC=C1
RETENTIONTIME: 
CCS: 145.2151672
IONMODE: Negative
INSTRUMENTTYPE: LC-ESI-ITFT
INSTRUMENT: 
COLLISIONENERGY: 75
Comment: registered in MassBank
Num Peaks: 6
65.0146	93
65.9985	127
73.9803	196
74.9642	1000
117.0457	296
150.01151	150

NAME: Chloridazon; LC-ESI-ITFT; MS2; CE
PRECURSORMZ: 220.028313
PRECURSORTYPE: [M-H]-
FORMULA: C10H8ClN3O
Ontology: Pyridazinones
INCHIKEY: WYKYKTKDBLFHCY-UHFFFAOYSA-N
SMILES: NC1=C(Cl)C(=O)N(N=C1)C1=CC=CC=C1
RETENTIONTIME: 
CCS: 145.2151672
IONMODE: Negative
INSTRUMENTTYPE: LC-ESI-ITFT
INSTRUMENT: 
COLLISIONENERGY: 90
Comment: registered in MassBank
Num Peaks: 5
65.0146	210
65.9988	188
73.9802	235
74.9643	1000
117.0459	391

NAME: Chloridazon; LC-ESI-ITFT; MS2; CE
PRECURSORMZ: 220.028313
PRECURSORTYPE: [M-H]-
FORMULA: C10H8ClN3O
Ontology: Pyridazinones
INCHIKEY: WYKYKTKDBLFHCY-UHFFFAOYSA-N
SMILES: NC1=C(Cl)C(=O)N(N=C1)C1=CC=CC=C1
RETENTIONTIME: 
CCS: 145.2151672
IONMODE: Negative
INSTRUMENTTYPE: LC-ESI-ITFT
INSTRUMENT: 
COLLISIONENERGY: 35
Comment: registered in MassBank
Num Peaks: 12
65.0145	449
73.9802	1000
74.9643	69
100.9673	576
100.9912	646
117.0457	191
126.9701	295
144.05679	368
150.0114	833
177.0222	62
184.05161	917
193.01711	157

NAME: Alachlor ESA; LC-ESI-ITFT; MS2; CE
PRECURSORMZ: 314.106767
PRECURSORTYPE: [M-H]-
FORMULA: C14H21NO5S
Ontology: Anilides
INCHIKEY: UTCJUUGCHWHUNI-UHFFFAOYSA-N
SMILES: CCC1=CC=CC(CC)=C1N(COC)C(=O)CS(O)(=O)=O
RETENTIONTIME: 
CCS: -1
IONMODE: Negative
INSTRUMENTTYPE: LC-ESI-ITFT
INSTRUMENT: 
COLLISIONENERGY: 35
Comment: registered in MassBank
Num Peaks: 11
76.9703	13
119.9761	46
120.9601	1000
149.0972	46
158.0974	56
160.1131	151
164.002	7
176.108	145
218.11839	34
270.07959	8
282.08029	12

NAME: Alachlor ESA; LC-ESI-ITFT; MS2; CE
PRECURSORMZ: 314.106767
PRECURSORTYPE: [M-H]-
FORMULA: C14H21NO5S
Ontology: Anilides
INCHIKEY: UTCJUUGCHWHUNI-UHFFFAOYSA-N
SMILES: CCC1=CC=CC(CC)=C1N(COC)C(=O)CS(O)(=O)=O
RETENTIONTIME: 
CCS: -1
IONMODE: Negative
INSTRUMENTTYPE: LC-ESI-ITFT
INSTRUMENT: 
COLLISIONENERGY: 30
Comment: registered in MassBank
Num Peaks: 6
76.9703	7
79.9572	29
120.9599	46
160.11391	10
176.1078	7
314.10641	1000

NAME: Alachlor ESA; LC-ESI-ITFT; MS2; CE
PRECURSORMZ: 314.106767
PRECURSORTYPE: [M-H]-
FORMULA: C14H21NO5S
Ontology: Anilides
INCHIKEY: UTCJUUGCHWHUNI-UHFFFAOYSA-N
SMILES: CCC1=CC=CC(CC)=C1N(COC)C(=O)CS(O)(=O)=O
RETENTIONTIME: 
CCS: -1
IONMODE: Negative
INSTRUMENTTYPE: LC-ESI-ITFT
INSTRUMENT: 
COLLISIONENERGY: 45
Comment: registered in MassBank
Num Peaks: 10
76.9703	154
79.9573	1000
119.9761	33
120.96	433
149.0972	47
158.09731	32
160.1132	176
176.10789	114
270.07629	15
314.1066	511

NAME: Alachlor ESA; LC-ESI-ITFT; MS2; CE
PRECURSORMZ: 314.106767
PRECURSORTYPE: [M-H]-
FORMULA: C14H21NO5S
Ontology: Anilides
INCHIKEY: UTCJUUGCHWHUNI-UHFFFAOYSA-N
SMILES: CCC1=CC=CC(CC)=C1N(COC)C(=O)CS(O)(=O)=O
RETENTIONTIME: 
CCS: -1
IONMODE: Negative
INSTRUMENTTYPE: LC-ESI-ITFT
INSTRUMENT: 
COLLISIONENERGY: 60
Comment: registered in MassBank
Num Peaks: 10
76.9701	112
79.9573	1000
93.9727	13
119.9759	18
120.9601	148
149.0965	30
158.0976	65
160.1132	51
176.1077	37
314.10818	20

NAME: Alachlor ESA; LC-ESI-ITFT; MS2; CE
PRECURSORMZ: 314.106767
PRECURSORTYPE: [M-H]-
FORMULA: C14H21NO5S
Ontology: Anilides
INCHIKEY: UTCJUUGCHWHUNI-UHFFFAOYSA-N
SMILES: CCC1=CC=CC(CC)=C1N(COC)C(=O)CS(O)(=O)=O
RETENTIONTIME: 
CCS: -1
IONMODE: Negative
INSTRUMENTTYPE: LC-ESI-ITFT
INSTRUMENT: 
COLLISIONENERGY: 75
Comment: registered in MassBank
Num Peaks: 4
76.9701	102
79.9572	1000
120.96	45
158.09731	70

NAME: Alachlor ESA; LC-ESI-ITFT; MS2; CE
PRECURSORMZ: 314.106767
PRECURSORTYPE: [M-H]-
FORMULA: C14H21NO5S
Ontology: Anilides
INCHIKEY: UTCJUUGCHWHUNI-UHFFFAOYSA-N
SMILES: CCC1=CC=CC(CC)=C1N(COC)C(=O)CS(O)(=O)=O
RETENTIONTIME: 
CCS: -1
IONMODE: Negative
INSTRUMENTTYPE: LC-ESI-ITFT
INSTRUMENT: 
COLLISIONENERGY: 90
Comment: registered in MassBank
Num Peaks: 3
76.9702	102
79.9573	1000
158.097	43

NAME: Alachlor ESA; LC-ESI-ITFT; MS2; CE
PRECURSORMZ: 314.106767
PRECURSORTYPE: [M-H]-
FORMULA: C14H21NO5S
Ontology: Anilides
INCHIKEY: UTCJUUGCHWHUNI-UHFFFAOYSA-N
SMILES: CCC1=CC=CC(CC)=C1N(COC)C(=O)CS(O)(=O)=O
RETENTIONTIME: 
CCS: -1
IONMODE: Negative
INSTRUMENTTYPE: LC-ESI-ITFT
INSTRUMENT: 
COLLISIONENERGY: 30
Comment: registered in MassBank
Num Peaks: 5
76.9699	9
79.957	24
120.9599	39
160.11259	8
314.10629	1000

NAME: Alachlor ESA; LC-ESI-ITFT; MS2; CE
PRECURSORMZ: 314.106767
PRECURSORTYPE: [M-H]-
FORMULA: C14H21NO5S
Ontology: Anilides
INCHIKEY: UTCJUUGCHWHUNI-UHFFFAOYSA-N
SMILES: CCC1=CC=CC(CC)=C1N(COC)C(=O)CS(O)(=O)=O
RETENTIONTIME: 
CCS: -1
IONMODE: Negative
INSTRUMENTTYPE: LC-ESI-ITFT
INSTRUMENT: 
COLLISIONENERGY: 45
Comment: registered in MassBank
Num Peaks: 11
76.9702	121
79.9573	1000
119.976	23
120.96	335
149.0968	32
158.09689	20
160.11301	138
164.00301	10
176.10789	107
282.08069	10
314.10641	454

NAME: Alachlor ESA; LC-ESI-ITFT; MS2; CE
PRECURSORMZ: 314.106767
PRECURSORTYPE: [M-H]-
FORMULA: C14H21NO5S
Ontology: Anilides
INCHIKEY: UTCJUUGCHWHUNI-UHFFFAOYSA-N
SMILES: CCC1=CC=CC(CC)=C1N(COC)C(=O)CS(O)(=O)=O
RETENTIONTIME: 
CCS: -1
IONMODE: Negative
INSTRUMENTTYPE: LC-ESI-ITFT
INSTRUMENT: 
COLLISIONENERGY: 60
Comment: registered in MassBank
Num Peaks: 9
76.9702	95
79.9573	1000
93.9728	10
119.976	11
120.9599	110
149.09689	21
158.0975	73
160.11301	57
176.10809	25

NAME: Alachlor ESA; LC-ESI-ITFT; MS2; CE
PRECURSORMZ: 314.106767
PRECURSORTYPE: [M-H]-
FORMULA: C14H21NO5S
Ontology: Anilides
INCHIKEY: UTCJUUGCHWHUNI-UHFFFAOYSA-N
SMILES: CCC1=CC=CC(CC)=C1N(COC)C(=O)CS(O)(=O)=O
RETENTIONTIME: 
CCS: -1
IONMODE: Negative
INSTRUMENTTYPE: LC-ESI-ITFT
INSTRUMENT: 
COLLISIONENERGY: 75
Comment: registered in MassBank
Num Peaks: 6
76.9701	85
79.9573	1000
120.9598	43
149.0965	10
158.0974	54
160.1134	11

NAME: Alachlor ESA; LC-ESI-ITFT; MS2; CE
PRECURSORMZ: 314.106767
PRECURSORTYPE: [M-H]-
FORMULA: C14H21NO5S
Ontology: Anilides
INCHIKEY: UTCJUUGCHWHUNI-UHFFFAOYSA-N
SMILES: CCC1=CC=CC(CC)=C1N(COC)C(=O)CS(O)(=O)=O
RETENTIONTIME: 
CCS: -1
IONMODE: Negative
INSTRUMENTTYPE: LC-ESI-ITFT
INSTRUMENT: 
COLLISIONENERGY: 90
Comment: registered in MassBank
Num Peaks: 5
76.9702	44
79.9572	1000
120.9606	16
149.09711	11
158.09711	19

NAME: Alachlor ESA; LC-ESI-ITFT; MS2; CE
PRECURSORMZ: 314.106767
PRECURSORTYPE: [M-H]-
FORMULA: C14H21NO5S
Ontology: Anilides
INCHIKEY: UTCJUUGCHWHUNI-UHFFFAOYSA-N
SMILES: CCC1=CC=CC(CC)=C1N(COC)C(=O)CS(O)(=O)=O
RETENTIONTIME: 
CCS: -1
IONMODE: Negative
INSTRUMENTTYPE: LC-ESI-ITFT
INSTRUMENT: 
COLLISIONENERGY: 35
Comment: registered in MassBank
Num Peaks: 9
76.9703	6
119.9757	14
120.96	1000
149.09689	25
158.09731	33
160.1129	103
176.1078	119
218.1183	19
282.0798	7

NAME: Alachlor OXA; LC-ESI-ITFT; MS2; CE
PRECURSORMZ: 264.124132
PRECURSORTYPE: [M-H]-
FORMULA: C14H19NO4
Ontology: Alpha amino acids and derivatives
INCHIKEY: MHCYOELBTPOBIU-UHFFFAOYSA-N
SMILES: CCC1=CC=CC(CC)=C1N(COC)C(=O)C(O)=O
RETENTIONTIME: 
CCS: 168.3900802
IONMODE: Negative
INSTRUMENTTYPE: LC-ESI-ITFT
INSTRUMENT: 
COLLISIONENERGY: 35
Comment: registered in MassBank
Num Peaks: 2
160.1132	1000
192.1394	20

NAME: Alachlor OXA; LC-ESI-ITFT; MS2; CE
PRECURSORMZ: 264.124132
PRECURSORTYPE: [M-H]-
FORMULA: C14H19NO4
Ontology: Alpha amino acids and derivatives
INCHIKEY: MHCYOELBTPOBIU-UHFFFAOYSA-N
SMILES: CCC1=CC=CC(CC)=C1N(COC)C(=O)C(O)=O
RETENTIONTIME: 
CCS: 168.3900802
IONMODE: Negative
INSTRUMENTTYPE: LC-ESI-ITFT
INSTRUMENT: 
COLLISIONENERGY: 15
Comment: registered in MassBank
Num Peaks: 6
148.1131	9
158.0975	9
160.1132	1000
162.09219	18
192.1396	10
264.1236	26

NAME: Alachlor OXA; LC-ESI-ITFT; MS2; CE
PRECURSORMZ: 264.124132
PRECURSORTYPE: [M-H]-
FORMULA: C14H19NO4
Ontology: Alpha amino acids and derivatives
INCHIKEY: MHCYOELBTPOBIU-UHFFFAOYSA-N
SMILES: CCC1=CC=CC(CC)=C1N(COC)C(=O)C(O)=O
RETENTIONTIME: 
CCS: 168.3900802
IONMODE: Negative
INSTRUMENTTYPE: LC-ESI-ITFT
INSTRUMENT: 
COLLISIONENERGY: 30
Comment: registered in MassBank
Num Peaks: 2
158.0975	23
160.1131	1000

NAME: Alachlor OXA; LC-ESI-ITFT; MS2; CE
PRECURSORMZ: 264.124132
PRECURSORTYPE: [M-H]-
FORMULA: C14H19NO4
Ontology: Alpha amino acids and derivatives
INCHIKEY: MHCYOELBTPOBIU-UHFFFAOYSA-N
SMILES: CCC1=CC=CC(CC)=C1N(COC)C(=O)C(O)=O
RETENTIONTIME: 
CCS: 168.3900802
IONMODE: Negative
INSTRUMENTTYPE: LC-ESI-ITFT
INSTRUMENT: 
COLLISIONENERGY: 45
Comment: registered in MassBank
Num Peaks: 2
158.0976	374
160.1132	1000

NAME: Alachlor OXA; LC-ESI-ITFT; MS2; CE
PRECURSORMZ: 264.124132
PRECURSORTYPE: [M-H]-
FORMULA: C14H19NO4
Ontology: Alpha amino acids and derivatives
INCHIKEY: MHCYOELBTPOBIU-UHFFFAOYSA-N
SMILES: CCC1=CC=CC(CC)=C1N(COC)C(=O)C(O)=O
RETENTIONTIME: 
CCS: 168.3900802
IONMODE: Negative
INSTRUMENTTYPE: LC-ESI-ITFT
INSTRUMENT: 
COLLISIONENERGY: 60
Comment: registered in MassBank
Num Peaks: 4
143.07381	40
144.08141	26
158.0975	1000
160.1131	333

NAME: Alachlor OXA; LC-ESI-ITFT; MS2; CE
PRECURSORMZ: 264.124132
PRECURSORTYPE: [M-H]-
FORMULA: C14H19NO4
Ontology: Alpha amino acids and derivatives
INCHIKEY: MHCYOELBTPOBIU-UHFFFAOYSA-N
SMILES: CCC1=CC=CC(CC)=C1N(COC)C(=O)C(O)=O
RETENTIONTIME: 
CCS: 168.3900802
IONMODE: Negative
INSTRUMENTTYPE: LC-ESI-ITFT
INSTRUMENT: 
COLLISIONENERGY: 75
Comment: registered in MassBank
Num Peaks: 5
143.0739	234
144.0818	73
158.0975	1000
160.1124	46
175.064	21

NAME: Alachlor OXA; LC-ESI-ITFT; MS2; CE
PRECURSORMZ: 264.124132
PRECURSORTYPE: [M-H]-
FORMULA: C14H19NO4
Ontology: Alpha amino acids and derivatives
INCHIKEY: MHCYOELBTPOBIU-UHFFFAOYSA-N
SMILES: CCC1=CC=CC(CC)=C1N(COC)C(=O)C(O)=O
RETENTIONTIME: 
CCS: 168.3900802
IONMODE: Negative
INSTRUMENTTYPE: LC-ESI-ITFT
INSTRUMENT: 
COLLISIONENERGY: 90
Comment: registered in MassBank
Num Peaks: 5
143.0739	841
144.0818	283
156.0816	33
158.0975	1000
175.0632	75

NAME: Alachlor OXA; LC-ESI-ITFT; MS2; CE
PRECURSORMZ: 264.124132
PRECURSORTYPE: [M-H]-
FORMULA: C14H19NO4
Ontology: Alpha amino acids and derivatives
INCHIKEY: MHCYOELBTPOBIU-UHFFFAOYSA-N
SMILES: CCC1=CC=CC(CC)=C1N(COC)C(=O)C(O)=O
RETENTIONTIME: 
CCS: 168.3900802
IONMODE: Negative
INSTRUMENTTYPE: LC-ESI-ITFT
INSTRUMENT: 
COLLISIONENERGY: 15
Comment: registered in MassBank
Num Peaks: 6
148.1131	6
158.0974	10
160.1132	1000
162.092	14
192.1394	7
264.1236	23

NAME: Alachlor OXA; LC-ESI-ITFT; MS2; CE
PRECURSORMZ: 264.124132
PRECURSORTYPE: [M-H]-
FORMULA: C14H19NO4
Ontology: Alpha amino acids and derivatives
INCHIKEY: MHCYOELBTPOBIU-UHFFFAOYSA-N
SMILES: CCC1=CC=CC(CC)=C1N(COC)C(=O)C(O)=O
RETENTIONTIME: 
CCS: 168.3900802
IONMODE: Negative
INSTRUMENTTYPE: LC-ESI-ITFT
INSTRUMENT: 
COLLISIONENERGY: 30
Comment: registered in MassBank
Num Peaks: 2
158.0974	16
160.1132	1000

NAME: Alachlor OXA; LC-ESI-ITFT; MS2; CE
PRECURSORMZ: 264.124132
PRECURSORTYPE: [M-H]-
FORMULA: C14H19NO4
Ontology: Alpha amino acids and derivatives
INCHIKEY: MHCYOELBTPOBIU-UHFFFAOYSA-N
SMILES: CCC1=CC=CC(CC)=C1N(COC)C(=O)C(O)=O
RETENTIONTIME: 
CCS: 168.3900802
IONMODE: Negative
INSTRUMENTTYPE: LC-ESI-ITFT
INSTRUMENT: 
COLLISIONENERGY: 45
Comment: registered in MassBank
Num Peaks: 2
158.0975	335
160.1132	1000

NAME: Alachlor OXA; LC-ESI-ITFT; MS2; CE
PRECURSORMZ: 264.124132
PRECURSORTYPE: [M-H]-
FORMULA: C14H19NO4
Ontology: Alpha amino acids and derivatives
INCHIKEY: MHCYOELBTPOBIU-UHFFFAOYSA-N
SMILES: CCC1=CC=CC(CC)=C1N(COC)C(=O)C(O)=O
RETENTIONTIME: 
CCS: 168.3900802
IONMODE: Negative
INSTRUMENTTYPE: LC-ESI-ITFT
INSTRUMENT: 
COLLISIONENERGY: 60
Comment: registered in MassBank
Num Peaks: 4
143.07381	32
144.0815	19
158.0975	1000
160.1131	281

NAME: Alachlor OXA; LC-ESI-ITFT; MS2; CE
PRECURSORMZ: 264.124132
PRECURSORTYPE: [M-H]-
FORMULA: C14H19NO4
Ontology: Alpha amino acids and derivatives
INCHIKEY: MHCYOELBTPOBIU-UHFFFAOYSA-N
SMILES: CCC1=CC=CC(CC)=C1N(COC)C(=O)C(O)=O
RETENTIONTIME: 
CCS: 168.3900802
IONMODE: Negative
INSTRUMENTTYPE: LC-ESI-ITFT
INSTRUMENT: 
COLLISIONENERGY: 75
Comment: registered in MassBank
Num Peaks: 5
143.0739	211
144.0817	78
158.0975	1000
160.11279	45
175.06371	22

NAME: Alachlor OXA; LC-ESI-ITFT; MS2; CE
PRECURSORMZ: 264.124132
PRECURSORTYPE: [M-H]-
FORMULA: C14H19NO4
Ontology: Alpha amino acids and derivatives
INCHIKEY: MHCYOELBTPOBIU-UHFFFAOYSA-N
SMILES: CCC1=CC=CC(CC)=C1N(COC)C(=O)C(O)=O
RETENTIONTIME: 
CCS: 168.3900802
IONMODE: Negative
INSTRUMENTTYPE: LC-ESI-ITFT
INSTRUMENT: 
COLLISIONENERGY: 90
Comment: registered in MassBank
Num Peaks: 4
143.07381	865
144.0818	182
158.09731	1000
175.0636	75

NAME: Alachlor OXA; LC-ESI-ITFT; MS2; CE
PRECURSORMZ: 264.124132
PRECURSORTYPE: [M-H]-
FORMULA: C14H19NO4
Ontology: Alpha amino acids and derivatives
INCHIKEY: MHCYOELBTPOBIU-UHFFFAOYSA-N
SMILES: CCC1=CC=CC(CC)=C1N(COC)C(=O)C(O)=O
RETENTIONTIME: 
CCS: 168.3900802
IONMODE: Negative
INSTRUMENTTYPE: LC-ESI-ITFT
INSTRUMENT: 
COLLISIONENERGY: 35
Comment: registered in MassBank
Num Peaks: 2
160.1132	1000
192.13879	10

NAME: Acetochlor OXA; LC-ESI-ITFT; MS2; CE
PRECURSORMZ: 264.124132
PRECURSORTYPE: [M-H]-
FORMULA: C14H19NO4
Ontology: Alpha amino acids and derivatives
INCHIKEY: OTKTUNJJKYTOFF-UHFFFAOYSA-N
SMILES: CCOCN(C(=O)C(O)=O)C1=C(C)C=CC=C1CC
RETENTIONTIME: 
CCS: 167.7703802
IONMODE: Negative
INSTRUMENTTYPE: LC-ESI-ITFT
INSTRUMENT: 
COLLISIONENERGY: 35
Comment: registered in MassBank
Num Peaks: 3
134.0976	7
144.08189	9
146.0976	1000

NAME: Acetochlor OXA; LC-ESI-ITFT; MS2; CE
PRECURSORMZ: 264.124132
PRECURSORTYPE: [M-H]-
FORMULA: C14H19NO4
Ontology: Alpha amino acids and derivatives
INCHIKEY: OTKTUNJJKYTOFF-UHFFFAOYSA-N
SMILES: CCOCN(C(=O)C(O)=O)C1=C(C)C=CC=C1CC
RETENTIONTIME: 
CCS: 167.7703802
IONMODE: Negative
INSTRUMENTTYPE: LC-ESI-ITFT
INSTRUMENT: 
COLLISIONENERGY: 15
Comment: registered in MassBank
Num Peaks: 5
134.0974	12
144.0818	20
146.0976	1000
192.1389	9
264.12399	29

NAME: Acetochlor OXA; LC-ESI-ITFT; MS2; CE
PRECURSORMZ: 264.124132
PRECURSORTYPE: [M-H]-
FORMULA: C14H19NO4
Ontology: Alpha amino acids and derivatives
INCHIKEY: OTKTUNJJKYTOFF-UHFFFAOYSA-N
SMILES: CCOCN(C(=O)C(O)=O)C1=C(C)C=CC=C1CC
RETENTIONTIME: 
CCS: 167.7703802
IONMODE: Negative
INSTRUMENTTYPE: LC-ESI-ITFT
INSTRUMENT: 
COLLISIONENERGY: 30
Comment: registered in MassBank
Num Peaks: 2
144.08189	44
146.0975	1000

NAME: Acetochlor OXA; LC-ESI-ITFT; MS2; CE
PRECURSORMZ: 264.124132
PRECURSORTYPE: [M-H]-
FORMULA: C14H19NO4
Ontology: Alpha amino acids and derivatives
INCHIKEY: OTKTUNJJKYTOFF-UHFFFAOYSA-N
SMILES: CCOCN(C(=O)C(O)=O)C1=C(C)C=CC=C1CC
RETENTIONTIME: 
CCS: 167.7703802
IONMODE: Negative
INSTRUMENTTYPE: LC-ESI-ITFT
INSTRUMENT: 
COLLISIONENERGY: 45
Comment: registered in MassBank
Num Peaks: 2
144.08189	460
146.0976	1000

NAME: Acetochlor OXA; LC-ESI-ITFT; MS2; CE
PRECURSORMZ: 264.124132
PRECURSORTYPE: [M-H]-
FORMULA: C14H19NO4
Ontology: Alpha amino acids and derivatives
INCHIKEY: OTKTUNJJKYTOFF-UHFFFAOYSA-N
SMILES: CCOCN(C(=O)C(O)=O)C1=C(C)C=CC=C1CC
RETENTIONTIME: 
CCS: 167.7703802
IONMODE: Negative
INSTRUMENTTYPE: LC-ESI-ITFT
INSTRUMENT: 
COLLISIONENERGY: 60
Comment: registered in MassBank
Num Peaks: 3
129.058	12
144.08189	1000
146.0975	283

NAME: Acetochlor OXA; LC-ESI-ITFT; MS2; CE
PRECURSORMZ: 264.124132
PRECURSORTYPE: [M-H]-
FORMULA: C14H19NO4
Ontology: Alpha amino acids and derivatives
INCHIKEY: OTKTUNJJKYTOFF-UHFFFAOYSA-N
SMILES: CCOCN(C(=O)C(O)=O)C1=C(C)C=CC=C1CC
RETENTIONTIME: 
CCS: 167.7703802
IONMODE: Negative
INSTRUMENTTYPE: LC-ESI-ITFT
INSTRUMENT: 
COLLISIONENERGY: 75
Comment: registered in MassBank
Num Peaks: 3
129.0583	70
144.08189	1000
146.09731	48

NAME: Acetochlor OXA; LC-ESI-ITFT; MS2; CE
PRECURSORMZ: 264.124132
PRECURSORTYPE: [M-H]-
FORMULA: C14H19NO4
Ontology: Alpha amino acids and derivatives
INCHIKEY: OTKTUNJJKYTOFF-UHFFFAOYSA-N
SMILES: CCOCN(C(=O)C(O)=O)C1=C(C)C=CC=C1CC
RETENTIONTIME: 
CCS: 167.7703802
IONMODE: Negative
INSTRUMENTTYPE: LC-ESI-ITFT
INSTRUMENT: 
COLLISIONENERGY: 90
Comment: registered in MassBank
Num Peaks: 3
129.0584	460
144.08189	1000
146.0974	14

NAME: Acetochlor OXA; LC-ESI-ITFT; MS2; CE
PRECURSORMZ: 264.124132
PRECURSORTYPE: [M-H]-
FORMULA: C14H19NO4
Ontology: Alpha amino acids and derivatives
INCHIKEY: OTKTUNJJKYTOFF-UHFFFAOYSA-N
SMILES: CCOCN(C(=O)C(O)=O)C1=C(C)C=CC=C1CC
RETENTIONTIME: 
CCS: 167.7703802
IONMODE: Negative
INSTRUMENTTYPE: LC-ESI-ITFT
INSTRUMENT: 
COLLISIONENERGY: 15
Comment: registered in MassBank
Num Peaks: 5
134.0972	9
144.0817	17
146.0976	1000
192.1391	7
264.12369	24

NAME: Acetochlor OXA; LC-ESI-ITFT; MS2; CE
PRECURSORMZ: 264.124132
PRECURSORTYPE: [M-H]-
FORMULA: C14H19NO4
Ontology: Alpha amino acids and derivatives
INCHIKEY: OTKTUNJJKYTOFF-UHFFFAOYSA-N
SMILES: CCOCN(C(=O)C(O)=O)C1=C(C)C=CC=C1CC
RETENTIONTIME: 
CCS: 167.7703802
IONMODE: Negative
INSTRUMENTTYPE: LC-ESI-ITFT
INSTRUMENT: 
COLLISIONENERGY: 30
Comment: registered in MassBank
Num Peaks: 2
144.0817	43
146.0976	1000

NAME: Acetochlor OXA; LC-ESI-ITFT; MS2; CE
PRECURSORMZ: 264.124132
PRECURSORTYPE: [M-H]-
FORMULA: C14H19NO4
Ontology: Alpha amino acids and derivatives
INCHIKEY: OTKTUNJJKYTOFF-UHFFFAOYSA-N
SMILES: CCOCN(C(=O)C(O)=O)C1=C(C)C=CC=C1CC
RETENTIONTIME: 
CCS: 167.7703802
IONMODE: Negative
INSTRUMENTTYPE: LC-ESI-ITFT
INSTRUMENT: 
COLLISIONENERGY: 45
Comment: registered in MassBank
Num Peaks: 2
144.08189	441
146.0975	1000

NAME: Acetochlor OXA; LC-ESI-ITFT; MS2; CE
PRECURSORMZ: 264.124132
PRECURSORTYPE: [M-H]-
FORMULA: C14H19NO4
Ontology: Alpha amino acids and derivatives
INCHIKEY: OTKTUNJJKYTOFF-UHFFFAOYSA-N
SMILES: CCOCN(C(=O)C(O)=O)C1=C(C)C=CC=C1CC
RETENTIONTIME: 
CCS: 167.7703802
IONMODE: Negative
INSTRUMENTTYPE: LC-ESI-ITFT
INSTRUMENT: 
COLLISIONENERGY: 60
Comment: registered in MassBank
Num Peaks: 2
144.0818	1000
146.0974	245

NAME: Acetochlor OXA; LC-ESI-ITFT; MS2; CE
PRECURSORMZ: 264.124132
PRECURSORTYPE: [M-H]-
FORMULA: C14H19NO4
Ontology: Alpha amino acids and derivatives
INCHIKEY: OTKTUNJJKYTOFF-UHFFFAOYSA-N
SMILES: CCOCN(C(=O)C(O)=O)C1=C(C)C=CC=C1CC
RETENTIONTIME: 
CCS: 167.7703802
IONMODE: Negative
INSTRUMENTTYPE: LC-ESI-ITFT
INSTRUMENT: 
COLLISIONENERGY: 75
Comment: registered in MassBank
Num Peaks: 3
129.0584	69
144.0818	1000
146.0974	36

NAME: Acetochlor OXA; LC-ESI-ITFT; MS2; CE
PRECURSORMZ: 264.124132
PRECURSORTYPE: [M-H]-
FORMULA: C14H19NO4
Ontology: Alpha amino acids and derivatives
INCHIKEY: OTKTUNJJKYTOFF-UHFFFAOYSA-N
SMILES: CCOCN(C(=O)C(O)=O)C1=C(C)C=CC=C1CC
RETENTIONTIME: 
CCS: 167.7703802
IONMODE: Negative
INSTRUMENTTYPE: LC-ESI-ITFT
INSTRUMENT: 
COLLISIONENERGY: 90
Comment: registered in MassBank
Num Peaks: 2
129.0583	241
144.0817	1000

NAME: Acetochlor OXA; LC-ESI-ITFT; MS2; CE
PRECURSORMZ: 264.124132
PRECURSORTYPE: [M-H]-
FORMULA: C14H19NO4
Ontology: Alpha amino acids and derivatives
INCHIKEY: OTKTUNJJKYTOFF-UHFFFAOYSA-N
SMILES: CCOCN(C(=O)C(O)=O)C1=C(C)C=CC=C1CC
RETENTIONTIME: 
CCS: 167.7703802
IONMODE: Negative
INSTRUMENTTYPE: LC-ESI-ITFT
INSTRUMENT: 
COLLISIONENERGY: 35
Comment: registered in MassBank
Num Peaks: 1
146.0976	1000

NAME: Acetochlor ESA; LC-ESI-ITFT; MS2; CE
PRECURSORMZ: 314.106767
PRECURSORTYPE: [M-H]-
FORMULA: C14H21NO5S
Ontology: Anilides
INCHIKEY: HXAIQOCRALNGKB-UHFFFAOYSA-N
SMILES: CCOCN(C(=O)CS(O)(=O)=O)C1=C(C)C=CC=C1CC
RETENTIONTIME: 
CCS: 181.399376
IONMODE: Negative
INSTRUMENTTYPE: LC-ESI-ITFT
INSTRUMENT: 
COLLISIONENERGY: 35
Comment: registered in MassBank
Num Peaks: 11
76.9702	15
119.976	34
120.9601	1000
135.0813	24
144.0818	58
146.0975	95
162.09241	216
175.0766	9
204.1031	30
256.0647	11
268.0643	13

NAME: Acetochlor ESA; LC-ESI-ITFT; MS2; CE
PRECURSORMZ: 314.106767
PRECURSORTYPE: [M-H]-
FORMULA: C14H21NO5S
Ontology: Anilides
INCHIKEY: HXAIQOCRALNGKB-UHFFFAOYSA-N
SMILES: CCOCN(C(=O)CS(O)(=O)=O)C1=C(C)C=CC=C1CC
RETENTIONTIME: 
CCS: 181.399376
IONMODE: Negative
INSTRUMENTTYPE: LC-ESI-ITFT
INSTRUMENT: 
COLLISIONENERGY: 30
Comment: registered in MassBank
Num Peaks: 5
76.9705	13
79.9572	29
120.96	64
162.09261	9
314.1066	1000

NAME: Acetochlor ESA; LC-ESI-ITFT; MS2; CE
PRECURSORMZ: 314.106767
PRECURSORTYPE: [M-H]-
FORMULA: C14H21NO5S
Ontology: Anilides
INCHIKEY: HXAIQOCRALNGKB-UHFFFAOYSA-N
SMILES: CCOCN(C(=O)CS(O)(=O)=O)C1=C(C)C=CC=C1CC
RETENTIONTIME: 
CCS: 181.399376
IONMODE: Negative
INSTRUMENTTYPE: LC-ESI-ITFT
INSTRUMENT: 
COLLISIONENERGY: 45
Comment: registered in MassBank
Num Peaks: 9
76.9701	169
79.9573	1000
119.9758	27
120.96	551
135.08141	28
144.08189	40
146.09731	102
162.09241	212
314.10641	540

NAME: Acetochlor ESA; LC-ESI-ITFT; MS2; CE
PRECURSORMZ: 314.106767
PRECURSORTYPE: [M-H]-
FORMULA: C14H21NO5S
Ontology: Anilides
INCHIKEY: HXAIQOCRALNGKB-UHFFFAOYSA-N
SMILES: CCOCN(C(=O)CS(O)(=O)=O)C1=C(C)C=CC=C1CC
RETENTIONTIME: 
CCS: 181.399376
IONMODE: Negative
INSTRUMENTTYPE: LC-ESI-ITFT
INSTRUMENT: 
COLLISIONENERGY: 60
Comment: registered in MassBank
Num Peaks: 8
76.9702	131
79.9573	1000
119.9766	24
120.9601	173
135.082	18
144.08189	87
146.0972	36
162.0923	84

NAME: Acetochlor ESA; LC-ESI-ITFT; MS2; CE
PRECURSORMZ: 314.106767
PRECURSORTYPE: [M-H]-
FORMULA: C14H21NO5S
Ontology: Anilides
INCHIKEY: HXAIQOCRALNGKB-UHFFFAOYSA-N
SMILES: CCOCN(C(=O)CS(O)(=O)=O)C1=C(C)C=CC=C1CC
RETENTIONTIME: 
CCS: 181.399376
IONMODE: Negative
INSTRUMENTTYPE: LC-ESI-ITFT
INSTRUMENT: 
COLLISIONENERGY: 75
Comment: registered in MassBank
Num Peaks: 8
76.9702	118
79.9573	1000
93.9732	22
119.9765	13
120.9603	58
134.0981	12
135.0813	14
144.0817	113

NAME: Acetochlor ESA; LC-ESI-ITFT; MS2; CE
PRECURSORMZ: 314.106767
PRECURSORTYPE: [M-H]-
FORMULA: C14H21NO5S
Ontology: Anilides
INCHIKEY: HXAIQOCRALNGKB-UHFFFAOYSA-N
SMILES: CCOCN(C(=O)CS(O)(=O)=O)C1=C(C)C=CC=C1CC
RETENTIONTIME: 
CCS: 181.399376
IONMODE: Negative
INSTRUMENTTYPE: LC-ESI-ITFT
INSTRUMENT: 
COLLISIONENERGY: 90
Comment: registered in MassBank
Num Peaks: 3
76.9702	88
79.9573	1000
144.0818	71

NAME: Acetochlor ESA; LC-ESI-ITFT; MS2; CE
PRECURSORMZ: 314.106767
PRECURSORTYPE: [M-H]-
FORMULA: C14H21NO5S
Ontology: Anilides
INCHIKEY: HXAIQOCRALNGKB-UHFFFAOYSA-N
SMILES: CCOCN(C(=O)CS(O)(=O)=O)C1=C(C)C=CC=C1CC
RETENTIONTIME: 
CCS: 181.399376
IONMODE: Negative
INSTRUMENTTYPE: LC-ESI-ITFT
INSTRUMENT: 
COLLISIONENERGY: 30
Comment: registered in MassBank
Num Peaks: 5
76.9702	7
79.9572	19
120.9601	45
162.09241	13
314.1066	1000

NAME: Acetochlor ESA; LC-ESI-ITFT; MS2; CE
PRECURSORMZ: 314.106767
PRECURSORTYPE: [M-H]-
FORMULA: C14H21NO5S
Ontology: Anilides
INCHIKEY: HXAIQOCRALNGKB-UHFFFAOYSA-N
SMILES: CCOCN(C(=O)CS(O)(=O)=O)C1=C(C)C=CC=C1CC
RETENTIONTIME: 
CCS: 181.399376
IONMODE: Negative
INSTRUMENTTYPE: LC-ESI-ITFT
INSTRUMENT: 
COLLISIONENERGY: 45
Comment: registered in MassBank
Num Peaks: 8
76.9702	146
79.9573	1000
120.9599	435
135.08141	18
144.08121	32
146.09731	90
162.0923	207
314.1062	512

NAME: Acetochlor ESA; LC-ESI-ITFT; MS2; CE
PRECURSORMZ: 314.106767
PRECURSORTYPE: [M-H]-
FORMULA: C14H21NO5S
Ontology: Anilides
INCHIKEY: HXAIQOCRALNGKB-UHFFFAOYSA-N
SMILES: CCOCN(C(=O)CS(O)(=O)=O)C1=C(C)C=CC=C1CC
RETENTIONTIME: 
CCS: 181.399376
IONMODE: Negative
INSTRUMENTTYPE: LC-ESI-ITFT
INSTRUMENT: 
COLLISIONENERGY: 60
Comment: registered in MassBank
Num Peaks: 7
76.9701	91
79.9573	1000
120.9601	121
135.0816	17
144.082	79
146.09689	18
162.0923	71

NAME: Acetochlor ESA; LC-ESI-ITFT; MS2; CE
PRECURSORMZ: 314.106767
PRECURSORTYPE: [M-H]-
FORMULA: C14H21NO5S
Ontology: Anilides
INCHIKEY: HXAIQOCRALNGKB-UHFFFAOYSA-N
SMILES: CCOCN(C(=O)CS(O)(=O)=O)C1=C(C)C=CC=C1CC
RETENTIONTIME: 
CCS: 181.399376
IONMODE: Negative
INSTRUMENTTYPE: LC-ESI-ITFT
INSTRUMENT: 
COLLISIONENERGY: 75
Comment: registered in MassBank
Num Peaks: 8
76.9701	98
79.9573	1000
93.9728	22
120.9603	37
134.09779	14
135.0813	15
144.0817	78
162.0921	12

NAME: Acetochlor ESA; LC-ESI-ITFT; MS2; CE
PRECURSORMZ: 314.106767
PRECURSORTYPE: [M-H]-
FORMULA: C14H21NO5S
Ontology: Anilides
INCHIKEY: HXAIQOCRALNGKB-UHFFFAOYSA-N
SMILES: CCOCN(C(=O)CS(O)(=O)=O)C1=C(C)C=CC=C1CC
RETENTIONTIME: 
CCS: 181.399376
IONMODE: Negative
INSTRUMENTTYPE: LC-ESI-ITFT
INSTRUMENT: 
COLLISIONENERGY: 90
Comment: registered in MassBank
Num Peaks: 3
76.9702	49
79.9573	1000
144.0818	36

NAME: Acetochlor ESA; LC-ESI-ITFT; MS2; CE
PRECURSORMZ: 314.106767
PRECURSORTYPE: [M-H]-
FORMULA: C14H21NO5S
Ontology: Anilides
INCHIKEY: HXAIQOCRALNGKB-UHFFFAOYSA-N
SMILES: CCOCN(C(=O)CS(O)(=O)=O)C1=C(C)C=CC=C1CC
RETENTIONTIME: 
CCS: 181.399376
IONMODE: Negative
INSTRUMENTTYPE: LC-ESI-ITFT
INSTRUMENT: 
COLLISIONENERGY: 35
Comment: registered in MassBank
Num Peaks: 9
119.976	16
120.96	1000
135.08141	8
144.0816	36
146.09731	64
162.0923	180
204.10271	12
256.06461	7
268.0647	6

NAME: Fluazinam; LC-ESI-ITFT; MS2; CE
PRECURSORMZ: 462.944103
PRECURSORTYPE: [M-H]-
FORMULA: C13H4Cl2F6N4O4
Ontology: Trifluoromethylbenzenes
INCHIKEY: UZCGKGPEKUCDTF-UHFFFAOYSA-N
SMILES: FC(F)(F)C1=CC(Cl)=C(NC2=C(C=C(C(Cl)=C2N(=O)=O)C(F)(F)F)N(=O)=O)N=C1
RETENTIONTIME: 
CCS: 144.3736385
IONMODE: Negative
INSTRUMENTTYPE: LC-ESI-ITFT
INSTRUMENT: 
COLLISIONENERGY: 35
Comment: registered in MassBank
Num Peaks: 3
386.95291	185
397.97711	1000
415.94312	667

NAME: Fluazinam; LC-ESI-ITFT; MS2; CE
PRECURSORMZ: 462.944103
PRECURSORTYPE: [M-H]-
FORMULA: C13H4Cl2F6N4O4
Ontology: Trifluoromethylbenzenes
INCHIKEY: UZCGKGPEKUCDTF-UHFFFAOYSA-N
SMILES: FC(F)(F)C1=CC(Cl)=C(NC2=C(C=C(C(Cl)=C2N(=O)=O)C(F)(F)F)N(=O)=O)N=C1
RETENTIONTIME: 
CCS: 144.3736385
IONMODE: Negative
INSTRUMENTTYPE: LC-ESI-ITFT
INSTRUMENT: 
COLLISIONENERGY: 15
Comment: registered in MassBank
Num Peaks: 3
397.9776	189
415.94421	150
462.9447	1000

NAME: Fluazinam; LC-ESI-ITFT; MS2; CE
PRECURSORMZ: 462.944103
PRECURSORTYPE: [M-H]-
FORMULA: C13H4Cl2F6N4O4
Ontology: Trifluoromethylbenzenes
INCHIKEY: UZCGKGPEKUCDTF-UHFFFAOYSA-N
SMILES: FC(F)(F)C1=CC(Cl)=C(NC2=C(C=C(C(Cl)=C2N(=O)=O)C(F)(F)F)N(=O)=O)N=C1
RETENTIONTIME: 
CCS: 144.3736385
IONMODE: Negative
INSTRUMENTTYPE: LC-ESI-ITFT
INSTRUMENT: 
COLLISIONENERGY: 30
Comment: registered in MassBank
Num Peaks: 2
397.978	284
415.94421	1000

NAME: Fluazinam; LC-ESI-ITFT; MS2; CE
PRECURSORMZ: 462.944103
PRECURSORTYPE: [M-H]-
FORMULA: C13H4Cl2F6N4O4
Ontology: Trifluoromethylbenzenes
INCHIKEY: UZCGKGPEKUCDTF-UHFFFAOYSA-N
SMILES: FC(F)(F)C1=CC(Cl)=C(NC2=C(C=C(C(Cl)=C2N(=O)=O)C(F)(F)F)N(=O)=O)N=C1
RETENTIONTIME: 
CCS: 144.3736385
IONMODE: Negative
INSTRUMENTTYPE: LC-ESI-ITFT
INSTRUMENT: 
COLLISIONENERGY: 45
Comment: registered in MassBank
Num Peaks: 1
415.9433	1000

NAME: Fluazinam; LC-ESI-ITFT; MS2; CE
PRECURSORMZ: 462.944103
PRECURSORTYPE: [M-H]-
FORMULA: C13H4Cl2F6N4O4
Ontology: Trifluoromethylbenzenes
INCHIKEY: UZCGKGPEKUCDTF-UHFFFAOYSA-N
SMILES: FC(F)(F)C1=CC(Cl)=C(NC2=C(C=C(C(Cl)=C2N(=O)=O)C(F)(F)F)N(=O)=O)N=C1
RETENTIONTIME: 
CCS: 144.3736385
IONMODE: Negative
INSTRUMENTTYPE: LC-ESI-ITFT
INSTRUMENT: 
COLLISIONENERGY: 60
Comment: registered in MassBank
Num Peaks: 1
334.98071	1000

NAME: Fluazinam; LC-ESI-ITFT; MS2; CE
PRECURSORMZ: 462.944103
PRECURSORTYPE: [M-H]-
FORMULA: C13H4Cl2F6N4O4
Ontology: Trifluoromethylbenzenes
INCHIKEY: UZCGKGPEKUCDTF-UHFFFAOYSA-N
SMILES: FC(F)(F)C1=CC(Cl)=C(NC2=C(C=C(C(Cl)=C2N(=O)=O)C(F)(F)F)N(=O)=O)N=C1
RETENTIONTIME: 
CCS: 144.3736385
IONMODE: Negative
INSTRUMENTTYPE: LC-ESI-ITFT
INSTRUMENT: 
COLLISIONENERGY: 75
Comment: registered in MassBank
Num Peaks: 1
334.98169	1000

NAME: Fluazinam; LC-ESI-ITFT; MS2; CE
PRECURSORMZ: 462.944103
PRECURSORTYPE: [M-H]-
FORMULA: C13H4Cl2F6N4O4
Ontology: Trifluoromethylbenzenes
INCHIKEY: UZCGKGPEKUCDTF-UHFFFAOYSA-N
SMILES: FC(F)(F)C1=CC(Cl)=C(NC2=C(C=C(C(Cl)=C2N(=O)=O)C(F)(F)F)N(=O)=O)N=C1
RETENTIONTIME: 
CCS: 144.3736385
IONMODE: Negative
INSTRUMENTTYPE: LC-ESI-ITFT
INSTRUMENT: 
COLLISIONENERGY: 15
Comment: registered in MassBank
Num Peaks: 3
397.9772	178
415.94379	153
462.94431	1000

NAME: Fluazinam; LC-ESI-ITFT; MS2; CE
PRECURSORMZ: 462.944103
PRECURSORTYPE: [M-H]-
FORMULA: C13H4Cl2F6N4O4
Ontology: Trifluoromethylbenzenes
INCHIKEY: UZCGKGPEKUCDTF-UHFFFAOYSA-N
SMILES: FC(F)(F)C1=CC(Cl)=C(NC2=C(C=C(C(Cl)=C2N(=O)=O)C(F)(F)F)N(=O)=O)N=C1
RETENTIONTIME: 
CCS: 144.3736385
IONMODE: Negative
INSTRUMENTTYPE: LC-ESI-ITFT
INSTRUMENT: 
COLLISIONENERGY: 30
Comment: registered in MassBank
Num Peaks: 2
397.97711	249
415.9429	1000

NAME: Fluazinam; LC-ESI-ITFT; MS2; CE
PRECURSORMZ: 462.944103
PRECURSORTYPE: [M-H]-
FORMULA: C13H4Cl2F6N4O4
Ontology: Trifluoromethylbenzenes
INCHIKEY: UZCGKGPEKUCDTF-UHFFFAOYSA-N
SMILES: FC(F)(F)C1=CC(Cl)=C(NC2=C(C=C(C(Cl)=C2N(=O)=O)C(F)(F)F)N(=O)=O)N=C1
RETENTIONTIME: 
CCS: 144.3736385
IONMODE: Negative
INSTRUMENTTYPE: LC-ESI-ITFT
INSTRUMENT: 
COLLISIONENERGY: 45
Comment: registered in MassBank
Num Peaks: 4
369.95129	182
385.94531	152
386.95389	190
415.94321	1000

NAME: Fluazinam; LC-ESI-ITFT; MS2; CE
PRECURSORMZ: 462.944103
PRECURSORTYPE: [M-H]-
FORMULA: C13H4Cl2F6N4O4
Ontology: Trifluoromethylbenzenes
INCHIKEY: UZCGKGPEKUCDTF-UHFFFAOYSA-N
SMILES: FC(F)(F)C1=CC(Cl)=C(NC2=C(C=C(C(Cl)=C2N(=O)=O)C(F)(F)F)N(=O)=O)N=C1
RETENTIONTIME: 
CCS: 144.3736385
IONMODE: Negative
INSTRUMENTTYPE: LC-ESI-ITFT
INSTRUMENT: 
COLLISIONENERGY: 60
Comment: registered in MassBank
Num Peaks: 1
334.98169	1000

NAME: Fluazinam; LC-ESI-ITFT; MS2; CE
PRECURSORMZ: 462.944103
PRECURSORTYPE: [M-H]-
FORMULA: C13H4Cl2F6N4O4
Ontology: Trifluoromethylbenzenes
INCHIKEY: UZCGKGPEKUCDTF-UHFFFAOYSA-N
SMILES: FC(F)(F)C1=CC(Cl)=C(NC2=C(C=C(C(Cl)=C2N(=O)=O)C(F)(F)F)N(=O)=O)N=C1
RETENTIONTIME: 
CCS: 144.3736385
IONMODE: Negative
INSTRUMENTTYPE: LC-ESI-ITFT
INSTRUMENT: 
COLLISIONENERGY: 75
Comment: registered in MassBank
Num Peaks: 1
334.98099	1000

NAME: Fluazinam; LC-ESI-ITFT; MS2; CE
PRECURSORMZ: 462.944103
PRECURSORTYPE: [M-H]-
FORMULA: C13H4Cl2F6N4O4
Ontology: Trifluoromethylbenzenes
INCHIKEY: UZCGKGPEKUCDTF-UHFFFAOYSA-N
SMILES: FC(F)(F)C1=CC(Cl)=C(NC2=C(C=C(C(Cl)=C2N(=O)=O)C(F)(F)F)N(=O)=O)N=C1
RETENTIONTIME: 
CCS: 144.3736385
IONMODE: Negative
INSTRUMENTTYPE: LC-ESI-ITFT
INSTRUMENT: 
COLLISIONENERGY: 90
Comment: registered in MassBank
Num Peaks: 1
397.97879	1000

NAME: Fluazinam; LC-ESI-ITFT; MS2; CE
PRECURSORMZ: 462.944103
PRECURSORTYPE: [M-H]-
FORMULA: C13H4Cl2F6N4O4
Ontology: Trifluoromethylbenzenes
INCHIKEY: UZCGKGPEKUCDTF-UHFFFAOYSA-N
SMILES: FC(F)(F)C1=CC(Cl)=C(NC2=C(C=C(C(Cl)=C2N(=O)=O)C(F)(F)F)N(=O)=O)N=C1
RETENTIONTIME: 
CCS: 144.3736385
IONMODE: Negative
INSTRUMENTTYPE: LC-ESI-ITFT
INSTRUMENT: 
COLLISIONENERGY: 35
Comment: registered in MassBank
Num Peaks: 3
386.953	170
397.97699	1000
415.94299	669

NAME: Thifensulfuron-methyl; LC-ESI-ITFT; MS2; CE
PRECURSORMZ: 386.023448
PRECURSORTYPE: [M-H]-
FORMULA: C12H13N5O6S2
Ontology: Thiophene carboxylic acids and derivatives
INCHIKEY: AHTPATJNIAFOLR-UHFFFAOYSA-N
SMILES: COC(=O)C1=C(C=CS1)S(=O)(=O)N=C(O)N=C1NC(OC)=NC(C)=N1
RETENTIONTIME: 
CCS: 179.6571545
IONMODE: Negative
INSTRUMENTTYPE: LC-ESI-ITFT
INSTRUMENT: 
COLLISIONENERGY: 35
Comment: registered in MassBank
Num Peaks: 4
139.0627	1000
187.94839	246
219.97459	932
245.9537	83

NAME: Thifensulfuron-methyl; LC-ESI-ITFT; MS2; CE
PRECURSORMZ: 386.023448
PRECURSORTYPE: [M-H]-
FORMULA: C12H13N5O6S2
Ontology: Thiophene carboxylic acids and derivatives
INCHIKEY: AHTPATJNIAFOLR-UHFFFAOYSA-N
SMILES: COC(=O)C1=C(C=CS1)S(=O)(=O)N=C(O)N=C1NC(OC)=NC(C)=N1
RETENTIONTIME: 
CCS: 179.6571545
IONMODE: Negative
INSTRUMENTTYPE: LC-ESI-ITFT
INSTRUMENT: 
COLLISIONENERGY: 15
Comment: registered in MassBank
Num Peaks: 5
139.06281	1000
187.94859	25
219.97459	57
245.9536	26
386.02399	171

NAME: Thifensulfuron-methyl; LC-ESI-ITFT; MS2; CE
PRECURSORMZ: 386.023448
PRECURSORTYPE: [M-H]-
FORMULA: C12H13N5O6S2
Ontology: Thiophene carboxylic acids and derivatives
INCHIKEY: AHTPATJNIAFOLR-UHFFFAOYSA-N
SMILES: COC(=O)C1=C(C=CS1)S(=O)(=O)N=C(O)N=C1NC(OC)=NC(C)=N1
RETENTIONTIME: 
CCS: 179.6571545
IONMODE: Negative
INSTRUMENTTYPE: LC-ESI-ITFT
INSTRUMENT: 
COLLISIONENERGY: 30
Comment: registered in MassBank
Num Peaks: 4
139.0629	1000
187.94881	19
219.9747	13
245.95419	21

NAME: Thifensulfuron-methyl; LC-ESI-ITFT; MS2; CE
PRECURSORMZ: 386.023448
PRECURSORTYPE: [M-H]-
FORMULA: C12H13N5O6S2
Ontology: Thiophene carboxylic acids and derivatives
INCHIKEY: AHTPATJNIAFOLR-UHFFFAOYSA-N
SMILES: COC(=O)C1=C(C=CS1)S(=O)(=O)N=C(O)N=C1NC(OC)=NC(C)=N1
RETENTIONTIME: 
CCS: 179.6571545
IONMODE: Negative
INSTRUMENTTYPE: LC-ESI-ITFT
INSTRUMENT: 
COLLISIONENERGY: 45
Comment: registered in MassBank
Num Peaks: 4
82.0413	6
107.0365	13
139.06281	1000
187.9485	26

NAME: Thifensulfuron-methyl; LC-ESI-ITFT; MS2; CE
PRECURSORMZ: 386.023448
PRECURSORTYPE: [M-H]-
FORMULA: C12H13N5O6S2
Ontology: Thiophene carboxylic acids and derivatives
INCHIKEY: AHTPATJNIAFOLR-UHFFFAOYSA-N
SMILES: COC(=O)C1=C(C=CS1)S(=O)(=O)N=C(O)N=C1NC(OC)=NC(C)=N1
RETENTIONTIME: 
CCS: 179.6571545
IONMODE: Negative
INSTRUMENTTYPE: LC-ESI-ITFT
INSTRUMENT: 
COLLISIONENERGY: 60
Comment: registered in MassBank
Num Peaks: 8
65.0147	6
66.0098	18
82.0412	30
107.0365	88
109.052	14
124.039	7
139.06281	1000
187.9485	22

NAME: Thifensulfuron-methyl; LC-ESI-ITFT; MS2; CE
PRECURSORMZ: 386.023448
PRECURSORTYPE: [M-H]-
FORMULA: C12H13N5O6S2
Ontology: Thiophene carboxylic acids and derivatives
INCHIKEY: AHTPATJNIAFOLR-UHFFFAOYSA-N
SMILES: COC(=O)C1=C(C=CS1)S(=O)(=O)N=C(O)N=C1NC(OC)=NC(C)=N1
RETENTIONTIME: 
CCS: 179.6571545
IONMODE: Negative
INSTRUMENTTYPE: LC-ESI-ITFT
INSTRUMENT: 
COLLISIONENERGY: 75
Comment: registered in MassBank
Num Peaks: 8
65.0146	50
66.0099	120
82.0412	64
107.0365	390
109.0519	27
124.0388	28
125.0468	16
139.06281	1000

NAME: Thifensulfuron-methyl; LC-ESI-ITFT; MS2; CE
PRECURSORMZ: 386.023448
PRECURSORTYPE: [M-H]-
FORMULA: C12H13N5O6S2
Ontology: Thiophene carboxylic acids and derivatives
INCHIKEY: AHTPATJNIAFOLR-UHFFFAOYSA-N
SMILES: COC(=O)C1=C(C=CS1)S(=O)(=O)N=C(O)N=C1NC(OC)=NC(C)=N1
RETENTIONTIME: 
CCS: 179.6571545
IONMODE: Negative
INSTRUMENTTYPE: LC-ESI-ITFT
INSTRUMENT: 
COLLISIONENERGY: 90
Comment: registered in MassBank
Num Peaks: 8
65.0146	205
66.0099	352
82.0412	110
107.0365	1000
109.0522	39
124.0394	52
125.0467	91
139.0627	791

NAME: Thifensulfuron-methyl; LC-ESI-ITFT; MS2; CE
PRECURSORMZ: 386.023448
PRECURSORTYPE: [M-H]-
FORMULA: C12H13N5O6S2
Ontology: Thiophene carboxylic acids and derivatives
INCHIKEY: AHTPATJNIAFOLR-UHFFFAOYSA-N
SMILES: COC(=O)C1=C(C=CS1)S(=O)(=O)N=C(O)N=C1NC(OC)=NC(C)=N1
RETENTIONTIME: 
CCS: 179.6571545
IONMODE: Negative
INSTRUMENTTYPE: LC-ESI-ITFT
INSTRUMENT: 
COLLISIONENERGY: 15
Comment: registered in MassBank
Num Peaks: 5
139.06281	1000
187.9483	19
219.97459	48
245.9538	18
386.02359	148

NAME: Thifensulfuron-methyl; LC-ESI-ITFT; MS2; CE
PRECURSORMZ: 386.023448
PRECURSORTYPE: [M-H]-
FORMULA: C12H13N5O6S2
Ontology: Thiophene carboxylic acids and derivatives
INCHIKEY: AHTPATJNIAFOLR-UHFFFAOYSA-N
SMILES: COC(=O)C1=C(C=CS1)S(=O)(=O)N=C(O)N=C1NC(OC)=NC(C)=N1
RETENTIONTIME: 
CCS: 179.6571545
IONMODE: Negative
INSTRUMENTTYPE: LC-ESI-ITFT
INSTRUMENT: 
COLLISIONENERGY: 30
Comment: registered in MassBank
Num Peaks: 4
139.06281	1000
187.9485	16
219.97501	9
245.9537	15

NAME: Thifensulfuron-methyl; LC-ESI-ITFT; MS2; CE
PRECURSORMZ: 386.023448
PRECURSORTYPE: [M-H]-
FORMULA: C12H13N5O6S2
Ontology: Thiophene carboxylic acids and derivatives
INCHIKEY: AHTPATJNIAFOLR-UHFFFAOYSA-N
SMILES: COC(=O)C1=C(C=CS1)S(=O)(=O)N=C(O)N=C1NC(OC)=NC(C)=N1
RETENTIONTIME: 
CCS: 179.6571545
IONMODE: Negative
INSTRUMENTTYPE: LC-ESI-ITFT
INSTRUMENT: 
COLLISIONENERGY: 45
Comment: registered in MassBank
Num Peaks: 3
107.0365	8
139.06281	1000
187.9482	16

NAME: Thifensulfuron-methyl; LC-ESI-ITFT; MS2; CE
PRECURSORMZ: 386.023448
PRECURSORTYPE: [M-H]-
FORMULA: C12H13N5O6S2
Ontology: Thiophene carboxylic acids and derivatives
INCHIKEY: AHTPATJNIAFOLR-UHFFFAOYSA-N
SMILES: COC(=O)C1=C(C=CS1)S(=O)(=O)N=C(O)N=C1NC(OC)=NC(C)=N1
RETENTIONTIME: 
CCS: 179.6571545
IONMODE: Negative
INSTRUMENTTYPE: LC-ESI-ITFT
INSTRUMENT: 
COLLISIONENERGY: 60
Comment: registered in MassBank
Num Peaks: 7
65.0146	8
66.0099	17
82.0412	19
107.0365	60
109.0523	12
139.0627	1000
187.9481	18

NAME: Thifensulfuron-methyl; LC-ESI-ITFT; MS2; CE
PRECURSORMZ: 386.023448
PRECURSORTYPE: [M-H]-
FORMULA: C12H13N5O6S2
Ontology: Thiophene carboxylic acids and derivatives
INCHIKEY: AHTPATJNIAFOLR-UHFFFAOYSA-N
SMILES: COC(=O)C1=C(C=CS1)S(=O)(=O)N=C(O)N=C1NC(OC)=NC(C)=N1
RETENTIONTIME: 
CCS: 179.6571545
IONMODE: Negative
INSTRUMENTTYPE: LC-ESI-ITFT
INSTRUMENT: 
COLLISIONENERGY: 75
Comment: registered in MassBank
Num Peaks: 6
65.0147	55
66.0098	100
82.0411	58
107.0363	246
125.0473	25
139.0627	1000

NAME: Thifensulfuron-methyl; LC-ESI-ITFT; MS2; CE
PRECURSORMZ: 386.023448
PRECURSORTYPE: [M-H]-
FORMULA: C12H13N5O6S2
Ontology: Thiophene carboxylic acids and derivatives
INCHIKEY: AHTPATJNIAFOLR-UHFFFAOYSA-N
SMILES: COC(=O)C1=C(C=CS1)S(=O)(=O)N=C(O)N=C1NC(OC)=NC(C)=N1
RETENTIONTIME: 
CCS: 179.6571545
IONMODE: Negative
INSTRUMENTTYPE: LC-ESI-ITFT
INSTRUMENT: 
COLLISIONENERGY: 90
Comment: registered in MassBank
Num Peaks: 5
65.0147	184
66.01	327
82.041	93
107.0362	971
139.0625	1000

NAME: Thifensulfuron-methyl; LC-ESI-ITFT; MS2; CE
PRECURSORMZ: 386.023448
PRECURSORTYPE: [M-H]-
FORMULA: C12H13N5O6S2
Ontology: Thiophene carboxylic acids and derivatives
INCHIKEY: AHTPATJNIAFOLR-UHFFFAOYSA-N
SMILES: COC(=O)C1=C(C=CS1)S(=O)(=O)N=C(O)N=C1NC(OC)=NC(C)=N1
RETENTIONTIME: 
CCS: 179.6571545
IONMODE: Negative
INSTRUMENTTYPE: LC-ESI-ITFT
INSTRUMENT: 
COLLISIONENERGY: 35
Comment: registered in MassBank
Num Peaks: 4
139.0627	1000
187.9483	223
219.9745	977
245.9538	55

NAME: Metsulfuron-methyl; LC-ESI-ITFT; MS2; CE
PRECURSORMZ: 380.067027
PRECURSORTYPE: [M-H]-
FORMULA: C14H15N5O6S
Ontology: Benzoic acid esters
INCHIKEY: RSMUVYRMZCOLBH-UHFFFAOYSA-N
SMILES: COC(=O)C1=CC=CC=C1S(=O)(=O)N=C(O)N=C1NC(OC)=NC(C)=N1
RETENTIONTIME: 
CCS: 182.0567776
IONMODE: Negative
INSTRUMENTTYPE: LC-ESI-ITFT
INSTRUMENT: 
COLLISIONENERGY: 35
Comment: registered in MassBank
Num Peaks: 3
139.0627	1000
181.992	675
214.0182	223

NAME: Metsulfuron-methyl; LC-ESI-ITFT; MS2; CE
PRECURSORMZ: 380.067027
PRECURSORTYPE: [M-H]-
FORMULA: C14H15N5O6S
Ontology: Benzoic acid esters
INCHIKEY: RSMUVYRMZCOLBH-UHFFFAOYSA-N
SMILES: COC(=O)C1=CC=CC=C1S(=O)(=O)N=C(O)N=C1NC(OC)=NC(C)=N1
RETENTIONTIME: 
CCS: 182.0567776
IONMODE: Negative
INSTRUMENTTYPE: LC-ESI-ITFT
INSTRUMENT: 
COLLISIONENERGY: 15
Comment: registered in MassBank
Num Peaks: 3
139.0629	1000
181.9921	66
380.06769	139

NAME: Metsulfuron-methyl; LC-ESI-ITFT; MS2; CE
PRECURSORMZ: 380.067027
PRECURSORTYPE: [M-H]-
FORMULA: C14H15N5O6S
Ontology: Benzoic acid esters
INCHIKEY: RSMUVYRMZCOLBH-UHFFFAOYSA-N
SMILES: COC(=O)C1=CC=CC=C1S(=O)(=O)N=C(O)N=C1NC(OC)=NC(C)=N1
RETENTIONTIME: 
CCS: 182.0567776
IONMODE: Negative
INSTRUMENTTYPE: LC-ESI-ITFT
INSTRUMENT: 
COLLISIONENERGY: 30
Comment: registered in MassBank
Num Peaks: 2
139.0629	1000
181.9917	27

NAME: Metsulfuron-methyl; LC-ESI-ITFT; MS2; CE
PRECURSORMZ: 380.067027
PRECURSORTYPE: [M-H]-
FORMULA: C14H15N5O6S
Ontology: Benzoic acid esters
INCHIKEY: RSMUVYRMZCOLBH-UHFFFAOYSA-N
SMILES: COC(=O)C1=CC=CC=C1S(=O)(=O)N=C(O)N=C1NC(OC)=NC(C)=N1
RETENTIONTIME: 
CCS: 182.0567776
IONMODE: Negative
INSTRUMENTTYPE: LC-ESI-ITFT
INSTRUMENT: 
COLLISIONENERGY: 45
Comment: registered in MassBank
Num Peaks: 3
107.0366	12
139.06281	1000
181.9921	23

NAME: Metsulfuron-methyl; LC-ESI-ITFT; MS2; CE
PRECURSORMZ: 380.067027
PRECURSORTYPE: [M-H]-
FORMULA: C14H15N5O6S
Ontology: Benzoic acid esters
INCHIKEY: RSMUVYRMZCOLBH-UHFFFAOYSA-N
SMILES: COC(=O)C1=CC=CC=C1S(=O)(=O)N=C(O)N=C1NC(OC)=NC(C)=N1
RETENTIONTIME: 
CCS: 182.0567776
IONMODE: Negative
INSTRUMENTTYPE: LC-ESI-ITFT
INSTRUMENT: 
COLLISIONENERGY: 60
Comment: registered in MassBank
Num Peaks: 7
65.0144	5
66.01	20
82.0413	35
107.0365	81
109.0522	15
139.06281	1000
181.9921	23

NAME: Metsulfuron-methyl; LC-ESI-ITFT; MS2; CE
PRECURSORMZ: 380.067027
PRECURSORTYPE: [M-H]-
FORMULA: C14H15N5O6S
Ontology: Benzoic acid esters
INCHIKEY: RSMUVYRMZCOLBH-UHFFFAOYSA-N
SMILES: COC(=O)C1=CC=CC=C1S(=O)(=O)N=C(O)N=C1NC(OC)=NC(C)=N1
RETENTIONTIME: 
CCS: 182.0567776
IONMODE: Negative
INSTRUMENTTYPE: LC-ESI-ITFT
INSTRUMENT: 
COLLISIONENERGY: 75
Comment: registered in MassBank
Num Peaks: 9
65.0146	38
66.0098	106
82.0412	69
107.0365	326
109.052	30
124.0395	15
125.0474	28
139.0627	1000
181.992	24

NAME: Metsulfuron-methyl; LC-ESI-ITFT; MS2; CE
PRECURSORMZ: 380.067027
PRECURSORTYPE: [M-H]-
FORMULA: C14H15N5O6S
Ontology: Benzoic acid esters
INCHIKEY: RSMUVYRMZCOLBH-UHFFFAOYSA-N
SMILES: COC(=O)C1=CC=CC=C1S(=O)(=O)N=C(O)N=C1NC(OC)=NC(C)=N1
RETENTIONTIME: 
CCS: 182.0567776
IONMODE: Negative
INSTRUMENTTYPE: LC-ESI-ITFT
INSTRUMENT: 
COLLISIONENERGY: 90
Comment: registered in MassBank
Num Peaks: 7
65.0146	239
66.0099	352
82.0411	102
107.0365	1000
109.0518	44
124.0392	41
139.0627	859

NAME: Metsulfuron-methyl; LC-ESI-ITFT; MS2; CE
PRECURSORMZ: 380.067027
PRECURSORTYPE: [M-H]-
FORMULA: C14H15N5O6S
Ontology: Benzoic acid esters
INCHIKEY: RSMUVYRMZCOLBH-UHFFFAOYSA-N
SMILES: COC(=O)C1=CC=CC=C1S(=O)(=O)N=C(O)N=C1NC(OC)=NC(C)=N1
RETENTIONTIME: 
CCS: 182.0567776
IONMODE: Negative
INSTRUMENTTYPE: LC-ESI-ITFT
INSTRUMENT: 
COLLISIONENERGY: 15
Comment: registered in MassBank
Num Peaks: 4
139.06281	1000
181.9917	49
214.0182	6
380.0672	112

NAME: Metsulfuron-methyl; LC-ESI-ITFT; MS2; CE
PRECURSORMZ: 380.067027
PRECURSORTYPE: [M-H]-
FORMULA: C14H15N5O6S
Ontology: Benzoic acid esters
INCHIKEY: RSMUVYRMZCOLBH-UHFFFAOYSA-N
SMILES: COC(=O)C1=CC=CC=C1S(=O)(=O)N=C(O)N=C1NC(OC)=NC(C)=N1
RETENTIONTIME: 
CCS: 182.0567776
IONMODE: Negative
INSTRUMENTTYPE: LC-ESI-ITFT
INSTRUMENT: 
COLLISIONENERGY: 30
Comment: registered in MassBank
Num Peaks: 2
139.06281	1000
181.9922	20

NAME: Metsulfuron-methyl; LC-ESI-ITFT; MS2; CE
PRECURSORMZ: 380.067027
PRECURSORTYPE: [M-H]-
FORMULA: C14H15N5O6S
Ontology: Benzoic acid esters
INCHIKEY: RSMUVYRMZCOLBH-UHFFFAOYSA-N
SMILES: COC(=O)C1=CC=CC=C1S(=O)(=O)N=C(O)N=C1NC(OC)=NC(C)=N1
RETENTIONTIME: 
CCS: 182.0567776
IONMODE: Negative
INSTRUMENTTYPE: LC-ESI-ITFT
INSTRUMENT: 
COLLISIONENERGY: 45
Comment: registered in MassBank
Num Peaks: 4
82.0412	5
107.0364	8
139.06281	1000
181.9917	17

NAME: Metsulfuron-methyl; LC-ESI-ITFT; MS2; CE
PRECURSORMZ: 380.067027
PRECURSORTYPE: [M-H]-
FORMULA: C14H15N5O6S
Ontology: Benzoic acid esters
INCHIKEY: RSMUVYRMZCOLBH-UHFFFAOYSA-N
SMILES: COC(=O)C1=CC=CC=C1S(=O)(=O)N=C(O)N=C1NC(OC)=NC(C)=N1
RETENTIONTIME: 
CCS: 182.0567776
IONMODE: Negative
INSTRUMENTTYPE: LC-ESI-ITFT
INSTRUMENT: 
COLLISIONENERGY: 60
Comment: registered in MassBank
Num Peaks: 8
65.0146	6
66.0099	14
82.0413	23
107.0365	54
109.0516	9
124.0392	7
139.06281	1000
181.9921	21

NAME: Metsulfuron-methyl; LC-ESI-ITFT; MS2; CE
PRECURSORMZ: 380.067027
PRECURSORTYPE: [M-H]-
FORMULA: C14H15N5O6S
Ontology: Benzoic acid esters
INCHIKEY: RSMUVYRMZCOLBH-UHFFFAOYSA-N
SMILES: COC(=O)C1=CC=CC=C1S(=O)(=O)N=C(O)N=C1NC(OC)=NC(C)=N1
RETENTIONTIME: 
CCS: 182.0567776
IONMODE: Negative
INSTRUMENTTYPE: LC-ESI-ITFT
INSTRUMENT: 
COLLISIONENERGY: 75
Comment: registered in MassBank
Num Peaks: 9
65.0146	31
66.0099	82
82.0409	36
107.0364	329
109.0516	26
124.0388	21
125.0469	22
139.06261	1000
181.9921	17

NAME: Metsulfuron-methyl; LC-ESI-ITFT; MS2; CE
PRECURSORMZ: 380.067027
PRECURSORTYPE: [M-H]-
FORMULA: C14H15N5O6S
Ontology: Benzoic acid esters
INCHIKEY: RSMUVYRMZCOLBH-UHFFFAOYSA-N
SMILES: COC(=O)C1=CC=CC=C1S(=O)(=O)N=C(O)N=C1NC(OC)=NC(C)=N1
RETENTIONTIME: 
CCS: 182.0567776
IONMODE: Negative
INSTRUMENTTYPE: LC-ESI-ITFT
INSTRUMENT: 
COLLISIONENERGY: 90
Comment: registered in MassBank
Num Peaks: 5
65.0145	141
66.0099	505
107.0364	1000
125.0473	154
139.06281	932

NAME: Metsulfuron-methyl; LC-ESI-ITFT; MS2; CE
PRECURSORMZ: 380.067027
PRECURSORTYPE: [M-H]-
FORMULA: C14H15N5O6S
Ontology: Benzoic acid esters
INCHIKEY: RSMUVYRMZCOLBH-UHFFFAOYSA-N
SMILES: COC(=O)C1=CC=CC=C1S(=O)(=O)N=C(O)N=C1NC(OC)=NC(C)=N1
RETENTIONTIME: 
CCS: 182.0567776
IONMODE: Negative
INSTRUMENTTYPE: LC-ESI-ITFT
INSTRUMENT: 
COLLISIONENERGY: 35
Comment: registered in MassBank
Num Peaks: 3
139.0627	1000
181.9919	692
214.0181	218

NAME: Nicosulfuron; LC-ESI-ITFT; MS2; CE
PRECURSORMZ: 409.093577
PRECURSORTYPE: [M-H]-
FORMULA: C15H18N6O6S
Ontology: Pyridinesulfonamides
INCHIKEY: RTCOGUMHFFWOJV-UHFFFAOYSA-N
SMILES: COC1=CC(OC)=NC(N=C(O)NS(=O)(=O)C2=C(C=CC=N2)C(=O)N(C)C)=N1
RETENTIONTIME: 
CCS: 189.4023206
IONMODE: Negative
INSTRUMENTTYPE: LC-ESI-ITFT
INSTRUMENT: 
COLLISIONENERGY: 35
Comment: registered in MassBank
Num Peaks: 11
147.05659	8
154.0625	293
162.0676	12
164.0833	36
179.0575	12
182.9872	25
210.0345	68
211.0186	19
228.045	1000
254.0242	871
302.1257	27

NAME: Nicosulfuron; LC-ESI-ITFT; MS2; CE
PRECURSORMZ: 409.093577
PRECURSORTYPE: [M-H]-
FORMULA: C15H18N6O6S
Ontology: Pyridinesulfonamides
INCHIKEY: RTCOGUMHFFWOJV-UHFFFAOYSA-N
SMILES: COC1=CC(OC)=NC(N=C(O)NS(=O)(=O)C2=C(C=CC=N2)C(=O)N(C)C)=N1
RETENTIONTIME: 
CCS: 189.4023206
IONMODE: Negative
INSTRUMENTTYPE: LC-ESI-ITFT
INSTRUMENT: 
COLLISIONENERGY: 15
Comment: registered in MassBank
Num Peaks: 7
65.0143	10
122.0378	9
154.0625	1000
210.0347	19
228.0451	360
254.02451	234
409.0943	901

NAME: Nicosulfuron; LC-ESI-ITFT; MS2; CE
PRECURSORMZ: 409.093577
PRECURSORTYPE: [M-H]-
FORMULA: C15H18N6O6S
Ontology: Pyridinesulfonamides
INCHIKEY: RTCOGUMHFFWOJV-UHFFFAOYSA-N
SMILES: COC1=CC(OC)=NC(N=C(O)NS(=O)(=O)C2=C(C=CC=N2)C(=O)N(C)C)=N1
RETENTIONTIME: 
CCS: 189.4023206
IONMODE: Negative
INSTRUMENTTYPE: LC-ESI-ITFT
INSTRUMENT: 
COLLISIONENERGY: 30
Comment: registered in MassBank
Num Peaks: 8
65.0146	7
122.0365	7
139.03889	9
154.06261	1000
164.08299	18
210.03461	15
228.0452	89
254.0251	25

NAME: Nicosulfuron; LC-ESI-ITFT; MS2; CE
PRECURSORMZ: 409.093577
PRECURSORTYPE: [M-H]-
FORMULA: C15H18N6O6S
Ontology: Pyridinesulfonamides
INCHIKEY: RTCOGUMHFFWOJV-UHFFFAOYSA-N
SMILES: COC1=CC(OC)=NC(N=C(O)NS(=O)(=O)C2=C(C=CC=N2)C(=O)N(C)C)=N1
RETENTIONTIME: 
CCS: 189.4023206
IONMODE: Negative
INSTRUMENTTYPE: LC-ESI-ITFT
INSTRUMENT: 
COLLISIONENERGY: 45
Comment: registered in MassBank
Num Peaks: 12
65.0146	33
65.9986	21
93.0456	6
94.0302	9
107.0127	14
122.0362	46
124.0519	11
139.03889	34
147.05701	6
154.06261	1000
164.08321	22
182.9874	15

NAME: Nicosulfuron; LC-ESI-ITFT; MS2; CE
PRECURSORMZ: 409.093577
PRECURSORTYPE: [M-H]-
FORMULA: C15H18N6O6S
Ontology: Pyridinesulfonamides
INCHIKEY: RTCOGUMHFFWOJV-UHFFFAOYSA-N
SMILES: COC1=CC(OC)=NC(N=C(O)NS(=O)(=O)C2=C(C=CC=N2)C(=O)N(C)C)=N1
RETENTIONTIME: 
CCS: 189.4023206
IONMODE: Negative
INSTRUMENTTYPE: LC-ESI-ITFT
INSTRUMENT: 
COLLISIONENERGY: 60
Comment: registered in MassBank
Num Peaks: 12
64.0068	10
65.0146	152
65.9987	173
82.0174	16
90.01	22
94.0302	24
97.0411	15
107.0129	77
122.0364	285
124.0519	51
139.039	183
154.06261	1000

NAME: Nicosulfuron; LC-ESI-ITFT; MS2; CE
PRECURSORMZ: 409.093577
PRECURSORTYPE: [M-H]-
FORMULA: C15H18N6O6S
Ontology: Pyridinesulfonamides
INCHIKEY: RTCOGUMHFFWOJV-UHFFFAOYSA-N
SMILES: COC1=CC(OC)=NC(N=C(O)NS(=O)(=O)C2=C(C=CC=N2)C(=O)N(C)C)=N1
RETENTIONTIME: 
CCS: 189.4023206
IONMODE: Negative
INSTRUMENTTYPE: LC-ESI-ITFT
INSTRUMENT: 
COLLISIONENERGY: 75
Comment: registered in MassBank
Num Peaks: 11
64.0068	97
65.0146	426
65.9986	1000
82.0175	53
90.01	91
93.0461	55
107.0127	355
122.0363	917
124.0517	41
139.0388	521
154.0627	709

NAME: Nicosulfuron; LC-ESI-ITFT; MS2; CE
PRECURSORMZ: 409.093577
PRECURSORTYPE: [M-H]-
FORMULA: C15H18N6O6S
Ontology: Pyridinesulfonamides
INCHIKEY: RTCOGUMHFFWOJV-UHFFFAOYSA-N
SMILES: COC1=CC(OC)=NC(N=C(O)NS(=O)(=O)C2=C(C=CC=N2)C(=O)N(C)C)=N1
RETENTIONTIME: 
CCS: 189.4023206
IONMODE: Negative
INSTRUMENTTYPE: LC-ESI-ITFT
INSTRUMENT: 
COLLISIONENERGY: 90
Comment: registered in MassBank
Num Peaks: 8
64.0068	78
65.0147	229
65.9987	1000
82.017	39
107.0127	257
122.0362	427
139.03909	104
154.06239	96

NAME: Nicosulfuron; LC-ESI-ITFT; MS2; CE
PRECURSORMZ: 409.093577
PRECURSORTYPE: [M-H]-
FORMULA: C15H18N6O6S
Ontology: Pyridinesulfonamides
INCHIKEY: RTCOGUMHFFWOJV-UHFFFAOYSA-N
SMILES: COC1=CC(OC)=NC(N=C(O)NS(=O)(=O)C2=C(C=CC=N2)C(=O)N(C)C)=N1
RETENTIONTIME: 
CCS: 189.4023206
IONMODE: Negative
INSTRUMENTTYPE: LC-ESI-ITFT
INSTRUMENT: 
COLLISIONENERGY: 15
Comment: registered in MassBank
Num Peaks: 4
154.0625	1000
228.045	293
254.02431	211
409.09399	782

NAME: Nicosulfuron; LC-ESI-ITFT; MS2; CE
PRECURSORMZ: 409.093577
PRECURSORTYPE: [M-H]-
FORMULA: C15H18N6O6S
Ontology: Pyridinesulfonamides
INCHIKEY: RTCOGUMHFFWOJV-UHFFFAOYSA-N
SMILES: COC1=CC(OC)=NC(N=C(O)NS(=O)(=O)C2=C(C=CC=N2)C(=O)N(C)C)=N1
RETENTIONTIME: 
CCS: 189.4023206
IONMODE: Negative
INSTRUMENTTYPE: LC-ESI-ITFT
INSTRUMENT: 
COLLISIONENERGY: 30
Comment: registered in MassBank
Num Peaks: 6
154.06261	1000
164.0831	14
182.98759	10
210.0341	7
228.0453	70
254.02451	16

NAME: Nicosulfuron; LC-ESI-ITFT; MS2; CE
PRECURSORMZ: 409.093577
PRECURSORTYPE: [M-H]-
FORMULA: C15H18N6O6S
Ontology: Pyridinesulfonamides
INCHIKEY: RTCOGUMHFFWOJV-UHFFFAOYSA-N
SMILES: COC1=CC(OC)=NC(N=C(O)NS(=O)(=O)C2=C(C=CC=N2)C(=O)N(C)C)=N1
RETENTIONTIME: 
CCS: 189.4023206
IONMODE: Negative
INSTRUMENTTYPE: LC-ESI-ITFT
INSTRUMENT: 
COLLISIONENERGY: 45
Comment: registered in MassBank
Num Peaks: 12
65.0146	28
65.9984	16
93.0455	5
94.0302	7
107.0128	8
122.0362	34
124.0519	8
139.03889	28
147.056	7
149.0596	5
154.0625	1000
182.98711	10

NAME: Nicosulfuron; LC-ESI-ITFT; MS2; CE
PRECURSORMZ: 409.093577
PRECURSORTYPE: [M-H]-
FORMULA: C15H18N6O6S
Ontology: Pyridinesulfonamides
INCHIKEY: RTCOGUMHFFWOJV-UHFFFAOYSA-N
SMILES: COC1=CC(OC)=NC(N=C(O)NS(=O)(=O)C2=C(C=CC=N2)C(=O)N(C)C)=N1
RETENTIONTIME: 
CCS: 189.4023206
IONMODE: Negative
INSTRUMENTTYPE: LC-ESI-ITFT
INSTRUMENT: 
COLLISIONENERGY: 60
Comment: registered in MassBank
Num Peaks: 11
65.0146	121
65.9986	166
90.01	28
93.0461	20
94.0299	19
97.041	21
107.0126	86
122.0361	225
124.0518	52
139.039	173
154.06239	1000

NAME: Nicosulfuron; LC-ESI-ITFT; MS2; CE
PRECURSORMZ: 409.093577
PRECURSORTYPE: [M-H]-
FORMULA: C15H18N6O6S
Ontology: Pyridinesulfonamides
INCHIKEY: RTCOGUMHFFWOJV-UHFFFAOYSA-N
SMILES: COC1=CC(OC)=NC(N=C(O)NS(=O)(=O)C2=C(C=CC=N2)C(=O)N(C)C)=N1
RETENTIONTIME: 
CCS: 189.4023206
IONMODE: Negative
INSTRUMENTTYPE: LC-ESI-ITFT
INSTRUMENT: 
COLLISIONENERGY: 75
Comment: registered in MassBank
Num Peaks: 6
65.0147	371
65.9986	1000
107.0125	272
122.0363	846
139.0388	410
154.0623	757

NAME: Nicosulfuron; LC-ESI-ITFT; MS2; CE
PRECURSORMZ: 409.093577
PRECURSORTYPE: [M-H]-
FORMULA: C15H18N6O6S
Ontology: Pyridinesulfonamides
INCHIKEY: RTCOGUMHFFWOJV-UHFFFAOYSA-N
SMILES: COC1=CC(OC)=NC(N=C(O)NS(=O)(=O)C2=C(C=CC=N2)C(=O)N(C)C)=N1
RETENTIONTIME: 
CCS: 189.4023206
IONMODE: Negative
INSTRUMENTTYPE: LC-ESI-ITFT
INSTRUMENT: 
COLLISIONENERGY: 90
Comment: registered in MassBank
Num Peaks: 6
64.0066	110
65.0146	183
65.9986	1000
107.0127	144
122.0362	233
139.03931	89

NAME: Nicosulfuron; LC-ESI-ITFT; MS2; CE
PRECURSORMZ: 409.093577
PRECURSORTYPE: [M-H]-
FORMULA: C15H18N6O6S
Ontology: Pyridinesulfonamides
INCHIKEY: RTCOGUMHFFWOJV-UHFFFAOYSA-N
SMILES: COC1=CC(OC)=NC(N=C(O)NS(=O)(=O)C2=C(C=CC=N2)C(=O)N(C)C)=N1
RETENTIONTIME: 
CCS: 189.4023206
IONMODE: Negative
INSTRUMENTTYPE: LC-ESI-ITFT
INSTRUMENT: 
COLLISIONENERGY: 35
Comment: registered in MassBank
Num Peaks: 9
154.0623	283
164.08299	20
179.05769	7
182.987	14
210.0343	36
211.0182	9
228.0448	1000
254.024	834
302.12619	16

NAME: Rimsulfuron; LC-ESI-ITFT; MS2; CE
PRECURSORMZ: 430.049663
PRECURSORTYPE: [M-H]-
FORMULA: C14H17N5O7S2
Ontology: Pyridinesulfonamides
INCHIKEY: MEFOUWRMVYJCQC-UHFFFAOYSA-N
SMILES: CCS(=O)(=O)C1=C(N=CC=C1)S(=O)(=O)NC(O)=NC1=NC(OC)=CC(OC)=N1
RETENTIONTIME: 
CCS: 187.420548
IONMODE: Negative
INSTRUMENTTYPE: LC-ESI-ITFT
INSTRUMENT: 
COLLISIONENERGY: 35
Comment: registered in MassBank
Num Peaks: 10
157.0081	7
157.992	55
164.03419	41
179.05769	1000
185.03931	7
186.02319	526
231.97501	5
249.0013	45
274.98059	138
323.08209	67

NAME: Rimsulfuron; LC-ESI-ITFT; MS2; CE
PRECURSORMZ: 430.049663
PRECURSORTYPE: [M-H]-
FORMULA: C14H17N5O7S2
Ontology: Pyridinesulfonamides
INCHIKEY: MEFOUWRMVYJCQC-UHFFFAOYSA-N
SMILES: CCS(=O)(=O)C1=C(N=CC=C1)S(=O)(=O)NC(O)=NC1=NC(OC)=CC(OC)=N1
RETENTIONTIME: 
CCS: 187.420548
IONMODE: Negative
INSTRUMENTTYPE: LC-ESI-ITFT
INSTRUMENT: 
COLLISIONENERGY: 15
Comment: registered in MassBank
Num Peaks: 9
154.06281	44
157.00751	34
179.0578	1000
185.0392	29
186.0235	757
249.00101	128
274.98099	300
323.0816	57
430.05109	452

NAME: Rimsulfuron; LC-ESI-ITFT; MS2; CE
PRECURSORMZ: 430.049663
PRECURSORTYPE: [M-H]-
FORMULA: C14H17N5O7S2
Ontology: Pyridinesulfonamides
INCHIKEY: MEFOUWRMVYJCQC-UHFFFAOYSA-N
SMILES: CCS(=O)(=O)C1=C(N=CC=C1)S(=O)(=O)NC(O)=NC1=NC(OC)=CC(OC)=N1
RETENTIONTIME: 
CCS: 187.420548
IONMODE: Negative
INSTRUMENTTYPE: LC-ESI-ITFT
INSTRUMENT: 
COLLISIONENERGY: 30
Comment: registered in MassBank
Num Peaks: 9
93.0462	29
154.06261	1000
157.00819	292
179.0578	609
185.0394	165
186.02341	759
231.9747	101
249.00169	107
274.9809	261

NAME: Rimsulfuron; LC-ESI-ITFT; MS2; CE
PRECURSORMZ: 430.049663
PRECURSORTYPE: [M-H]-
FORMULA: C14H17N5O7S2
Ontology: Pyridinesulfonamides
INCHIKEY: MEFOUWRMVYJCQC-UHFFFAOYSA-N
SMILES: CCS(=O)(=O)C1=C(N=CC=C1)S(=O)(=O)NC(O)=NC1=NC(OC)=CC(OC)=N1
RETENTIONTIME: 
CCS: 187.420548
IONMODE: Negative
INSTRUMENTTYPE: LC-ESI-ITFT
INSTRUMENT: 
COLLISIONENERGY: 45
Comment: registered in MassBank
Num Peaks: 11
65.0144	34
65.9986	24
93.0462	67
109.0174	25
122.0361	55
139.0394	27
154.0625	1000
157.008	344
157.99229	123
179.0578	149
186.02361	221

NAME: Rimsulfuron; LC-ESI-ITFT; MS2; CE
PRECURSORMZ: 430.049663
PRECURSORTYPE: [M-H]-
FORMULA: C14H17N5O7S2
Ontology: Pyridinesulfonamides
INCHIKEY: MEFOUWRMVYJCQC-UHFFFAOYSA-N
SMILES: CCS(=O)(=O)C1=C(N=CC=C1)S(=O)(=O)NC(O)=NC1=NC(OC)=CC(OC)=N1
RETENTIONTIME: 
CCS: 187.420548
IONMODE: Negative
INSTRUMENTTYPE: LC-ESI-ITFT
INSTRUMENT: 
COLLISIONENERGY: 60
Comment: registered in MassBank
Num Peaks: 12
65.0146	149
65.9985	245
93.0458	291
94.0303	67
107.0126	100
109.0174	69
122.0364	206
154.0625	1000
157.0081	284
157.9919	122
164.0341	65
186.0226	56

NAME: Rimsulfuron; LC-ESI-ITFT; MS2; CE
PRECURSORMZ: 430.049663
PRECURSORTYPE: [M-H]-
FORMULA: C14H17N5O7S2
Ontology: Pyridinesulfonamides
INCHIKEY: MEFOUWRMVYJCQC-UHFFFAOYSA-N
SMILES: CCS(=O)(=O)C1=C(N=CC=C1)S(=O)(=O)NC(O)=NC1=NC(OC)=CC(OC)=N1
RETENTIONTIME: 
CCS: 187.420548
IONMODE: Negative
INSTRUMENTTYPE: LC-ESI-ITFT
INSTRUMENT: 
COLLISIONENERGY: 75
Comment: registered in MassBank
Num Peaks: 8
65.0145	321
65.9986	968
93.0459	977
94.0294	181
107.0129	307
122.0362	1000
139.03841	373
154.0629	643

NAME: Rimsulfuron; LC-ESI-ITFT; MS2; CE
PRECURSORMZ: 430.049663
PRECURSORTYPE: [M-H]-
FORMULA: C14H17N5O7S2
Ontology: Pyridinesulfonamides
INCHIKEY: MEFOUWRMVYJCQC-UHFFFAOYSA-N
SMILES: CCS(=O)(=O)C1=C(N=CC=C1)S(=O)(=O)NC(O)=NC1=NC(OC)=CC(OC)=N1
RETENTIONTIME: 
CCS: 187.420548
IONMODE: Negative
INSTRUMENTTYPE: LC-ESI-ITFT
INSTRUMENT: 
COLLISIONENERGY: 90
Comment: registered in MassBank
Num Peaks: 5
65.0143	424
65.9985	1000
93.046	614
107.0127	302
122.0364	488

NAME: Rimsulfuron; LC-ESI-ITFT; MS2; CE
PRECURSORMZ: 430.049663
PRECURSORTYPE: [M-H]-
FORMULA: C14H17N5O7S2
Ontology: Pyridinesulfonamides
INCHIKEY: MEFOUWRMVYJCQC-UHFFFAOYSA-N
SMILES: CCS(=O)(=O)C1=C(N=CC=C1)S(=O)(=O)NC(O)=NC1=NC(OC)=CC(OC)=N1
RETENTIONTIME: 
CCS: 187.420548
IONMODE: Negative
INSTRUMENTTYPE: LC-ESI-ITFT
INSTRUMENT: 
COLLISIONENERGY: 15
Comment: registered in MassBank
Num Peaks: 7
154.0618	41
179.0576	1000
186.0231	844
249.0013	106
274.98029	302
323.08289	63
430.04941	433

NAME: Rimsulfuron; LC-ESI-ITFT; MS2; CE
PRECURSORMZ: 430.049663
PRECURSORTYPE: [M-H]-
FORMULA: C14H17N5O7S2
Ontology: Pyridinesulfonamides
INCHIKEY: MEFOUWRMVYJCQC-UHFFFAOYSA-N
SMILES: CCS(=O)(=O)C1=C(N=CC=C1)S(=O)(=O)NC(O)=NC1=NC(OC)=CC(OC)=N1
RETENTIONTIME: 
CCS: 187.420548
IONMODE: Negative
INSTRUMENTTYPE: LC-ESI-ITFT
INSTRUMENT: 
COLLISIONENERGY: 30
Comment: registered in MassBank
Num Peaks: 8
154.06239	1000
157.0079	272
179.05769	620
185.0392	194
186.0231	748
231.974	97
249.0018	91
274.97989	277

NAME: Rimsulfuron; LC-ESI-ITFT; MS2; CE
PRECURSORMZ: 430.049663
PRECURSORTYPE: [M-H]-
FORMULA: C14H17N5O7S2
Ontology: Pyridinesulfonamides
INCHIKEY: MEFOUWRMVYJCQC-UHFFFAOYSA-N
SMILES: CCS(=O)(=O)C1=C(N=CC=C1)S(=O)(=O)NC(O)=NC1=NC(OC)=CC(OC)=N1
RETENTIONTIME: 
CCS: 187.420548
IONMODE: Negative
INSTRUMENTTYPE: LC-ESI-ITFT
INSTRUMENT: 
COLLISIONENERGY: 45
Comment: registered in MassBank
Num Peaks: 4
154.06239	1000
157.0081	392
157.9922	52
186.0233	187

NAME: Rimsulfuron; LC-ESI-ITFT; MS2; CE
PRECURSORMZ: 430.049663
PRECURSORTYPE: [M-H]-
FORMULA: C14H17N5O7S2
Ontology: Pyridinesulfonamides
INCHIKEY: MEFOUWRMVYJCQC-UHFFFAOYSA-N
SMILES: CCS(=O)(=O)C1=C(N=CC=C1)S(=O)(=O)NC(O)=NC1=NC(OC)=CC(OC)=N1
RETENTIONTIME: 
CCS: 187.420548
IONMODE: Negative
INSTRUMENTTYPE: LC-ESI-ITFT
INSTRUMENT: 
COLLISIONENERGY: 60
Comment: registered in MassBank
Num Peaks: 7
65.0145	204
93.0459	298
122.0363	252
139.0387	230
154.06239	1000
157.00771	454
157.992	161

NAME: Rimsulfuron; LC-ESI-ITFT; MS2; CE
PRECURSORMZ: 430.049663
PRECURSORTYPE: [M-H]-
FORMULA: C14H17N5O7S2
Ontology: Pyridinesulfonamides
INCHIKEY: MEFOUWRMVYJCQC-UHFFFAOYSA-N
SMILES: CCS(=O)(=O)C1=C(N=CC=C1)S(=O)(=O)NC(O)=NC1=NC(OC)=CC(OC)=N1
RETENTIONTIME: 
CCS: 187.420548
IONMODE: Negative
INSTRUMENTTYPE: LC-ESI-ITFT
INSTRUMENT: 
COLLISIONENERGY: 75
Comment: registered in MassBank
Num Peaks: 6
65.9985	741
93.0461	1000
94.03	309
122.0362	662
139.0388	320
154.06261	743

NAME: Rimsulfuron; LC-ESI-ITFT; MS2; CE
PRECURSORMZ: 430.049663
PRECURSORTYPE: [M-H]-
FORMULA: C14H17N5O7S2
Ontology: Pyridinesulfonamides
INCHIKEY: MEFOUWRMVYJCQC-UHFFFAOYSA-N
SMILES: CCS(=O)(=O)C1=C(N=CC=C1)S(=O)(=O)NC(O)=NC1=NC(OC)=CC(OC)=N1
RETENTIONTIME: 
CCS: 187.420548
IONMODE: Negative
INSTRUMENTTYPE: LC-ESI-ITFT
INSTRUMENT: 
COLLISIONENERGY: 90
Comment: registered in MassBank
Num Peaks: 2
93.0459	1000
94.0298	692

NAME: Rimsulfuron; LC-ESI-ITFT; MS2; CE
PRECURSORMZ: 430.049663
PRECURSORTYPE: [M-H]-
FORMULA: C14H17N5O7S2
Ontology: Pyridinesulfonamides
INCHIKEY: MEFOUWRMVYJCQC-UHFFFAOYSA-N
SMILES: CCS(=O)(=O)C1=C(N=CC=C1)S(=O)(=O)NC(O)=NC1=NC(OC)=CC(OC)=N1
RETENTIONTIME: 
CCS: 187.420548
IONMODE: Negative
INSTRUMENTTYPE: LC-ESI-ITFT
INSTRUMENT: 
COLLISIONENERGY: 35
Comment: registered in MassBank
Num Peaks: 7
157.99181	36
164.03419	25
179.0576	1000
186.0231	472
249.0009	16
274.98019	74
323.08191	44

NAME: Fluroxypyr; LC-ESI-ITFT; MS2; CE
PRECURSORMZ: 252.958849
PRECURSORTYPE: [M-H]-
FORMULA: C7H5Cl2FN2O3
Ontology: Polyhalopyridines
INCHIKEY: MEFQWPUMEMWTJP-UHFFFAOYSA-N
SMILES: NC1=C(Cl)C(F)=NC(OCC(O)=O)=C1Cl
RETENTIONTIME: 
CCS: 144.3732646
IONMODE: Negative
INSTRUMENTTYPE: LC-ESI-ITFT
INSTRUMENT: 
COLLISIONENERGY: 35
Comment: registered in MassBank
Num Peaks: 5
172.99249	15
188.9623	6
194.95351	1000
216.9821	72
232.9527	821

NAME: Fluroxypyr; LC-ESI-ITFT; MS2; CE
PRECURSORMZ: 252.958849
PRECURSORTYPE: [M-H]-
FORMULA: C7H5Cl2FN2O3
Ontology: Polyhalopyridines
INCHIKEY: MEFQWPUMEMWTJP-UHFFFAOYSA-N
SMILES: NC1=C(Cl)C(F)=NC(OCC(O)=O)=C1Cl
RETENTIONTIME: 
CCS: 144.3732646
IONMODE: Negative
INSTRUMENTTYPE: LC-ESI-ITFT
INSTRUMENT: 
COLLISIONENERGY: 15
Comment: registered in MassBank
Num Peaks: 4
194.95329	1000
216.9819	48
232.9523	179
252.9588	473

NAME: Fluroxypyr; LC-ESI-ITFT; MS2; CE
PRECURSORMZ: 252.958849
PRECURSORTYPE: [M-H]-
FORMULA: C7H5Cl2FN2O3
Ontology: Polyhalopyridines
INCHIKEY: MEFQWPUMEMWTJP-UHFFFAOYSA-N
SMILES: NC1=C(Cl)C(F)=NC(OCC(O)=O)=C1Cl
RETENTIONTIME: 
CCS: 144.3732646
IONMODE: Negative
INSTRUMENTTYPE: LC-ESI-ITFT
INSTRUMENT: 
COLLISIONENERGY: 30
Comment: registered in MassBank
Num Peaks: 6
172.9928	7
188.9623	15
194.9534	1000
216.9814	34
232.9516	18
252.9586	27

NAME: Fluroxypyr; LC-ESI-ITFT; MS2; CE
PRECURSORMZ: 252.958849
PRECURSORTYPE: [M-H]-
FORMULA: C7H5Cl2FN2O3
Ontology: Polyhalopyridines
INCHIKEY: MEFQWPUMEMWTJP-UHFFFAOYSA-N
SMILES: NC1=C(Cl)C(F)=NC(OCC(O)=O)=C1Cl
RETENTIONTIME: 
CCS: 144.3732646
IONMODE: Negative
INSTRUMENTTYPE: LC-ESI-ITFT
INSTRUMENT: 
COLLISIONENERGY: 45
Comment: registered in MassBank
Num Peaks: 4
131.9413	28
158.9761	28
174.9469	54
194.95329	1000

NAME: Fluroxypyr; LC-ESI-ITFT; MS2; CE
PRECURSORMZ: 252.958849
PRECURSORTYPE: [M-H]-
FORMULA: C7H5Cl2FN2O3
Ontology: Polyhalopyridines
INCHIKEY: MEFQWPUMEMWTJP-UHFFFAOYSA-N
SMILES: NC1=C(Cl)C(F)=NC(OCC(O)=O)=C1Cl
RETENTIONTIME: 
CCS: 144.3732646
IONMODE: Negative
INSTRUMENTTYPE: LC-ESI-ITFT
INSTRUMENT: 
COLLISIONENERGY: 60
Comment: registered in MassBank
Num Peaks: 5
65.9984	36
131.94119	198
158.97639	124
174.9469	168
194.9532	1000

NAME: Fluroxypyr; LC-ESI-ITFT; MS2; CE
PRECURSORMZ: 252.958849
PRECURSORTYPE: [M-H]-
FORMULA: C7H5Cl2FN2O3
Ontology: Polyhalopyridines
INCHIKEY: MEFQWPUMEMWTJP-UHFFFAOYSA-N
SMILES: NC1=C(Cl)C(F)=NC(OCC(O)=O)=C1Cl
RETENTIONTIME: 
CCS: 144.3732646
IONMODE: Negative
INSTRUMENTTYPE: LC-ESI-ITFT
INSTRUMENT: 
COLLISIONENERGY: 75
Comment: registered in MassBank
Num Peaks: 6
65.9984	241
95.0048	332
131.94119	890
158.9771	207
174.9469	356
194.95261	1000

NAME: Fluroxypyr; LC-ESI-ITFT; MS2; CE
PRECURSORMZ: 252.958849
PRECURSORTYPE: [M-H]-
FORMULA: C7H5Cl2FN2O3
Ontology: Polyhalopyridines
INCHIKEY: MEFQWPUMEMWTJP-UHFFFAOYSA-N
SMILES: NC1=C(Cl)C(F)=NC(OCC(O)=O)=C1Cl
RETENTIONTIME: 
CCS: 144.3732646
IONMODE: Negative
INSTRUMENTTYPE: LC-ESI-ITFT
INSTRUMENT: 
COLLISIONENERGY: 90
Comment: registered in MassBank
Num Peaks: 2
95.005	939
131.94119	1000

NAME: Fluroxypyr; LC-ESI-ITFT; MS2; CE
PRECURSORMZ: 252.958849
PRECURSORTYPE: [M-H]-
FORMULA: C7H5Cl2FN2O3
Ontology: Polyhalopyridines
INCHIKEY: MEFQWPUMEMWTJP-UHFFFAOYSA-N
SMILES: NC1=C(Cl)C(F)=NC(OCC(O)=O)=C1Cl
RETENTIONTIME: 
CCS: 144.3732646
IONMODE: Negative
INSTRUMENTTYPE: LC-ESI-ITFT
INSTRUMENT: 
COLLISIONENERGY: 15
Comment: registered in MassBank
Num Peaks: 5
188.9623	8
194.9532	1000
216.98219	29
232.95239	169
252.9585	360

NAME: Fluroxypyr; LC-ESI-ITFT; MS2; CE
PRECURSORMZ: 252.958849
PRECURSORTYPE: [M-H]-
FORMULA: C7H5Cl2FN2O3
Ontology: Polyhalopyridines
INCHIKEY: MEFQWPUMEMWTJP-UHFFFAOYSA-N
SMILES: NC1=C(Cl)C(F)=NC(OCC(O)=O)=C1Cl
RETENTIONTIME: 
CCS: 144.3732646
IONMODE: Negative
INSTRUMENTTYPE: LC-ESI-ITFT
INSTRUMENT: 
COLLISIONENERGY: 30
Comment: registered in MassBank
Num Peaks: 7
172.9922	13
174.9467	9
188.9624	9
194.95329	1000
216.9816	18
232.95239	17
252.9592	14

NAME: Fluroxypyr; LC-ESI-ITFT; MS2; CE
PRECURSORMZ: 252.958849
PRECURSORTYPE: [M-H]-
FORMULA: C7H5Cl2FN2O3
Ontology: Polyhalopyridines
INCHIKEY: MEFQWPUMEMWTJP-UHFFFAOYSA-N
SMILES: NC1=C(Cl)C(F)=NC(OCC(O)=O)=C1Cl
RETENTIONTIME: 
CCS: 144.3732646
IONMODE: Negative
INSTRUMENTTYPE: LC-ESI-ITFT
INSTRUMENT: 
COLLISIONENERGY: 45
Comment: registered in MassBank
Num Peaks: 5
131.94099	16
158.97659	18
174.9467	45
194.9532	1000
216.983	10

NAME: Fluroxypyr; LC-ESI-ITFT; MS2; CE
PRECURSORMZ: 252.958849
PRECURSORTYPE: [M-H]-
FORMULA: C7H5Cl2FN2O3
Ontology: Polyhalopyridines
INCHIKEY: MEFQWPUMEMWTJP-UHFFFAOYSA-N
SMILES: NC1=C(Cl)C(F)=NC(OCC(O)=O)=C1Cl
RETENTIONTIME: 
CCS: 144.3732646
IONMODE: Negative
INSTRUMENTTYPE: LC-ESI-ITFT
INSTRUMENT: 
COLLISIONENERGY: 60
Comment: registered in MassBank
Num Peaks: 4
131.9411	140
158.9763	115
174.94701	137
194.9532	1000

NAME: Fluroxypyr; LC-ESI-ITFT; MS2; CE
PRECURSORMZ: 252.958849
PRECURSORTYPE: [M-H]-
FORMULA: C7H5Cl2FN2O3
Ontology: Polyhalopyridines
INCHIKEY: MEFQWPUMEMWTJP-UHFFFAOYSA-N
SMILES: NC1=C(Cl)C(F)=NC(OCC(O)=O)=C1Cl
RETENTIONTIME: 
CCS: 144.3732646
IONMODE: Negative
INSTRUMENTTYPE: LC-ESI-ITFT
INSTRUMENT: 
COLLISIONENERGY: 75
Comment: registered in MassBank
Num Peaks: 4
65.9983	315
131.9411	915
157.9687	373
194.9534	1000

NAME: Fluroxypyr; LC-ESI-ITFT; MS2; CE
PRECURSORMZ: 252.958849
PRECURSORTYPE: [M-H]-
FORMULA: C7H5Cl2FN2O3
Ontology: Polyhalopyridines
INCHIKEY: MEFQWPUMEMWTJP-UHFFFAOYSA-N
SMILES: NC1=C(Cl)C(F)=NC(OCC(O)=O)=C1Cl
RETENTIONTIME: 
CCS: 144.3732646
IONMODE: Negative
INSTRUMENTTYPE: LC-ESI-ITFT
INSTRUMENT: 
COLLISIONENERGY: 90
Comment: registered in MassBank
Num Peaks: 2
95.0052	1000
157.9684	824

NAME: Fluroxypyr; LC-ESI-ITFT; MS2; CE
PRECURSORMZ: 252.958849
PRECURSORTYPE: [M-H]-
FORMULA: C7H5Cl2FN2O3
Ontology: Polyhalopyridines
INCHIKEY: MEFQWPUMEMWTJP-UHFFFAOYSA-N
SMILES: NC1=C(Cl)C(F)=NC(OCC(O)=O)=C1Cl
RETENTIONTIME: 
CCS: 144.3732646
IONMODE: Negative
INSTRUMENTTYPE: LC-ESI-ITFT
INSTRUMENT: 
COLLISIONENERGY: 35
Comment: registered in MassBank
Num Peaks: 3
194.95351	981
216.98199	38
232.9527	1000

NAME: Carbetamide; LC-ESI-ITFT; MS2; CE
PRECURSORMZ: 235.108816
PRECURSORTYPE: [M-H]-
FORMULA: C12H16N2O3
Ontology: Phenylcarbamic acid esters
INCHIKEY: AMRQXHFXNZFDCH-UHFFFAOYNA-N
SMILES: CCN=C(O)C(C)OC(O)=NC1=CC=CC=C1
RETENTIONTIME: 
CCS: 156.6507671
IONMODE: Negative
INSTRUMENTTYPE: LC-ESI-ITFT
INSTRUMENT: 
COLLISIONENERGY: 35
Comment: registered in MassBank
Num Peaks: 2
116.0718	1000
142.05099	476

NAME: Carbetamide; LC-ESI-ITFT; MS2; CE
PRECURSORMZ: 235.108816
PRECURSORTYPE: [M-H]-
FORMULA: C12H16N2O3
Ontology: Phenylcarbamic acid esters
INCHIKEY: AMRQXHFXNZFDCH-UHFFFAOYNA-N
SMILES: CCN=C(O)C(C)OC(O)=NC1=CC=CC=C1
RETENTIONTIME: 
CCS: 156.6507671
IONMODE: Negative
INSTRUMENTTYPE: LC-ESI-ITFT
INSTRUMENT: 
COLLISIONENERGY: 15
Comment: registered in MassBank
Num Peaks: 2
116.0717	1000
142.05051	39

NAME: Carbetamide; LC-ESI-ITFT; MS2; CE
PRECURSORMZ: 235.108816
PRECURSORTYPE: [M-H]-
FORMULA: C12H16N2O3
Ontology: Phenylcarbamic acid esters
INCHIKEY: AMRQXHFXNZFDCH-UHFFFAOYNA-N
SMILES: CCN=C(O)C(C)OC(O)=NC1=CC=CC=C1
RETENTIONTIME: 
CCS: 156.6507671
IONMODE: Negative
INSTRUMENTTYPE: LC-ESI-ITFT
INSTRUMENT: 
COLLISIONENERGY: 30
Comment: registered in MassBank
Num Peaks: 1
116.0718	1000

NAME: Carbetamide; LC-ESI-ITFT; MS2; CE
PRECURSORMZ: 235.108816
PRECURSORTYPE: [M-H]-
FORMULA: C12H16N2O3
Ontology: Phenylcarbamic acid esters
INCHIKEY: AMRQXHFXNZFDCH-UHFFFAOYNA-N
SMILES: CCN=C(O)C(C)OC(O)=NC1=CC=CC=C1
RETENTIONTIME: 
CCS: 156.6507671
IONMODE: Negative
INSTRUMENTTYPE: LC-ESI-ITFT
INSTRUMENT: 
COLLISIONENERGY: 45
Comment: registered in MassBank
Num Peaks: 2
72.0456	82
116.0718	1000

NAME: Carbetamide; LC-ESI-ITFT; MS2; CE
PRECURSORMZ: 235.108816
PRECURSORTYPE: [M-H]-
FORMULA: C12H16N2O3
Ontology: Phenylcarbamic acid esters
INCHIKEY: AMRQXHFXNZFDCH-UHFFFAOYNA-N
SMILES: CCN=C(O)C(C)OC(O)=NC1=CC=CC=C1
RETENTIONTIME: 
CCS: 156.6507671
IONMODE: Negative
INSTRUMENTTYPE: LC-ESI-ITFT
INSTRUMENT: 
COLLISIONENERGY: 60
Comment: registered in MassBank
Num Peaks: 1
116.0718	1000

NAME: Carbetamide; LC-ESI-ITFT; MS2; CE
PRECURSORMZ: 235.108816
PRECURSORTYPE: [M-H]-
FORMULA: C12H16N2O3
Ontology: Phenylcarbamic acid esters
INCHIKEY: AMRQXHFXNZFDCH-UHFFFAOYNA-N
SMILES: CCN=C(O)C(C)OC(O)=NC1=CC=CC=C1
RETENTIONTIME: 
CCS: 156.6507671
IONMODE: Negative
INSTRUMENTTYPE: LC-ESI-ITFT
INSTRUMENT: 
COLLISIONENERGY: 15
Comment: registered in MassBank
Num Peaks: 1
116.0718	1000

NAME: Carbetamide; LC-ESI-ITFT; MS2; CE
PRECURSORMZ: 235.108816
PRECURSORTYPE: [M-H]-
FORMULA: C12H16N2O3
Ontology: Phenylcarbamic acid esters
INCHIKEY: AMRQXHFXNZFDCH-UHFFFAOYNA-N
SMILES: CCN=C(O)C(C)OC(O)=NC1=CC=CC=C1
RETENTIONTIME: 
CCS: 156.6507671
IONMODE: Negative
INSTRUMENTTYPE: LC-ESI-ITFT
INSTRUMENT: 
COLLISIONENERGY: 30
Comment: registered in MassBank
Num Peaks: 2
72.0456	29
116.0716	1000

NAME: Carbetamide; LC-ESI-ITFT; MS2; CE
PRECURSORMZ: 235.108816
PRECURSORTYPE: [M-H]-
FORMULA: C12H16N2O3
Ontology: Phenylcarbamic acid esters
INCHIKEY: AMRQXHFXNZFDCH-UHFFFAOYNA-N
SMILES: CCN=C(O)C(C)OC(O)=NC1=CC=CC=C1
RETENTIONTIME: 
CCS: 156.6507671
IONMODE: Negative
INSTRUMENTTYPE: LC-ESI-ITFT
INSTRUMENT: 
COLLISIONENERGY: 45
Comment: registered in MassBank
Num Peaks: 2
72.0454	48
116.0717	1000

NAME: Carbetamide; LC-ESI-ITFT; MS2; CE
PRECURSORMZ: 235.108816
PRECURSORTYPE: [M-H]-
FORMULA: C12H16N2O3
Ontology: Phenylcarbamic acid esters
INCHIKEY: AMRQXHFXNZFDCH-UHFFFAOYNA-N
SMILES: CCN=C(O)C(C)OC(O)=NC1=CC=CC=C1
RETENTIONTIME: 
CCS: 156.6507671
IONMODE: Negative
INSTRUMENTTYPE: LC-ESI-ITFT
INSTRUMENT: 
COLLISIONENERGY: 60
Comment: registered in MassBank
Num Peaks: 1
116.0717	1000

NAME: Carbetamide; LC-ESI-ITFT; MS2; CE
PRECURSORMZ: 235.108816
PRECURSORTYPE: [M-H]-
FORMULA: C12H16N2O3
Ontology: Phenylcarbamic acid esters
INCHIKEY: AMRQXHFXNZFDCH-UHFFFAOYNA-N
SMILES: CCN=C(O)C(C)OC(O)=NC1=CC=CC=C1
RETENTIONTIME: 
CCS: 156.6507671
IONMODE: Negative
INSTRUMENTTYPE: LC-ESI-ITFT
INSTRUMENT: 
COLLISIONENERGY: 35
Comment: registered in MassBank
Num Peaks: 2
116.0718	1000
142.05099	454

NAME: Fluazifop; LC-ESI-ITFT; MS2; CE
PRECURSORMZ: 326.064566
PRECURSORTYPE: [M-H]-
FORMULA: C15H12F3NO4
Ontology: Aryloxyphenoxypropionic acids
INCHIKEY: YUVKUEAFAVKILW-UHFFFAOYNA-N
SMILES: CC(OC1=CC=C(OC2=NC=C(C=C2)C(F)(F)F)C=C1)C(O)=O
RETENTIONTIME: 
CCS: 171.8552814
IONMODE: Negative
INSTRUMENTTYPE: LC-ESI-ITFT
INSTRUMENT: 
COLLISIONENERGY: 35
Comment: registered in MassBank
Num Peaks: 2
254.0434	1000
282.0748	14

NAME: Fluazifop; LC-ESI-ITFT; MS2; CE
PRECURSORMZ: 326.064566
PRECURSORTYPE: [M-H]-
FORMULA: C15H12F3NO4
Ontology: Aryloxyphenoxypropionic acids
INCHIKEY: YUVKUEAFAVKILW-UHFFFAOYNA-N
SMILES: CC(OC1=CC=C(OC2=NC=C(C=C2)C(F)(F)F)C=C1)C(O)=O
RETENTIONTIME: 
CCS: 171.8552814
IONMODE: Negative
INSTRUMENTTYPE: LC-ESI-ITFT
INSTRUMENT: 
COLLISIONENERGY: 15
Comment: registered in MassBank
Num Peaks: 3
71.0139	22
254.0435	1000
326.06439	882

NAME: Fluazifop; LC-ESI-ITFT; MS2; CE
PRECURSORMZ: 326.064566
PRECURSORTYPE: [M-H]-
FORMULA: C15H12F3NO4
Ontology: Aryloxyphenoxypropionic acids
INCHIKEY: YUVKUEAFAVKILW-UHFFFAOYNA-N
SMILES: CC(OC1=CC=C(OC2=NC=C(C=C2)C(F)(F)F)C=C1)C(O)=O
RETENTIONTIME: 
CCS: 171.8552814
IONMODE: Negative
INSTRUMENTTYPE: LC-ESI-ITFT
INSTRUMENT: 
COLLISIONENERGY: 30
Comment: registered in MassBank
Num Peaks: 3
71.0138	12
226.0488	19
254.0433	1000

NAME: Fluazifop; LC-ESI-ITFT; MS2; CE
PRECURSORMZ: 326.064566
PRECURSORTYPE: [M-H]-
FORMULA: C15H12F3NO4
Ontology: Aryloxyphenoxypropionic acids
INCHIKEY: YUVKUEAFAVKILW-UHFFFAOYNA-N
SMILES: CC(OC1=CC=C(OC2=NC=C(C=C2)C(F)(F)F)C=C1)C(O)=O
RETENTIONTIME: 
CCS: 171.8552814
IONMODE: Negative
INSTRUMENTTYPE: LC-ESI-ITFT
INSTRUMENT: 
COLLISIONENERGY: 45
Comment: registered in MassBank
Num Peaks: 9
71.0136	12
108.0214	39
178.0477	10
199.0244	25
206.0419	44
226.048	256
234.0376	12
253.0359	28
254.0432	1000

NAME: Fluazifop; LC-ESI-ITFT; MS2; CE
PRECURSORMZ: 326.064566
PRECURSORTYPE: [M-H]-
FORMULA: C15H12F3NO4
Ontology: Aryloxyphenoxypropionic acids
INCHIKEY: YUVKUEAFAVKILW-UHFFFAOYNA-N
SMILES: CC(OC1=CC=C(OC2=NC=C(C=C2)C(F)(F)F)C=C1)C(O)=O
RETENTIONTIME: 
CCS: 171.8552814
IONMODE: Negative
INSTRUMENTTYPE: LC-ESI-ITFT
INSTRUMENT: 
COLLISIONENERGY: 60
Comment: registered in MassBank
Num Peaks: 18
71.014	54
108.0216	808
150.0356	51
162.01711	121
170.0407	45
178.047	147
186.0367	62
190.04761	79
198.05341	271
199.0251	211
200.0329	64
206.0421	855
210.05389	154
212.032	187
226.0482	1000
234.0361	131
253.03551	367
254.04311	938

NAME: Fluazifop; LC-ESI-ITFT; MS2; CE
PRECURSORMZ: 326.064566
PRECURSORTYPE: [M-H]-
FORMULA: C15H12F3NO4
Ontology: Aryloxyphenoxypropionic acids
INCHIKEY: YUVKUEAFAVKILW-UHFFFAOYNA-N
SMILES: CC(OC1=CC=C(OC2=NC=C(C=C2)C(F)(F)F)C=C1)C(O)=O
RETENTIONTIME: 
CCS: 171.8552814
IONMODE: Negative
INSTRUMENTTYPE: LC-ESI-ITFT
INSTRUMENT: 
COLLISIONENERGY: 75
Comment: registered in MassBank
Num Peaks: 18
108.0216	1000
158.0414	109
160.0376	36
162.0172	245
164.03169	35
166.03011	35
170.0412	27
178.04739	207
184.0385	35
186.0356	98
190.04671	22
198.0538	82
206.04201	373
210.0535	26
212.03281	56
226.04829	137
253.0351	179
254.02921	31

NAME: Fluazifop; LC-ESI-ITFT; MS2; CE
PRECURSORMZ: 326.064566
PRECURSORTYPE: [M-H]-
FORMULA: C15H12F3NO4
Ontology: Aryloxyphenoxypropionic acids
INCHIKEY: YUVKUEAFAVKILW-UHFFFAOYNA-N
SMILES: CC(OC1=CC=C(OC2=NC=C(C=C2)C(F)(F)F)C=C1)C(O)=O
RETENTIONTIME: 
CCS: 171.8552814
IONMODE: Negative
INSTRUMENTTYPE: LC-ESI-ITFT
INSTRUMENT: 
COLLISIONENERGY: 90
Comment: registered in MassBank
Num Peaks: 8
108.0216	1000
138.0351	97
142.011	53
158.04089	140
162.0172	282
178.04739	134
186.03571	55
206.0425	132

NAME: Fluazifop; LC-ESI-ITFT; MS2; CE
PRECURSORMZ: 326.064566
PRECURSORTYPE: [M-H]-
FORMULA: C15H12F3NO4
Ontology: Aryloxyphenoxypropionic acids
INCHIKEY: YUVKUEAFAVKILW-UHFFFAOYNA-N
SMILES: CC(OC1=CC=C(OC2=NC=C(C=C2)C(F)(F)F)C=C1)C(O)=O
RETENTIONTIME: 
CCS: 171.8552814
IONMODE: Negative
INSTRUMENTTYPE: LC-ESI-ITFT
INSTRUMENT: 
COLLISIONENERGY: 15
Comment: registered in MassBank
Num Peaks: 5
71.0138	18
226.0473	7
254.0432	1000
282.07391	9
326.0643	816

NAME: Fluazifop; LC-ESI-ITFT; MS2; CE
PRECURSORMZ: 326.064566
PRECURSORTYPE: [M-H]-
FORMULA: C15H12F3NO4
Ontology: Aryloxyphenoxypropionic acids
INCHIKEY: YUVKUEAFAVKILW-UHFFFAOYNA-N
SMILES: CC(OC1=CC=C(OC2=NC=C(C=C2)C(F)(F)F)C=C1)C(O)=O
RETENTIONTIME: 
CCS: 171.8552814
IONMODE: Negative
INSTRUMENTTYPE: LC-ESI-ITFT
INSTRUMENT: 
COLLISIONENERGY: 30
Comment: registered in MassBank
Num Peaks: 3
71.0138	11
226.04829	16
254.0433	1000

NAME: Fluazifop; LC-ESI-ITFT; MS2; CE
PRECURSORMZ: 326.064566
PRECURSORTYPE: [M-H]-
FORMULA: C15H12F3NO4
Ontology: Aryloxyphenoxypropionic acids
INCHIKEY: YUVKUEAFAVKILW-UHFFFAOYNA-N
SMILES: CC(OC1=CC=C(OC2=NC=C(C=C2)C(F)(F)F)C=C1)C(O)=O
RETENTIONTIME: 
CCS: 171.8552814
IONMODE: Negative
INSTRUMENTTYPE: LC-ESI-ITFT
INSTRUMENT: 
COLLISIONENERGY: 45
Comment: registered in MassBank
Num Peaks: 11
71.0138	13
108.0216	34
198.0528	12
199.02499	24
206.0419	33
210.05341	25
212.0327	39
226.04829	246
234.03751	16
253.03571	25
254.0433	1000

NAME: Fluazifop; LC-ESI-ITFT; MS2; CE
PRECURSORMZ: 326.064566
PRECURSORTYPE: [M-H]-
FORMULA: C15H12F3NO4
Ontology: Aryloxyphenoxypropionic acids
INCHIKEY: YUVKUEAFAVKILW-UHFFFAOYNA-N
SMILES: CC(OC1=CC=C(OC2=NC=C(C=C2)C(F)(F)F)C=C1)C(O)=O
RETENTIONTIME: 
CCS: 171.8552814
IONMODE: Negative
INSTRUMENTTYPE: LC-ESI-ITFT
INSTRUMENT: 
COLLISIONENERGY: 60
Comment: registered in MassBank
Num Peaks: 18
108.0215	786
150.0347	75
160.0374	40
162.0172	135
170.0416	43
178.04739	81
184.0377	78
190.04739	66
198.0535	297
199.02499	188
200.032	46
206.0421	780
210.0536	166
212.03281	185
226.0484	1000
234.0368	115
253.0352	329
254.0433	865

NAME: Fluazifop; LC-ESI-ITFT; MS2; CE
PRECURSORMZ: 326.064566
PRECURSORTYPE: [M-H]-
FORMULA: C15H12F3NO4
Ontology: Aryloxyphenoxypropionic acids
INCHIKEY: YUVKUEAFAVKILW-UHFFFAOYNA-N
SMILES: CC(OC1=CC=C(OC2=NC=C(C=C2)C(F)(F)F)C=C1)C(O)=O
RETENTIONTIME: 
CCS: 171.8552814
IONMODE: Negative
INSTRUMENTTYPE: LC-ESI-ITFT
INSTRUMENT: 
COLLISIONENERGY: 75
Comment: registered in MassBank
Num Peaks: 17
108.0216	1000
150.03529	27
158.04111	93
162.01711	283
164.0313	59
166.0296	58
170.04041	37
178.0472	234
184.0381	38
186.03529	90
198.05321	129
199.02431	65
206.0419	504
210.0546	30
212.03239	90
226.0482	189
253.0356	152

NAME: Fluazifop; LC-ESI-ITFT; MS2; CE
PRECURSORMZ: 326.064566
PRECURSORTYPE: [M-H]-
FORMULA: C15H12F3NO4
Ontology: Aryloxyphenoxypropionic acids
INCHIKEY: YUVKUEAFAVKILW-UHFFFAOYNA-N
SMILES: CC(OC1=CC=C(OC2=NC=C(C=C2)C(F)(F)F)C=C1)C(O)=O
RETENTIONTIME: 
CCS: 171.8552814
IONMODE: Negative
INSTRUMENTTYPE: LC-ESI-ITFT
INSTRUMENT: 
COLLISIONENERGY: 90
Comment: registered in MassBank
Num Peaks: 14
108.0215	1000
138.03461	77
142.01109	80
158.041	143
162.01711	344
164.03149	80
166.0293	60
178.04691	87
184.0376	35
186.036	66
206.04221	132
226.04739	47
253.0354	55
254.02921	79

NAME: Fluazifop; LC-ESI-ITFT; MS2; CE
PRECURSORMZ: 326.064566
PRECURSORTYPE: [M-H]-
FORMULA: C15H12F3NO4
Ontology: Aryloxyphenoxypropionic acids
INCHIKEY: YUVKUEAFAVKILW-UHFFFAOYNA-N
SMILES: CC(OC1=CC=C(OC2=NC=C(C=C2)C(F)(F)F)C=C1)C(O)=O
RETENTIONTIME: 
CCS: 171.8552814
IONMODE: Negative
INSTRUMENTTYPE: LC-ESI-ITFT
INSTRUMENT: 
COLLISIONENERGY: 35
Comment: registered in MassBank
Num Peaks: 2
254.0434	1000
282.07431	9

NAME: Trinexapac; LC-ESI-ITFT; MS2; CE
PRECURSORMZ: 223.061197
PRECURSORTYPE: [M-H]-
FORMULA: C11H12O5
Ontology: Vinylogous acids
INCHIKEY: DFFWZNDCNBOKDI-KTKRTIGZSA-N
SMILES: OC(=O)C1CC(=O)C(=C(O)C2CC2)C(=O)C1
RETENTIONTIME: 
CCS: 159.7115149
IONMODE: Negative
INSTRUMENTTYPE: LC-ESI-ITFT
INSTRUMENT: 
COLLISIONENERGY: 35
Comment: registered in MassBank
Num Peaks: 15
83.0505	16
85.0297	18
93.0348	8
95.014	61
106.0425	30
107.0504	174
109.0296	12
120.0583	26
125.061	32
133.06599	20
135.08211	1000
137.0246	196
161.06129	13
179.0717	406
205.0508	205

NAME: Trinexapac; LC-ESI-ITFT; MS2; CE
PRECURSORMZ: 223.061197
PRECURSORTYPE: [M-H]-
FORMULA: C11H12O5
Ontology: Vinylogous acids
INCHIKEY: DFFWZNDCNBOKDI-KTKRTIGZSA-N
SMILES: OC(=O)C1CC(=O)C(=C(O)C2CC2)C(=O)C1
RETENTIONTIME: 
CCS: 159.7115149
IONMODE: Negative
INSTRUMENTTYPE: LC-ESI-ITFT
INSTRUMENT: 
COLLISIONENERGY: 15
Comment: registered in MassBank
Num Peaks: 3
135.0815	22
179.0712	34
223.0614	1000

NAME: Trinexapac; LC-ESI-ITFT; MS2; CE
PRECURSORMZ: 223.061197
PRECURSORTYPE: [M-H]-
FORMULA: C11H12O5
Ontology: Vinylogous acids
INCHIKEY: DFFWZNDCNBOKDI-KTKRTIGZSA-N
SMILES: OC(=O)C1CC(=O)C(=C(O)C2CC2)C(=O)C1
RETENTIONTIME: 
CCS: 159.7115149
IONMODE: Negative
INSTRUMENTTYPE: LC-ESI-ITFT
INSTRUMENT: 
COLLISIONENERGY: 30
Comment: registered in MassBank
Num Peaks: 6
95.014	22
125.0609	25
135.0816	224
179.07159	182
205.0508	97
223.06129	1000

NAME: Trinexapac; LC-ESI-ITFT; MS2; CE
PRECURSORMZ: 223.061197
PRECURSORTYPE: [M-H]-
FORMULA: C11H12O5
Ontology: Vinylogous acids
INCHIKEY: DFFWZNDCNBOKDI-KTKRTIGZSA-N
SMILES: OC(=O)C1CC(=O)C(=C(O)C2CC2)C(=O)C1
RETENTIONTIME: 
CCS: 159.7115149
IONMODE: Negative
INSTRUMENTTYPE: LC-ESI-ITFT
INSTRUMENT: 
COLLISIONENERGY: 45
Comment: registered in MassBank
Num Peaks: 9
83.0504	188
95.0139	71
107.0506	100
125.061	181
135.0815	1000
161.06129	165
179.0714	934
205.0507	467
223.06149	704

NAME: Trinexapac; LC-ESI-ITFT; MS2; CE
PRECURSORMZ: 223.061197
PRECURSORTYPE: [M-H]-
FORMULA: C11H12O5
Ontology: Vinylogous acids
INCHIKEY: DFFWZNDCNBOKDI-KTKRTIGZSA-N
SMILES: OC(=O)C1CC(=O)C(=C(O)C2CC2)C(=O)C1
RETENTIONTIME: 
CCS: 159.7115149
IONMODE: Negative
INSTRUMENTTYPE: LC-ESI-ITFT
INSTRUMENT: 
COLLISIONENERGY: 60
Comment: registered in MassBank
Num Peaks: 10
83.0503	347
95.0141	169
111.045	266
125.0614	290
133.06531	144
135.0816	689
161.06129	246
179.07159	1000
205.05029	226
223.061	155

NAME: Trinexapac; LC-ESI-ITFT; MS2; CE
PRECURSORMZ: 223.061197
PRECURSORTYPE: [M-H]-
FORMULA: C11H12O5
Ontology: Vinylogous acids
INCHIKEY: DFFWZNDCNBOKDI-KTKRTIGZSA-N
SMILES: OC(=O)C1CC(=O)C(=C(O)C2CC2)C(=O)C1
RETENTIONTIME: 
CCS: 159.7115149
IONMODE: Negative
INSTRUMENTTYPE: LC-ESI-ITFT
INSTRUMENT: 
COLLISIONENERGY: 90
Comment: registered in MassBank
Num Peaks: 1
111.0453	1000

NAME: Trinexapac; LC-ESI-ITFT; MS2; CE
PRECURSORMZ: 223.061197
PRECURSORTYPE: [M-H]-
FORMULA: C11H12O5
Ontology: Vinylogous acids
INCHIKEY: DFFWZNDCNBOKDI-KTKRTIGZSA-N
SMILES: OC(=O)C1CC(=O)C(=C(O)C2CC2)C(=O)C1
RETENTIONTIME: 
CCS: 159.7115149
IONMODE: Negative
INSTRUMENTTYPE: LC-ESI-ITFT
INSTRUMENT: 
COLLISIONENERGY: 15
Comment: registered in MassBank
Num Peaks: 2
179.0713	28
223.0614	1000

NAME: Trinexapac; LC-ESI-ITFT; MS2; CE
PRECURSORMZ: 223.061197
PRECURSORTYPE: [M-H]-
FORMULA: C11H12O5
Ontology: Vinylogous acids
INCHIKEY: DFFWZNDCNBOKDI-KTKRTIGZSA-N
SMILES: OC(=O)C1CC(=O)C(=C(O)C2CC2)C(=O)C1
RETENTIONTIME: 
CCS: 159.7115149
IONMODE: Negative
INSTRUMENTTYPE: LC-ESI-ITFT
INSTRUMENT: 
COLLISIONENERGY: 30
Comment: registered in MassBank
Num Peaks: 7
107.0504	10
125.0607	28
135.0818	231
137.0242	19
179.0713	174
205.0508	59
223.0614	1000

NAME: Trinexapac; LC-ESI-ITFT; MS2; CE
PRECURSORMZ: 223.061197
PRECURSORTYPE: [M-H]-
FORMULA: C11H12O5
Ontology: Vinylogous acids
INCHIKEY: DFFWZNDCNBOKDI-KTKRTIGZSA-N
SMILES: OC(=O)C1CC(=O)C(=C(O)C2CC2)C(=O)C1
RETENTIONTIME: 
CCS: 159.7115149
IONMODE: Negative
INSTRUMENTTYPE: LC-ESI-ITFT
INSTRUMENT: 
COLLISIONENERGY: 45
Comment: registered in MassBank
Num Peaks: 13
83.0503	198
95.0138	56
107.0503	76
109.0299	50
111.0453	68
125.0608	227
133.06599	72
135.0815	913
137.0244	50
161.0609	137
179.0714	1000
205.0506	437
223.0616	628

NAME: Trinexapac; LC-ESI-ITFT; MS2; CE
PRECURSORMZ: 223.061197
PRECURSORTYPE: [M-H]-
FORMULA: C11H12O5
Ontology: Vinylogous acids
INCHIKEY: DFFWZNDCNBOKDI-KTKRTIGZSA-N
SMILES: OC(=O)C1CC(=O)C(=C(O)C2CC2)C(=O)C1
RETENTIONTIME: 
CCS: 159.7115149
IONMODE: Negative
INSTRUMENTTYPE: LC-ESI-ITFT
INSTRUMENT: 
COLLISIONENERGY: 60
Comment: registered in MassBank
Num Peaks: 11
83.0504	254
93.0347	89
95.0141	121
111.045	133
125.061	284
133.0659	154
135.0815	766
161.06081	293
163.04021	118
179.07159	1000
205.0507	245

NAME: Trinexapac; LC-ESI-ITFT; MS2; CE
PRECURSORMZ: 223.061197
PRECURSORTYPE: [M-H]-
FORMULA: C11H12O5
Ontology: Vinylogous acids
INCHIKEY: DFFWZNDCNBOKDI-KTKRTIGZSA-N
SMILES: OC(=O)C1CC(=O)C(=C(O)C2CC2)C(=O)C1
RETENTIONTIME: 
CCS: 159.7115149
IONMODE: Negative
INSTRUMENTTYPE: LC-ESI-ITFT
INSTRUMENT: 
COLLISIONENERGY: 75
Comment: registered in MassBank
Num Peaks: 7
83.0504	960
95.014	382
109.0295	305
111.0453	1000
125.0606	570
135.08121	663
163.04021	452

NAME: Asulam; LC-ESI-ITFT; MS2; CE
PRECURSORMZ: 229.028851
PRECURSORTYPE: [M-H]-
FORMULA: C8H10N2O4S
Ontology: Aminobenzenesulfonamides
INCHIKEY: VGPYEHKOIGNJKV-UHFFFAOYSA-N
SMILES: COC(O)=NS(=O)(=O)C1=CC=C(N)C=C1
RETENTIONTIME: 
CCS: 146.1673718
IONMODE: Negative
INSTRUMENTTYPE: LC-ESI-ITFT
INSTRUMENT: 
COLLISIONENERGY: 35
Comment: registered in MassBank
Num Peaks: 2
133.0408	54
197.0029	1000

NAME: Asulam; LC-ESI-ITFT; MS2; CE
PRECURSORMZ: 229.028851
PRECURSORTYPE: [M-H]-
FORMULA: C8H10N2O4S
Ontology: Aminobenzenesulfonamides
INCHIKEY: VGPYEHKOIGNJKV-UHFFFAOYSA-N
SMILES: COC(O)=NS(=O)(=O)C1=CC=C(N)C=C1
RETENTIONTIME: 
CCS: 146.1673718
IONMODE: Negative
INSTRUMENTTYPE: LC-ESI-ITFT
INSTRUMENT: 
COLLISIONENERGY: 30
Comment: registered in MassBank
Num Peaks: 3
133.04021	38
197.00259	575
229.0289	1000

NAME: Asulam; LC-ESI-ITFT; MS2; CE
PRECURSORMZ: 229.028851
PRECURSORTYPE: [M-H]-
FORMULA: C8H10N2O4S
Ontology: Aminobenzenesulfonamides
INCHIKEY: VGPYEHKOIGNJKV-UHFFFAOYSA-N
SMILES: COC(O)=NS(=O)(=O)C1=CC=C(N)C=C1
RETENTIONTIME: 
CCS: 146.1673718
IONMODE: Negative
INSTRUMENTTYPE: LC-ESI-ITFT
INSTRUMENT: 
COLLISIONENERGY: 45
Comment: registered in MassBank
Num Peaks: 3
133.0412	140
197.00259	1000
229.0289	149

NAME: Asulam; LC-ESI-ITFT; MS2; CE
PRECURSORMZ: 229.028851
PRECURSORTYPE: [M-H]-
FORMULA: C8H10N2O4S
Ontology: Aminobenzenesulfonamides
INCHIKEY: VGPYEHKOIGNJKV-UHFFFAOYSA-N
SMILES: COC(O)=NS(=O)(=O)C1=CC=C(N)C=C1
RETENTIONTIME: 
CCS: 146.1673718
IONMODE: Negative
INSTRUMENTTYPE: LC-ESI-ITFT
INSTRUMENT: 
COLLISIONENERGY: 60
Comment: registered in MassBank
Num Peaks: 1
197.0024	1000

NAME: Asulam; LC-ESI-ITFT; MS2; CE
PRECURSORMZ: 229.028851
PRECURSORTYPE: [M-H]-
FORMULA: C8H10N2O4S
Ontology: Aminobenzenesulfonamides
INCHIKEY: VGPYEHKOIGNJKV-UHFFFAOYSA-N
SMILES: COC(O)=NS(=O)(=O)C1=CC=C(N)C=C1
RETENTIONTIME: 
CCS: 146.1673718
IONMODE: Negative
INSTRUMENTTYPE: LC-ESI-ITFT
INSTRUMENT: 
COLLISIONENERGY: 30
Comment: registered in MassBank
Num Peaks: 3
133.0403	55
197.0024	627
229.0287	1000

NAME: Asulam; LC-ESI-ITFT; MS2; CE
PRECURSORMZ: 229.028851
PRECURSORTYPE: [M-H]-
FORMULA: C8H10N2O4S
Ontology: Aminobenzenesulfonamides
INCHIKEY: VGPYEHKOIGNJKV-UHFFFAOYSA-N
SMILES: COC(O)=NS(=O)(=O)C1=CC=C(N)C=C1
RETENTIONTIME: 
CCS: 146.1673718
IONMODE: Negative
INSTRUMENTTYPE: LC-ESI-ITFT
INSTRUMENT: 
COLLISIONENERGY: 45
Comment: registered in MassBank
Num Peaks: 2
197.00259	1000
229.02859	141

NAME: Asulam; LC-ESI-ITFT; MS2; CE
PRECURSORMZ: 229.028851
PRECURSORTYPE: [M-H]-
FORMULA: C8H10N2O4S
Ontology: Aminobenzenesulfonamides
INCHIKEY: VGPYEHKOIGNJKV-UHFFFAOYSA-N
SMILES: COC(O)=NS(=O)(=O)C1=CC=C(N)C=C1
RETENTIONTIME: 
CCS: 146.1673718
IONMODE: Negative
INSTRUMENTTYPE: LC-ESI-ITFT
INSTRUMENT: 
COLLISIONENERGY: 60
Comment: registered in MassBank
Num Peaks: 1
197.002	1000

NAME: Asulam; LC-ESI-ITFT; MS2; CE
PRECURSORMZ: 229.028851
PRECURSORTYPE: [M-H]-
FORMULA: C8H10N2O4S
Ontology: Aminobenzenesulfonamides
INCHIKEY: VGPYEHKOIGNJKV-UHFFFAOYSA-N
SMILES: COC(O)=NS(=O)(=O)C1=CC=C(N)C=C1
RETENTIONTIME: 
CCS: 146.1673718
IONMODE: Negative
INSTRUMENTTYPE: LC-ESI-ITFT
INSTRUMENT: 
COLLISIONENERGY: 35
Comment: registered in MassBank
Num Peaks: 2
133.0405	25
197.0027	1000

NAME: Monuron; LC-ESI-ITFT; MS2; CE
PRECURSORMZ: 197.048714
PRECURSORTYPE: [M-H]-
FORMULA: C9H11ClN2O
Ontology: N-phenylureas
INCHIKEY: BMLIZLVNXIYGCK-UHFFFAOYSA-N
SMILES: CN(C)C(=O)NC1=CC=C(Cl)C=C1
RETENTIONTIME: 
CCS: 141.9038861
IONMODE: Negative
INSTRUMENTTYPE: LC-ESI-ITFT
INSTRUMENT: 
COLLISIONENERGY: 35
Comment: registered in MassBank
Num Peaks: 1
151.9908	1000

NAME: Monuron; LC-ESI-ITFT; MS2; CE
PRECURSORMZ: 197.048714
PRECURSORTYPE: [M-H]-
FORMULA: C9H11ClN2O
Ontology: N-phenylureas
INCHIKEY: BMLIZLVNXIYGCK-UHFFFAOYSA-N
SMILES: CN(C)C(=O)NC1=CC=C(Cl)C=C1
RETENTIONTIME: 
CCS: 141.9038861
IONMODE: Negative
INSTRUMENTTYPE: LC-ESI-ITFT
INSTRUMENT: 
COLLISIONENERGY: 30
Comment: registered in MassBank
Num Peaks: 2
151.9906	169
197.04871	1000

NAME: Monuron; LC-ESI-ITFT; MS2; CE
PRECURSORMZ: 197.048714
PRECURSORTYPE: [M-H]-
FORMULA: C9H11ClN2O
Ontology: N-phenylureas
INCHIKEY: BMLIZLVNXIYGCK-UHFFFAOYSA-N
SMILES: CN(C)C(=O)NC1=CC=C(Cl)C=C1
RETENTIONTIME: 
CCS: 141.9038861
IONMODE: Negative
INSTRUMENTTYPE: LC-ESI-ITFT
INSTRUMENT: 
COLLISIONENERGY: 45
Comment: registered in MassBank
Num Peaks: 2
151.9906	1000
197.0488	980

NAME: Monuron; LC-ESI-ITFT; MS2; CE
PRECURSORMZ: 197.048714
PRECURSORTYPE: [M-H]-
FORMULA: C9H11ClN2O
Ontology: N-phenylureas
INCHIKEY: BMLIZLVNXIYGCK-UHFFFAOYSA-N
SMILES: CN(C)C(=O)NC1=CC=C(Cl)C=C1
RETENTIONTIME: 
CCS: 141.9038861
IONMODE: Negative
INSTRUMENTTYPE: LC-ESI-ITFT
INSTRUMENT: 
COLLISIONENERGY: 60
Comment: registered in MassBank
Num Peaks: 1
151.99049	1000

NAME: Monuron; LC-ESI-ITFT; MS2; CE
PRECURSORMZ: 197.048714
PRECURSORTYPE: [M-H]-
FORMULA: C9H11ClN2O
Ontology: N-phenylureas
INCHIKEY: BMLIZLVNXIYGCK-UHFFFAOYSA-N
SMILES: CN(C)C(=O)NC1=CC=C(Cl)C=C1
RETENTIONTIME: 
CCS: 141.9038861
IONMODE: Negative
INSTRUMENTTYPE: LC-ESI-ITFT
INSTRUMENT: 
COLLISIONENERGY: 45
Comment: registered in MassBank
Num Peaks: 2
151.9906	1000
197.04871	781

NAME: Monuron; LC-ESI-ITFT; MS2; CE
PRECURSORMZ: 197.048714
PRECURSORTYPE: [M-H]-
FORMULA: C9H11ClN2O
Ontology: N-phenylureas
INCHIKEY: BMLIZLVNXIYGCK-UHFFFAOYSA-N
SMILES: CN(C)C(=O)NC1=CC=C(Cl)C=C1
RETENTIONTIME: 
CCS: 141.9038861
IONMODE: Negative
INSTRUMENTTYPE: LC-ESI-ITFT
INSTRUMENT: 
COLLISIONENERGY: 60
Comment: registered in MassBank
Num Peaks: 1
151.99071	1000

NAME: Monuron; LC-ESI-ITFT; MS2; CE
PRECURSORMZ: 197.048714
PRECURSORTYPE: [M-H]-
FORMULA: C9H11ClN2O
Ontology: N-phenylureas
INCHIKEY: BMLIZLVNXIYGCK-UHFFFAOYSA-N
SMILES: CN(C)C(=O)NC1=CC=C(Cl)C=C1
RETENTIONTIME: 
CCS: 141.9038861
IONMODE: Negative
INSTRUMENTTYPE: LC-ESI-ITFT
INSTRUMENT: 
COLLISIONENERGY: 35
Comment: registered in MassBank
Num Peaks: 1
151.99071	1000

NAME: Fludioxonil; LC-ESI-ITFT; MS2; CE
PRECURSORMZ: 247.032457
PRECURSORTYPE: [M-H]-
FORMULA: C12H6F2N2O2
Ontology: Benzodioxoles
INCHIKEY: MUJOIMFVNIBMKC-UHFFFAOYSA-N
SMILES: FC1(F)OC2=CC=CC(=C2O1)C1=CNC=C1C#N
RETENTIONTIME: 
CCS: 147.5326298
IONMODE: Negative
INSTRUMENTTYPE: LC-ESI-ITFT
INSTRUMENT: 
COLLISIONENERGY: 35
Comment: registered in MassBank
Num Peaks: 9
126.0355	36
153.04601	44
179.0249	231
180.03281	333
181.0407	1000
183.0361	38
199.03101	109
207.01981	70
247.0323	152

NAME: Fludioxonil; LC-ESI-ITFT; MS2; CE
PRECURSORMZ: 247.032457
PRECURSORTYPE: [M-H]-
FORMULA: C12H6F2N2O2
Ontology: Benzodioxoles
INCHIKEY: MUJOIMFVNIBMKC-UHFFFAOYSA-N
SMILES: FC1(F)OC2=CC=CC(=C2O1)C1=CNC=C1C#N
RETENTIONTIME: 
CCS: 147.5326298
IONMODE: Negative
INSTRUMENTTYPE: LC-ESI-ITFT
INSTRUMENT: 
COLLISIONENERGY: 45
Comment: registered in MassBank
Num Peaks: 5
126.035	7
153.0451	6
180.03371	17
181.0407	59
247.03239	1000

NAME: Fludioxonil; LC-ESI-ITFT; MS2; CE
PRECURSORMZ: 247.032457
PRECURSORTYPE: [M-H]-
FORMULA: C12H6F2N2O2
Ontology: Benzodioxoles
INCHIKEY: MUJOIMFVNIBMKC-UHFFFAOYSA-N
SMILES: FC1(F)OC2=CC=CC(=C2O1)C1=CNC=C1C#N
RETENTIONTIME: 
CCS: 147.5326298
IONMODE: Negative
INSTRUMENTTYPE: LC-ESI-ITFT
INSTRUMENT: 
COLLISIONENERGY: 60
Comment: registered in MassBank
Num Peaks: 9
126.0348	183
151.0304	56
153.0451	43
169.04111	49
180.0331	218
181.0407	227
197.0358	68
199.032	27
247.0325	1000

NAME: Fludioxonil; LC-ESI-ITFT; MS2; CE
PRECURSORMZ: 247.032457
PRECURSORTYPE: [M-H]-
FORMULA: C12H6F2N2O2
Ontology: Benzodioxoles
INCHIKEY: MUJOIMFVNIBMKC-UHFFFAOYSA-N
SMILES: FC1(F)OC2=CC=CC(=C2O1)C1=CNC=C1C#N
RETENTIONTIME: 
CCS: 147.5326298
IONMODE: Negative
INSTRUMENTTYPE: LC-ESI-ITFT
INSTRUMENT: 
COLLISIONENERGY: 75
Comment: registered in MassBank
Num Peaks: 11
126.0348	1000
127.0295	63
151.03	258
152.0381	140
153.0451	116
169.0407	478
180.0327	880
181.04041	175
197.03619	99
199.0313	87
247.0321	460

NAME: Fludioxonil; LC-ESI-ITFT; MS2; CE
PRECURSORMZ: 247.032457
PRECURSORTYPE: [M-H]-
FORMULA: C12H6F2N2O2
Ontology: Benzodioxoles
INCHIKEY: MUJOIMFVNIBMKC-UHFFFAOYSA-N
SMILES: FC1(F)OC2=CC=CC(=C2O1)C1=CNC=C1C#N
RETENTIONTIME: 
CCS: 147.5326298
IONMODE: Negative
INSTRUMENTTYPE: LC-ESI-ITFT
INSTRUMENT: 
COLLISIONENERGY: 90
Comment: registered in MassBank
Num Peaks: 9
89.0143	123
126.0348	932
141.0453	206
151.0302	449
152.0378	437
153.04581	82
169.0408	544
180.0325	1000
247.0336	141

NAME: Fludioxonil; LC-ESI-ITFT; MS2; CE
PRECURSORMZ: 247.032457
PRECURSORTYPE: [M-H]-
FORMULA: C12H6F2N2O2
Ontology: Benzodioxoles
INCHIKEY: MUJOIMFVNIBMKC-UHFFFAOYSA-N
SMILES: FC1(F)OC2=CC=CC(=C2O1)C1=CNC=C1C#N
RETENTIONTIME: 
CCS: 147.5326298
IONMODE: Negative
INSTRUMENTTYPE: LC-ESI-ITFT
INSTRUMENT: 
COLLISIONENERGY: 45
Comment: registered in MassBank
Num Peaks: 3
180.0325	12
181.04089	37
247.0322	1000

NAME: Fludioxonil; LC-ESI-ITFT; MS2; CE
PRECURSORMZ: 247.032457
PRECURSORTYPE: [M-H]-
FORMULA: C12H6F2N2O2
Ontology: Benzodioxoles
INCHIKEY: MUJOIMFVNIBMKC-UHFFFAOYSA-N
SMILES: FC1(F)OC2=CC=CC(=C2O1)C1=CNC=C1C#N
RETENTIONTIME: 
CCS: 147.5326298
IONMODE: Negative
INSTRUMENTTYPE: LC-ESI-ITFT
INSTRUMENT: 
COLLISIONENERGY: 60
Comment: registered in MassBank
Num Peaks: 9
126.0346	162
151.03	41
153.0455	34
169.041	49
180.03259	218
181.0405	199
197.0354	42
199.03101	23
247.0322	1000

NAME: Fludioxonil; LC-ESI-ITFT; MS2; CE
PRECURSORMZ: 247.032457
PRECURSORTYPE: [M-H]-
FORMULA: C12H6F2N2O2
Ontology: Benzodioxoles
INCHIKEY: MUJOIMFVNIBMKC-UHFFFAOYSA-N
SMILES: FC1(F)OC2=CC=CC(=C2O1)C1=CNC=C1C#N
RETENTIONTIME: 
CCS: 147.5326298
IONMODE: Negative
INSTRUMENTTYPE: LC-ESI-ITFT
INSTRUMENT: 
COLLISIONENERGY: 75
Comment: registered in MassBank
Num Peaks: 11
89.0143	61
126.0348	1000
151.03	229
152.03799	135
153.0459	76
169.0406	434
179.0244	68
180.0327	928
181.04041	152
197.03551	67
247.03191	452

NAME: Fludioxonil; LC-ESI-ITFT; MS2; CE
PRECURSORMZ: 247.032457
PRECURSORTYPE: [M-H]-
FORMULA: C12H6F2N2O2
Ontology: Benzodioxoles
INCHIKEY: MUJOIMFVNIBMKC-UHFFFAOYSA-N
SMILES: FC1(F)OC2=CC=CC(=C2O1)C1=CNC=C1C#N
RETENTIONTIME: 
CCS: 147.5326298
IONMODE: Negative
INSTRUMENTTYPE: LC-ESI-ITFT
INSTRUMENT: 
COLLISIONENERGY: 90
Comment: registered in MassBank
Num Peaks: 7
126.0347	679
141.0455	164
151.03	178
152.0377	552
153.0461	118
169.0405	625
180.0327	1000

NAME: Fludioxonil; LC-ESI-ITFT; MS2; CE
PRECURSORMZ: 247.032457
PRECURSORTYPE: [M-H]-
FORMULA: C12H6F2N2O2
Ontology: Benzodioxoles
INCHIKEY: MUJOIMFVNIBMKC-UHFFFAOYSA-N
SMILES: FC1(F)OC2=CC=CC(=C2O1)C1=CNC=C1C#N
RETENTIONTIME: 
CCS: 147.5326298
IONMODE: Negative
INSTRUMENTTYPE: LC-ESI-ITFT
INSTRUMENT: 
COLLISIONENERGY: 35
Comment: registered in MassBank
Num Peaks: 10
127.0299	11
153.0457	47
179.0248	133
180.0325	267
181.0405	1000
183.03619	23
197.0354	29
199.03101	78
207.0193	42
247.03191	131

NAME: 1H-Benzotriazole; LC-ESI-ITFT; MS2; CE
PRECURSORMZ: 118.041071
PRECURSORTYPE: [M-H]-
FORMULA: C6H5N3
Ontology: Benzotriazoles
INCHIKEY: QRUDEWIWKLJBPS-UHFFFAOYSA-N
SMILES: N1N=NC2=CC=CC=C12
RETENTIONTIME: 
CCS: 116.8225331
IONMODE: Negative
INSTRUMENTTYPE: LC-ESI-ITFT
INSTRUMENT: 
COLLISIONENERGY: 45
Comment: registered in MassBank
Num Peaks: 2
90.0349	19
118.0413	1000

NAME: 1H-Benzotriazole; LC-ESI-ITFT; MS2; CE
PRECURSORMZ: 118.041071
PRECURSORTYPE: [M-H]-
FORMULA: C6H5N3
Ontology: Benzotriazoles
INCHIKEY: QRUDEWIWKLJBPS-UHFFFAOYSA-N
SMILES: N1N=NC2=CC=CC=C12
RETENTIONTIME: 
CCS: 116.8225331
IONMODE: Negative
INSTRUMENTTYPE: LC-ESI-ITFT
INSTRUMENT: 
COLLISIONENERGY: 60
Comment: registered in MassBank
Num Peaks: 2
90.0349	90
118.0413	1000

NAME: 1H-Benzotriazole; LC-ESI-ITFT; MS2; CE
PRECURSORMZ: 118.041071
PRECURSORTYPE: [M-H]-
FORMULA: C6H5N3
Ontology: Benzotriazoles
INCHIKEY: QRUDEWIWKLJBPS-UHFFFAOYSA-N
SMILES: N1N=NC2=CC=CC=C12
RETENTIONTIME: 
CCS: 116.8225331
IONMODE: Negative
INSTRUMENTTYPE: LC-ESI-ITFT
INSTRUMENT: 
COLLISIONENERGY: 75
Comment: registered in MassBank
Num Peaks: 2
90.0349	262
118.0411	1000

NAME: 1H-Benzotriazole; LC-ESI-ITFT; MS2; CE
PRECURSORMZ: 118.041071
PRECURSORTYPE: [M-H]-
FORMULA: C6H5N3
Ontology: Benzotriazoles
INCHIKEY: QRUDEWIWKLJBPS-UHFFFAOYSA-N
SMILES: N1N=NC2=CC=CC=C12
RETENTIONTIME: 
CCS: 116.8225331
IONMODE: Negative
INSTRUMENTTYPE: LC-ESI-ITFT
INSTRUMENT: 
COLLISIONENERGY: 90
Comment: registered in MassBank
Num Peaks: 2
90.0349	432
118.0412	1000

NAME: 1H-Benzotriazole; LC-ESI-ITFT; MS2; CE
PRECURSORMZ: 118.041071
PRECURSORTYPE: [M-H]-
FORMULA: C6H5N3
Ontology: Benzotriazoles
INCHIKEY: QRUDEWIWKLJBPS-UHFFFAOYSA-N
SMILES: N1N=NC2=CC=CC=C12
RETENTIONTIME: 
CCS: 116.8225331
IONMODE: Negative
INSTRUMENTTYPE: LC-ESI-ITFT
INSTRUMENT: 
COLLISIONENERGY: 45
Comment: registered in MassBank
Num Peaks: 2
90.035	12
118.0412	1000

NAME: 1H-Benzotriazole; LC-ESI-ITFT; MS2; CE
PRECURSORMZ: 118.041071
PRECURSORTYPE: [M-H]-
FORMULA: C6H5N3
Ontology: Benzotriazoles
INCHIKEY: QRUDEWIWKLJBPS-UHFFFAOYSA-N
SMILES: N1N=NC2=CC=CC=C12
RETENTIONTIME: 
CCS: 116.8225331
IONMODE: Negative
INSTRUMENTTYPE: LC-ESI-ITFT
INSTRUMENT: 
COLLISIONENERGY: 60
Comment: registered in MassBank
Num Peaks: 2
90.0349	74
118.0411	1000

NAME: 1H-Benzotriazole; LC-ESI-ITFT; MS2; CE
PRECURSORMZ: 118.041071
PRECURSORTYPE: [M-H]-
FORMULA: C6H5N3
Ontology: Benzotriazoles
INCHIKEY: QRUDEWIWKLJBPS-UHFFFAOYSA-N
SMILES: N1N=NC2=CC=CC=C12
RETENTIONTIME: 
CCS: 116.8225331
IONMODE: Negative
INSTRUMENTTYPE: LC-ESI-ITFT
INSTRUMENT: 
COLLISIONENERGY: 75
Comment: registered in MassBank
Num Peaks: 2
90.0348	195
118.041	1000

NAME: 1H-Benzotriazole; LC-ESI-ITFT; MS2; CE
PRECURSORMZ: 118.041071
PRECURSORTYPE: [M-H]-
FORMULA: C6H5N3
Ontology: Benzotriazoles
INCHIKEY: QRUDEWIWKLJBPS-UHFFFAOYSA-N
SMILES: N1N=NC2=CC=CC=C12
RETENTIONTIME: 
CCS: 116.8225331
IONMODE: Negative
INSTRUMENTTYPE: LC-ESI-ITFT
INSTRUMENT: 
COLLISIONENERGY: 90
Comment: registered in MassBank
Num Peaks: 2
90.0348	269
118.041	1000

NAME: 5-Methyl-1H-benzotriazole; LC-ESI-ITFT; MS2; CE
PRECURSORMZ: 132.056721
PRECURSORTYPE: [M-H]-
FORMULA: C7H7N3
Ontology: Benzotriazoles
INCHIKEY: LRUDIIUSNGCQKF-UHFFFAOYSA-N
SMILES: CC1=CC2=C(C=C1)N=NN2
RETENTIONTIME: 
CCS: 127.3642796
IONMODE: Negative
INSTRUMENTTYPE: LC-ESI-ITFT
INSTRUMENT: 
COLLISIONENERGY: 35
Comment: registered in MassBank
Num Peaks: 3
103.0425	77
104.0508	58
132.05679	1000

NAME: 5-Methyl-1H-benzotriazole; LC-ESI-ITFT; MS2; CE
PRECURSORMZ: 132.056721
PRECURSORTYPE: [M-H]-
FORMULA: C7H7N3
Ontology: Benzotriazoles
INCHIKEY: LRUDIIUSNGCQKF-UHFFFAOYSA-N
SMILES: CC1=CC2=C(C=C1)N=NN2
RETENTIONTIME: 
CCS: 127.3642796
IONMODE: Negative
INSTRUMENTTYPE: LC-ESI-ITFT
INSTRUMENT: 
COLLISIONENERGY: 45
Comment: registered in MassBank
Num Peaks: 3
103.0428	6
104.0505	10
132.0569	1000

NAME: 5-Methyl-1H-benzotriazole; LC-ESI-ITFT; MS2; CE
PRECURSORMZ: 132.056721
PRECURSORTYPE: [M-H]-
FORMULA: C7H7N3
Ontology: Benzotriazoles
INCHIKEY: LRUDIIUSNGCQKF-UHFFFAOYSA-N
SMILES: CC1=CC2=C(C=C1)N=NN2
RETENTIONTIME: 
CCS: 127.3642796
IONMODE: Negative
INSTRUMENTTYPE: LC-ESI-ITFT
INSTRUMENT: 
COLLISIONENERGY: 60
Comment: registered in MassBank
Num Peaks: 3
103.0426	42
104.0506	64
132.05679	1000

NAME: 5-Methyl-1H-benzotriazole; LC-ESI-ITFT; MS2; CE
PRECURSORMZ: 132.056721
PRECURSORTYPE: [M-H]-
FORMULA: C7H7N3
Ontology: Benzotriazoles
INCHIKEY: LRUDIIUSNGCQKF-UHFFFAOYSA-N
SMILES: CC1=CC2=C(C=C1)N=NN2
RETENTIONTIME: 
CCS: 127.3642796
IONMODE: Negative
INSTRUMENTTYPE: LC-ESI-ITFT
INSTRUMENT: 
COLLISIONENERGY: 75
Comment: registered in MassBank
Num Peaks: 3
103.0428	136
104.0506	108
132.05679	1000

NAME: 5-Methyl-1H-benzotriazole; LC-ESI-ITFT; MS2; CE
PRECURSORMZ: 132.056721
PRECURSORTYPE: [M-H]-
FORMULA: C7H7N3
Ontology: Benzotriazoles
INCHIKEY: LRUDIIUSNGCQKF-UHFFFAOYSA-N
SMILES: CC1=CC2=C(C=C1)N=NN2
RETENTIONTIME: 
CCS: 127.3642796
IONMODE: Negative
INSTRUMENTTYPE: LC-ESI-ITFT
INSTRUMENT: 
COLLISIONENERGY: 90
Comment: registered in MassBank
Num Peaks: 3
103.0426	274
104.0507	228
132.05679	1000

NAME: 5-Methyl-1H-benzotriazole; LC-ESI-ITFT; MS2; CE
PRECURSORMZ: 132.056721
PRECURSORTYPE: [M-H]-
FORMULA: C7H7N3
Ontology: Benzotriazoles
INCHIKEY: LRUDIIUSNGCQKF-UHFFFAOYSA-N
SMILES: CC1=CC2=C(C=C1)N=NN2
RETENTIONTIME: 
CCS: 127.3642796
IONMODE: Negative
INSTRUMENTTYPE: LC-ESI-ITFT
INSTRUMENT: 
COLLISIONENERGY: 45
Comment: registered in MassBank
Num Peaks: 2
104.0503	10
132.0569	1000

NAME: 5-Methyl-1H-benzotriazole; LC-ESI-ITFT; MS2; CE
PRECURSORMZ: 132.056721
PRECURSORTYPE: [M-H]-
FORMULA: C7H7N3
Ontology: Benzotriazoles
INCHIKEY: LRUDIIUSNGCQKF-UHFFFAOYSA-N
SMILES: CC1=CC2=C(C=C1)N=NN2
RETENTIONTIME: 
CCS: 127.3642796
IONMODE: Negative
INSTRUMENTTYPE: LC-ESI-ITFT
INSTRUMENT: 
COLLISIONENERGY: 60
Comment: registered in MassBank
Num Peaks: 3
103.0426	41
104.0502	31
132.05679	1000

NAME: 5-Methyl-1H-benzotriazole; LC-ESI-ITFT; MS2; CE
PRECURSORMZ: 132.056721
PRECURSORTYPE: [M-H]-
FORMULA: C7H7N3
Ontology: Benzotriazoles
INCHIKEY: LRUDIIUSNGCQKF-UHFFFAOYSA-N
SMILES: CC1=CC2=C(C=C1)N=NN2
RETENTIONTIME: 
CCS: 127.3642796
IONMODE: Negative
INSTRUMENTTYPE: LC-ESI-ITFT
INSTRUMENT: 
COLLISIONENERGY: 75
Comment: registered in MassBank
Num Peaks: 3
103.0425	129
104.0503	90
132.05679	1000

NAME: 5-Methyl-1H-benzotriazole; LC-ESI-ITFT; MS2; CE
PRECURSORMZ: 132.056721
PRECURSORTYPE: [M-H]-
FORMULA: C7H7N3
Ontology: Benzotriazoles
INCHIKEY: LRUDIIUSNGCQKF-UHFFFAOYSA-N
SMILES: CC1=CC2=C(C=C1)N=NN2
RETENTIONTIME: 
CCS: 127.3642796
IONMODE: Negative
INSTRUMENTTYPE: LC-ESI-ITFT
INSTRUMENT: 
COLLISIONENERGY: 90
Comment: registered in MassBank
Num Peaks: 3
103.0429	195
104.0506	241
132.0569	1000

NAME: 5-Methyl-1H-benzotriazole; LC-ESI-ITFT; MS2; CE
PRECURSORMZ: 132.056721
PRECURSORTYPE: [M-H]-
FORMULA: C7H7N3
Ontology: Benzotriazoles
INCHIKEY: LRUDIIUSNGCQKF-UHFFFAOYSA-N
SMILES: CC1=CC2=C(C=C1)N=NN2
RETENTIONTIME: 
CCS: 127.3642796
IONMODE: Negative
INSTRUMENTTYPE: LC-ESI-ITFT
INSTRUMENT: 
COLLISIONENERGY: 35
Comment: registered in MassBank
Num Peaks: 3
103.0423	133
104.0502	164
132.0567	1000

NAME: Sotalol; LC-ESI-ITFT; MS2; CE
PRECURSORMZ: 271.112187
PRECURSORTYPE: [M-H]-
FORMULA: C12H20N2O3S
Ontology: Sulfanilides
INCHIKEY: ZBMZVLHSJCTVON-UHFFFAOYNA-N
SMILES: CC(C)NCC(O)C1=CC=C(NS(C)(=O)=O)C=C1
RETENTIONTIME: 
CCS: 162.8751222
IONMODE: Negative
INSTRUMENTTYPE: LC-ESI-ITFT
INSTRUMENT: 
COLLISIONENERGY: 35
Comment: registered in MassBank
Num Peaks: 3
174.1162	18
210.0464	82
253.1013	1000

NAME: Sotalol; LC-ESI-ITFT; MS2; CE
PRECURSORMZ: 271.112187
PRECURSORTYPE: [M-H]-
FORMULA: C12H20N2O3S
Ontology: Sulfanilides
INCHIKEY: ZBMZVLHSJCTVON-UHFFFAOYNA-N
SMILES: CC(C)NCC(O)C1=CC=C(NS(C)(=O)=O)C=C1
RETENTIONTIME: 
CCS: 162.8751222
IONMODE: Negative
INSTRUMENTTYPE: LC-ESI-ITFT
INSTRUMENT: 
COLLISIONENERGY: 30
Comment: registered in MassBank
Num Peaks: 2
253.1028	286
271.11169	1000

NAME: Sotalol; LC-ESI-ITFT; MS2; CE
PRECURSORMZ: 271.112187
PRECURSORTYPE: [M-H]-
FORMULA: C12H20N2O3S
Ontology: Sulfanilides
INCHIKEY: ZBMZVLHSJCTVON-UHFFFAOYNA-N
SMILES: CC(C)NCC(O)C1=CC=C(NS(C)(=O)=O)C=C1
RETENTIONTIME: 
CCS: 162.8751222
IONMODE: Negative
INSTRUMENTTYPE: LC-ESI-ITFT
INSTRUMENT: 
COLLISIONENERGY: 45
Comment: registered in MassBank
Num Peaks: 2
174.11659	617
253.10091	1000

NAME: Sotalol; LC-ESI-ITFT; MS2; CE
PRECURSORMZ: 271.112187
PRECURSORTYPE: [M-H]-
FORMULA: C12H20N2O3S
Ontology: Sulfanilides
INCHIKEY: ZBMZVLHSJCTVON-UHFFFAOYNA-N
SMILES: CC(C)NCC(O)C1=CC=C(NS(C)(=O)=O)C=C1
RETENTIONTIME: 
CCS: 162.8751222
IONMODE: Negative
INSTRUMENTTYPE: LC-ESI-ITFT
INSTRUMENT: 
COLLISIONENERGY: 45
Comment: registered in MassBank
Num Peaks: 1
174.1156	1000

NAME: Sotalol; LC-ESI-ITFT; MS2; CE
PRECURSORMZ: 271.112187
PRECURSORTYPE: [M-H]-
FORMULA: C12H20N2O3S
Ontology: Sulfanilides
INCHIKEY: ZBMZVLHSJCTVON-UHFFFAOYNA-N
SMILES: CC(C)NCC(O)C1=CC=C(NS(C)(=O)=O)C=C1
RETENTIONTIME: 
CCS: 162.8751222
IONMODE: Negative
INSTRUMENTTYPE: LC-ESI-ITFT
INSTRUMENT: 
COLLISIONENERGY: 35
Comment: registered in MassBank
Num Peaks: 3
174.11591	28
210.0468	67
253.1015	1000

NAME: Sulfadimethoxine; LC-ESI-ITFT; MS2; CE
PRECURSORMZ: 309.066299
PRECURSORTYPE: [M-H]-
FORMULA: C12H14N4O4S
Ontology: Aminobenzenesulfonamides
INCHIKEY: ZZORFUFYDOWNEF-UHFFFAOYSA-N
SMILES: COC1=NC(OC)=NC(NS(=O)(=O)C2=CC=C(N)C=C2)=C1
RETENTIONTIME: 
CCS: 188.2913003
IONMODE: Negative
INSTRUMENTTYPE: LC-ESI-ITFT
INSTRUMENT: 
COLLISIONENERGY: 35
Comment: registered in MassBank
Num Peaks: 35
107.0375	15
122.0361	32
124.0153	121
130.0536	29
131.0377	134
131.06149	102
132.0567	44
139.0385	6
144.0564	12
154.06219	78
155.00481	76
156.0126	38
156.0567	154
161.0721	99
171.0235	60
172.052	19
173.05949	97
174.06731	200
177.0668	81
185.039	72
187.0753	17
188.0464	74
195.02341	1000
196.0183	61
198.05479	28
199.0625	66
200.07001	44
213.07809	35
215.05721	283
220.0186	26
229.0728	315
230.0807	860
245.1041	123
253.02879	40
277.04001	157

NAME: Sulfadimethoxine; LC-ESI-ITFT; MS2; CE
PRECURSORMZ: 309.066299
PRECURSORTYPE: [M-H]-
FORMULA: C12H14N4O4S
Ontology: Aminobenzenesulfonamides
INCHIKEY: ZZORFUFYDOWNEF-UHFFFAOYSA-N
SMILES: COC1=NC(OC)=NC(NS(=O)(=O)C2=CC=C(N)C=C2)=C1
RETENTIONTIME: 
CCS: 188.2913003
IONMODE: Negative
INSTRUMENTTYPE: LC-ESI-ITFT
INSTRUMENT: 
COLLISIONENERGY: 30
Comment: registered in MassBank
Num Peaks: 3
195.02341	5
230.0804	14
309.06601	1000

NAME: Sulfadimethoxine; LC-ESI-ITFT; MS2; CE
PRECURSORMZ: 309.066299
PRECURSORTYPE: [M-H]-
FORMULA: C12H14N4O4S
Ontology: Aminobenzenesulfonamides
INCHIKEY: ZZORFUFYDOWNEF-UHFFFAOYSA-N
SMILES: COC1=NC(OC)=NC(NS(=O)(=O)C2=CC=C(N)C=C2)=C1
RETENTIONTIME: 
CCS: 188.2913003
IONMODE: Negative
INSTRUMENTTYPE: LC-ESI-ITFT
INSTRUMENT: 
COLLISIONENERGY: 45
Comment: registered in MassBank
Num Peaks: 19
65.0146	36
65.9985	26
66.0098	230
122.0363	62
124.0148	26
130.0535	23
131.04871	21
131.0618	35
144.0574	20
154.0616	75
171.0233	54
173.0596	19
174.06731	71
195.02299	78
199.0619	59
215.05721	118
229.0722	80
230.0807	124
309.06619	1000

NAME: Sulfadimethoxine; LC-ESI-ITFT; MS2; CE
PRECURSORMZ: 309.066299
PRECURSORTYPE: [M-H]-
FORMULA: C12H14N4O4S
Ontology: Aminobenzenesulfonamides
INCHIKEY: ZZORFUFYDOWNEF-UHFFFAOYSA-N
SMILES: COC1=NC(OC)=NC(NS(=O)(=O)C2=CC=C(N)C=C2)=C1
RETENTIONTIME: 
CCS: 188.2913003
IONMODE: Negative
INSTRUMENTTYPE: LC-ESI-ITFT
INSTRUMENT: 
COLLISIONENERGY: 60
Comment: registered in MassBank
Num Peaks: 17
65.0146	173
65.9985	123
66.0098	1000
92.0253	71
122.0358	309
130.05321	41
131.06149	162
144.0565	166
154.062	276
171.0235	132
174.0677	126
188.04691	58
195.02271	98
199.062	93
215.05769	105
229.0732	137
309.0668	87

NAME: Sulfadimethoxine; LC-ESI-ITFT; MS2; CE
PRECURSORMZ: 309.066299
PRECURSORTYPE: [M-H]-
FORMULA: C12H14N4O4S
Ontology: Aminobenzenesulfonamides
INCHIKEY: ZZORFUFYDOWNEF-UHFFFAOYSA-N
SMILES: COC1=NC(OC)=NC(NS(=O)(=O)C2=CC=C(N)C=C2)=C1
RETENTIONTIME: 
CCS: 188.2913003
IONMODE: Negative
INSTRUMENTTYPE: LC-ESI-ITFT
INSTRUMENT: 
COLLISIONENERGY: 75
Comment: registered in MassBank
Num Peaks: 11
65.0147	268
65.9987	174
66.0098	1000
92.0256	174
122.036	497
131.0619	200
132.0569	71
139.0385	274
144.0564	86
154.0621	188
172.0524	55

NAME: Sulfadimethoxine; LC-ESI-ITFT; MS2; CE
PRECURSORMZ: 309.066299
PRECURSORTYPE: [M-H]-
FORMULA: C12H14N4O4S
Ontology: Aminobenzenesulfonamides
INCHIKEY: ZZORFUFYDOWNEF-UHFFFAOYSA-N
SMILES: COC1=NC(OC)=NC(NS(=O)(=O)C2=CC=C(N)C=C2)=C1
RETENTIONTIME: 
CCS: 188.2913003
IONMODE: Negative
INSTRUMENTTYPE: LC-ESI-ITFT
INSTRUMENT: 
COLLISIONENERGY: 90
Comment: registered in MassBank
Num Peaks: 8
65.0144	318
65.9985	412
66.0099	1000
92.0255	244
122.0359	646
131.0616	126
139.0386	478
171.02361	87

NAME: Sulfadimethoxine; LC-ESI-ITFT; MS2; CE
PRECURSORMZ: 309.066299
PRECURSORTYPE: [M-H]-
FORMULA: C12H14N4O4S
Ontology: Aminobenzenesulfonamides
INCHIKEY: ZZORFUFYDOWNEF-UHFFFAOYSA-N
SMILES: COC1=NC(OC)=NC(NS(=O)(=O)C2=CC=C(N)C=C2)=C1
RETENTIONTIME: 
CCS: 188.2913003
IONMODE: Negative
INSTRUMENTTYPE: LC-ESI-ITFT
INSTRUMENT: 
COLLISIONENERGY: 30
Comment: registered in MassBank
Num Peaks: 2
230.0804	6
309.06601	1000

NAME: Sulfadimethoxine; LC-ESI-ITFT; MS2; CE
PRECURSORMZ: 309.066299
PRECURSORTYPE: [M-H]-
FORMULA: C12H14N4O4S
Ontology: Aminobenzenesulfonamides
INCHIKEY: ZZORFUFYDOWNEF-UHFFFAOYSA-N
SMILES: COC1=NC(OC)=NC(NS(=O)(=O)C2=CC=C(N)C=C2)=C1
RETENTIONTIME: 
CCS: 188.2913003
IONMODE: Negative
INSTRUMENTTYPE: LC-ESI-ITFT
INSTRUMENT: 
COLLISIONENERGY: 45
Comment: registered in MassBank
Num Peaks: 14
65.0145	42
66.0098	215
122.0361	36
131.0616	27
144.05701	30
154.06219	95
171.0237	40
174.0675	81
195.02361	101
199.0621	52
215.0567	70
229.07339	70
230.08099	134
309.0661	1000

NAME: Sulfadimethoxine; LC-ESI-ITFT; MS2; CE
PRECURSORMZ: 309.066299
PRECURSORTYPE: [M-H]-
FORMULA: C12H14N4O4S
Ontology: Aminobenzenesulfonamides
INCHIKEY: ZZORFUFYDOWNEF-UHFFFAOYSA-N
SMILES: COC1=NC(OC)=NC(NS(=O)(=O)C2=CC=C(N)C=C2)=C1
RETENTIONTIME: 
CCS: 188.2913003
IONMODE: Negative
INSTRUMENTTYPE: LC-ESI-ITFT
INSTRUMENT: 
COLLISIONENERGY: 60
Comment: registered in MassBank
Num Peaks: 11
65.0146	110
65.9984	153
66.0098	1000
122.0359	419
131.0618	244
139.0385	116
144.0563	175
154.062	373
171.0233	218
174.06731	154
229.07291	123

NAME: Sulfadimethoxine; LC-ESI-ITFT; MS2; CE
PRECURSORMZ: 309.066299
PRECURSORTYPE: [M-H]-
FORMULA: C12H14N4O4S
Ontology: Aminobenzenesulfonamides
INCHIKEY: ZZORFUFYDOWNEF-UHFFFAOYSA-N
SMILES: COC1=NC(OC)=NC(NS(=O)(=O)C2=CC=C(N)C=C2)=C1
RETENTIONTIME: 
CCS: 188.2913003
IONMODE: Negative
INSTRUMENTTYPE: LC-ESI-ITFT
INSTRUMENT: 
COLLISIONENERGY: 75
Comment: registered in MassBank
Num Peaks: 7
65.0147	342
65.9985	305
66.0098	1000
122.0359	848
131.0611	197
139.0385	478
154.062	251

NAME: Sulfadimethoxine; LC-ESI-ITFT; MS2; CE
PRECURSORMZ: 309.066299
PRECURSORTYPE: [M-H]-
FORMULA: C12H14N4O4S
Ontology: Aminobenzenesulfonamides
INCHIKEY: ZZORFUFYDOWNEF-UHFFFAOYSA-N
SMILES: COC1=NC(OC)=NC(NS(=O)(=O)C2=CC=C(N)C=C2)=C1
RETENTIONTIME: 
CCS: 188.2913003
IONMODE: Negative
INSTRUMENTTYPE: LC-ESI-ITFT
INSTRUMENT: 
COLLISIONENERGY: 90
Comment: registered in MassBank
Num Peaks: 3
66.0098	1000
131.0611	245
139.03841	268

NAME: Sulfadimethoxine; LC-ESI-ITFT; MS2; CE
PRECURSORMZ: 309.066299
PRECURSORTYPE: [M-H]-
FORMULA: C12H14N4O4S
Ontology: Aminobenzenesulfonamides
INCHIKEY: ZZORFUFYDOWNEF-UHFFFAOYSA-N
SMILES: COC1=NC(OC)=NC(NS(=O)(=O)C2=CC=C(N)C=C2)=C1
RETENTIONTIME: 
CCS: 188.2913003
IONMODE: Negative
INSTRUMENTTYPE: LC-ESI-ITFT
INSTRUMENT: 
COLLISIONENERGY: 35
Comment: registered in MassBank
Num Peaks: 33
107.038	15
122.0362	10
124.0149	52
130.0537	12
131.0374	101
131.04871	30
131.06149	50
132.0567	25
154.0619	49
155.0045	50
156.0123	26
156.0567	110
161.07179	53
171.0231	51
173.05949	56
174.067	182
177.06689	64
185.0386	39
187.07561	11
188.0464	71
195.02319	1000
196.01849	23
198.05389	23
199.0619	34
200.0704	21
213.0784	27
215.05721	228
220.01849	13
229.0728	213
230.08051	768
245.1042	101
253.03	28
277.0394	116

NAME: Sulfathiazole; LC-ESI-ITFT; MS2; CE
PRECURSORMZ: 254.006341
PRECURSORTYPE: [M-H]-
FORMULA: C9H9N3O2S2
Ontology: Aminobenzenesulfonamides
INCHIKEY: JNMRHUJNCSQMMB-UHFFFAOYSA-N
SMILES: NC1=CC=C(C=C1)S(=O)(=O)NC1=NC=CS1
RETENTIONTIME: 
CCS: 150.6974104
IONMODE: Negative
INSTRUMENTTYPE: LC-ESI-ITFT
INSTRUMENT: 
COLLISIONENERGY: 35
Comment: registered in MassBank
Num Peaks: 3
97.9944	113
156.0127	1000
190.0444	57

NAME: Sulfathiazole; LC-ESI-ITFT; MS2; CE
PRECURSORMZ: 254.006341
PRECURSORTYPE: [M-H]-
FORMULA: C9H9N3O2S2
Ontology: Aminobenzenesulfonamides
INCHIKEY: JNMRHUJNCSQMMB-UHFFFAOYSA-N
SMILES: NC1=CC=C(C=C1)S(=O)(=O)NC1=NC=CS1
RETENTIONTIME: 
CCS: 150.6974104
IONMODE: Negative
INSTRUMENTTYPE: LC-ESI-ITFT
INSTRUMENT: 
COLLISIONENERGY: 15
Comment: registered in MassBank
Num Peaks: 2
156.0123	48
254.0062	1000

NAME: Sulfathiazole; LC-ESI-ITFT; MS2; CE
PRECURSORMZ: 254.006341
PRECURSORTYPE: [M-H]-
FORMULA: C9H9N3O2S2
Ontology: Aminobenzenesulfonamides
INCHIKEY: JNMRHUJNCSQMMB-UHFFFAOYSA-N
SMILES: NC1=CC=C(C=C1)S(=O)(=O)NC1=NC=CS1
RETENTIONTIME: 
CCS: 150.6974104
IONMODE: Negative
INSTRUMENTTYPE: LC-ESI-ITFT
INSTRUMENT: 
COLLISIONENERGY: 30
Comment: registered in MassBank
Num Peaks: 3
97.9943	287
156.0125	1000
254.00591	552

NAME: Sulfathiazole; LC-ESI-ITFT; MS2; CE
PRECURSORMZ: 254.006341
PRECURSORTYPE: [M-H]-
FORMULA: C9H9N3O2S2
Ontology: Aminobenzenesulfonamides
INCHIKEY: JNMRHUJNCSQMMB-UHFFFAOYSA-N
SMILES: NC1=CC=C(C=C1)S(=O)(=O)NC1=NC=CS1
RETENTIONTIME: 
CCS: 150.6974104
IONMODE: Negative
INSTRUMENTTYPE: LC-ESI-ITFT
INSTRUMENT: 
COLLISIONENERGY: 45
Comment: registered in MassBank
Num Peaks: 5
63.9624	41
65.0146	20
92.0504	42
97.9943	463
156.0126	1000

NAME: Sulfathiazole; LC-ESI-ITFT; MS2; CE
PRECURSORMZ: 254.006341
PRECURSORTYPE: [M-H]-
FORMULA: C9H9N3O2S2
Ontology: Aminobenzenesulfonamides
INCHIKEY: JNMRHUJNCSQMMB-UHFFFAOYSA-N
SMILES: NC1=CC=C(C=C1)S(=O)(=O)NC1=NC=CS1
RETENTIONTIME: 
CCS: 150.6974104
IONMODE: Negative
INSTRUMENTTYPE: LC-ESI-ITFT
INSTRUMENT: 
COLLISIONENERGY: 60
Comment: registered in MassBank
Num Peaks: 5
63.9624	205
65.0145	70
92.0505	245
97.9945	995
156.0127	1000

NAME: Sulfathiazole; LC-ESI-ITFT; MS2; CE
PRECURSORMZ: 254.006341
PRECURSORTYPE: [M-H]-
FORMULA: C9H9N3O2S2
Ontology: Aminobenzenesulfonamides
INCHIKEY: JNMRHUJNCSQMMB-UHFFFAOYSA-N
SMILES: NC1=CC=C(C=C1)S(=O)(=O)NC1=NC=CS1
RETENTIONTIME: 
CCS: 150.6974104
IONMODE: Negative
INSTRUMENTTYPE: LC-ESI-ITFT
INSTRUMENT: 
COLLISIONENERGY: 75
Comment: registered in MassBank
Num Peaks: 5
63.9625	370
65.0145	184
92.0503	331
97.9944	1000
156.01241	316

NAME: Sulfathiazole; LC-ESI-ITFT; MS2; CE
PRECURSORMZ: 254.006341
PRECURSORTYPE: [M-H]-
FORMULA: C9H9N3O2S2
Ontology: Aminobenzenesulfonamides
INCHIKEY: JNMRHUJNCSQMMB-UHFFFAOYSA-N
SMILES: NC1=CC=C(C=C1)S(=O)(=O)NC1=NC=CS1
RETENTIONTIME: 
CCS: 150.6974104
IONMODE: Negative
INSTRUMENTTYPE: LC-ESI-ITFT
INSTRUMENT: 
COLLISIONENERGY: 90
Comment: registered in MassBank
Num Peaks: 4
63.9624	654
65.0146	443
92.0506	305
97.9944	1000

NAME: Sulfathiazole; LC-ESI-ITFT; MS2; CE
PRECURSORMZ: 254.006341
PRECURSORTYPE: [M-H]-
FORMULA: C9H9N3O2S2
Ontology: Aminobenzenesulfonamides
INCHIKEY: JNMRHUJNCSQMMB-UHFFFAOYSA-N
SMILES: NC1=CC=C(C=C1)S(=O)(=O)NC1=NC=CS1
RETENTIONTIME: 
CCS: 150.6974104
IONMODE: Negative
INSTRUMENTTYPE: LC-ESI-ITFT
INSTRUMENT: 
COLLISIONENERGY: 15
Comment: registered in MassBank
Num Peaks: 2
156.0125	45
254.0061	1000

NAME: Sulfathiazole; LC-ESI-ITFT; MS2; CE
PRECURSORMZ: 254.006341
PRECURSORTYPE: [M-H]-
FORMULA: C9H9N3O2S2
Ontology: Aminobenzenesulfonamides
INCHIKEY: JNMRHUJNCSQMMB-UHFFFAOYSA-N
SMILES: NC1=CC=C(C=C1)S(=O)(=O)NC1=NC=CS1
RETENTIONTIME: 
CCS: 150.6974104
IONMODE: Negative
INSTRUMENTTYPE: LC-ESI-ITFT
INSTRUMENT: 
COLLISIONENERGY: 30
Comment: registered in MassBank
Num Peaks: 3
97.9941	249
156.0125	1000
254.0062	585

NAME: Sulfathiazole; LC-ESI-ITFT; MS2; CE
PRECURSORMZ: 254.006341
PRECURSORTYPE: [M-H]-
FORMULA: C9H9N3O2S2
Ontology: Aminobenzenesulfonamides
INCHIKEY: JNMRHUJNCSQMMB-UHFFFAOYSA-N
SMILES: NC1=CC=C(C=C1)S(=O)(=O)NC1=NC=CS1
RETENTIONTIME: 
CCS: 150.6974104
IONMODE: Negative
INSTRUMENTTYPE: LC-ESI-ITFT
INSTRUMENT: 
COLLISIONENERGY: 45
Comment: registered in MassBank
Num Peaks: 3
63.9623	30
97.9942	381
156.0125	1000

NAME: Sulfathiazole; LC-ESI-ITFT; MS2; CE
PRECURSORMZ: 254.006341
PRECURSORTYPE: [M-H]-
FORMULA: C9H9N3O2S2
Ontology: Aminobenzenesulfonamides
INCHIKEY: JNMRHUJNCSQMMB-UHFFFAOYSA-N
SMILES: NC1=CC=C(C=C1)S(=O)(=O)NC1=NC=CS1
RETENTIONTIME: 
CCS: 150.6974104
IONMODE: Negative
INSTRUMENTTYPE: LC-ESI-ITFT
INSTRUMENT: 
COLLISIONENERGY: 60
Comment: registered in MassBank
Num Peaks: 4
63.9625	165
92.0503	161
97.9942	722
156.0126	1000

NAME: Sulfathiazole; LC-ESI-ITFT; MS2; CE
PRECURSORMZ: 254.006341
PRECURSORTYPE: [M-H]-
FORMULA: C9H9N3O2S2
Ontology: Aminobenzenesulfonamides
INCHIKEY: JNMRHUJNCSQMMB-UHFFFAOYSA-N
SMILES: NC1=CC=C(C=C1)S(=O)(=O)NC1=NC=CS1
RETENTIONTIME: 
CCS: 150.6974104
IONMODE: Negative
INSTRUMENTTYPE: LC-ESI-ITFT
INSTRUMENT: 
COLLISIONENERGY: 75
Comment: registered in MassBank
Num Peaks: 5
63.9625	452
65.0143	147
92.0503	346
97.9941	1000
156.0126	358

NAME: Sulfathiazole; LC-ESI-ITFT; MS2; CE
PRECURSORMZ: 254.006341
PRECURSORTYPE: [M-H]-
FORMULA: C9H9N3O2S2
Ontology: Aminobenzenesulfonamides
INCHIKEY: JNMRHUJNCSQMMB-UHFFFAOYSA-N
SMILES: NC1=CC=C(C=C1)S(=O)(=O)NC1=NC=CS1
RETENTIONTIME: 
CCS: 150.6974104
IONMODE: Negative
INSTRUMENTTYPE: LC-ESI-ITFT
INSTRUMENT: 
COLLISIONENERGY: 90
Comment: registered in MassBank
Num Peaks: 3
63.9625	878
65.0145	354
97.9942	1000

NAME: Sulfathiazole; LC-ESI-ITFT; MS2; CE
PRECURSORMZ: 254.006341
PRECURSORTYPE: [M-H]-
FORMULA: C9H9N3O2S2
Ontology: Aminobenzenesulfonamides
INCHIKEY: JNMRHUJNCSQMMB-UHFFFAOYSA-N
SMILES: NC1=CC=C(C=C1)S(=O)(=O)NC1=NC=CS1
RETENTIONTIME: 
CCS: 150.6974104
IONMODE: Negative
INSTRUMENTTYPE: LC-ESI-ITFT
INSTRUMENT: 
COLLISIONENERGY: 35
Comment: registered in MassBank
Num Peaks: 3
97.9943	78
156.0127	1000
190.0443	30

NAME: Ranitidine; LC-ESI-ITFT; MS2; CE
PRECURSORMZ: 313.133985
PRECURSORTYPE: [M-H]-
FORMULA: C13H22N4O3S
Ontology: Aralkylamines
INCHIKEY: VMXUWOKSQNHOCA-UKTHLTGXSA-N
SMILES: CN\C(NCCSCC1=CC=C(CN(C)C)O1)=C/N(=O)=O
RETENTIONTIME: 
CCS: 189.0429586
IONMODE: Negative
INSTRUMENTTYPE: LC-ESI-ITFT
INSTRUMENT: 
COLLISIONENERGY: 35
Comment: registered in MassBank
Num Peaks: 7
111.9988	10
116.0466	41
142.0623	1000
170.06461	480
213.1071	9
253.1308	12
279.14661	7

NAME: Ranitidine; LC-ESI-ITFT; MS2; CE
PRECURSORMZ: 313.133985
PRECURSORTYPE: [M-H]-
FORMULA: C13H22N4O3S
Ontology: Aralkylamines
INCHIKEY: VMXUWOKSQNHOCA-UKTHLTGXSA-N
SMILES: CN\C(NCCSCC1=CC=C(CN(C)C)O1)=C/N(=O)=O
RETENTIONTIME: 
CCS: 189.0429586
IONMODE: Negative
INSTRUMENTTYPE: LC-ESI-ITFT
INSTRUMENT: 
COLLISIONENERGY: 15
Comment: registered in MassBank
Num Peaks: 5
60.009	19
116.0467	41
142.0623	397
170.06461	277
313.13379	1000

NAME: Ranitidine; LC-ESI-ITFT; MS2; CE
PRECURSORMZ: 313.133985
PRECURSORTYPE: [M-H]-
FORMULA: C13H22N4O3S
Ontology: Aralkylamines
INCHIKEY: VMXUWOKSQNHOCA-UKTHLTGXSA-N
SMILES: CN\C(NCCSCC1=CC=C(CN(C)C)O1)=C/N(=O)=O
RETENTIONTIME: 
CCS: 189.0429586
IONMODE: Negative
INSTRUMENTTYPE: LC-ESI-ITFT
INSTRUMENT: 
COLLISIONENERGY: 30
Comment: registered in MassBank
Num Peaks: 5
60.0092	55
111.9985	54
116.0465	202
142.06239	542
170.06461	1000

NAME: Ranitidine; LC-ESI-ITFT; MS2; CE
PRECURSORMZ: 313.133985
PRECURSORTYPE: [M-H]-
FORMULA: C13H22N4O3S
Ontology: Aralkylamines
INCHIKEY: VMXUWOKSQNHOCA-UKTHLTGXSA-N
SMILES: CN\C(NCCSCC1=CC=C(CN(C)C)O1)=C/N(=O)=O
RETENTIONTIME: 
CCS: 189.0429586
IONMODE: Negative
INSTRUMENTTYPE: LC-ESI-ITFT
INSTRUMENT: 
COLLISIONENERGY: 45
Comment: registered in MassBank
Num Peaks: 5
60.0092	197
111.9991	752
116.0467	631
142.06219	565
170.06441	1000

NAME: Ranitidine; LC-ESI-ITFT; MS2; CE
PRECURSORMZ: 313.133985
PRECURSORTYPE: [M-H]-
FORMULA: C13H22N4O3S
Ontology: Aralkylamines
INCHIKEY: VMXUWOKSQNHOCA-UKTHLTGXSA-N
SMILES: CN\C(NCCSCC1=CC=C(CN(C)C)O1)=C/N(=O)=O
RETENTIONTIME: 
CCS: 189.0429586
IONMODE: Negative
INSTRUMENTTYPE: LC-ESI-ITFT
INSTRUMENT: 
COLLISIONENERGY: 60
Comment: registered in MassBank
Num Peaks: 4
60.0092	177
111.9988	1000
116.0466	550
170.064	146

NAME: Ranitidine; LC-ESI-ITFT; MS2; CE
PRECURSORMZ: 313.133985
PRECURSORTYPE: [M-H]-
FORMULA: C13H22N4O3S
Ontology: Aralkylamines
INCHIKEY: VMXUWOKSQNHOCA-UKTHLTGXSA-N
SMILES: CN\C(NCCSCC1=CC=C(CN(C)C)O1)=C/N(=O)=O
RETENTIONTIME: 
CCS: 189.0429586
IONMODE: Negative
INSTRUMENTTYPE: LC-ESI-ITFT
INSTRUMENT: 
COLLISIONENERGY: 75
Comment: registered in MassBank
Num Peaks: 2
111.999	1000
116.0471	435

NAME: Ranitidine; LC-ESI-ITFT; MS2; CE
PRECURSORMZ: 313.133985
PRECURSORTYPE: [M-H]-
FORMULA: C13H22N4O3S
Ontology: Aralkylamines
INCHIKEY: VMXUWOKSQNHOCA-UKTHLTGXSA-N
SMILES: CN\C(NCCSCC1=CC=C(CN(C)C)O1)=C/N(=O)=O
RETENTIONTIME: 
CCS: 189.0429586
IONMODE: Negative
INSTRUMENTTYPE: LC-ESI-ITFT
INSTRUMENT: 
COLLISIONENERGY: 90
Comment: registered in MassBank
Num Peaks: 1
111.9987	1000

NAME: Ranitidine; LC-ESI-ITFT; MS2; CE
PRECURSORMZ: 313.133985
PRECURSORTYPE: [M-H]-
FORMULA: C13H22N4O3S
Ontology: Aralkylamines
INCHIKEY: VMXUWOKSQNHOCA-UKTHLTGXSA-N
SMILES: CN\C(NCCSCC1=CC=C(CN(C)C)O1)=C/N(=O)=O
RETENTIONTIME: 
CCS: 189.0429586
IONMODE: Negative
INSTRUMENTTYPE: LC-ESI-ITFT
INSTRUMENT: 
COLLISIONENERGY: 15
Comment: registered in MassBank
Num Peaks: 4
116.0466	19
142.06219	355
170.0645	250
313.1337	1000

NAME: Ranitidine; LC-ESI-ITFT; MS2; CE
PRECURSORMZ: 313.133985
PRECURSORTYPE: [M-H]-
FORMULA: C13H22N4O3S
Ontology: Aralkylamines
INCHIKEY: VMXUWOKSQNHOCA-UKTHLTGXSA-N
SMILES: CN\C(NCCSCC1=CC=C(CN(C)C)O1)=C/N(=O)=O
RETENTIONTIME: 
CCS: 189.0429586
IONMODE: Negative
INSTRUMENTTYPE: LC-ESI-ITFT
INSTRUMENT: 
COLLISIONENERGY: 30
Comment: registered in MassBank
Num Peaks: 4
60.0092	49
116.0466	229
142.06219	542
170.0645	1000

NAME: Ranitidine; LC-ESI-ITFT; MS2; CE
PRECURSORMZ: 313.133985
PRECURSORTYPE: [M-H]-
FORMULA: C13H22N4O3S
Ontology: Aralkylamines
INCHIKEY: VMXUWOKSQNHOCA-UKTHLTGXSA-N
SMILES: CN\C(NCCSCC1=CC=C(CN(C)C)O1)=C/N(=O)=O
RETENTIONTIME: 
CCS: 189.0429586
IONMODE: Negative
INSTRUMENTTYPE: LC-ESI-ITFT
INSTRUMENT: 
COLLISIONENERGY: 45
Comment: registered in MassBank
Num Peaks: 5
60.009	227
111.9987	772
116.0464	592
142.06219	707
170.0647	1000

NAME: Ranitidine; LC-ESI-ITFT; MS2; CE
PRECURSORMZ: 313.133985
PRECURSORTYPE: [M-H]-
FORMULA: C13H22N4O3S
Ontology: Aralkylamines
INCHIKEY: VMXUWOKSQNHOCA-UKTHLTGXSA-N
SMILES: CN\C(NCCSCC1=CC=C(CN(C)C)O1)=C/N(=O)=O
RETENTIONTIME: 
CCS: 189.0429586
IONMODE: Negative
INSTRUMENTTYPE: LC-ESI-ITFT
INSTRUMENT: 
COLLISIONENERGY: 60
Comment: registered in MassBank
Num Peaks: 3
60.0092	229
111.9986	1000
116.0465	229

NAME: Ranitidine; LC-ESI-ITFT; MS2; CE
PRECURSORMZ: 313.133985
PRECURSORTYPE: [M-H]-
FORMULA: C13H22N4O3S
Ontology: Aralkylamines
INCHIKEY: VMXUWOKSQNHOCA-UKTHLTGXSA-N
SMILES: CN\C(NCCSCC1=CC=C(CN(C)C)O1)=C/N(=O)=O
RETENTIONTIME: 
CCS: 189.0429586
IONMODE: Negative
INSTRUMENTTYPE: LC-ESI-ITFT
INSTRUMENT: 
COLLISIONENERGY: 75
Comment: registered in MassBank
Num Peaks: 1
111.9988	1000

NAME: Ranitidine; LC-ESI-ITFT; MS2; CE
PRECURSORMZ: 313.133985
PRECURSORTYPE: [M-H]-
FORMULA: C13H22N4O3S
Ontology: Aralkylamines
INCHIKEY: VMXUWOKSQNHOCA-UKTHLTGXSA-N
SMILES: CN\C(NCCSCC1=CC=C(CN(C)C)O1)=C/N(=O)=O
RETENTIONTIME: 
CCS: 189.0429586
IONMODE: Negative
INSTRUMENTTYPE: LC-ESI-ITFT
INSTRUMENT: 
COLLISIONENERGY: 35
Comment: registered in MassBank
Num Peaks: 5
116.0462	18
142.06219	1000
170.06441	459
213.1062	5
253.13071	11

NAME: Diclofenac; LC-ESI-ITFT; MS2; CE
PRECURSORMZ: 294.009408
PRECURSORTYPE: [M-H]-
FORMULA: C14H11Cl2NO2
Ontology: Dichlorobenzenes
INCHIKEY: DCOPUUMXTXDBNB-UHFFFAOYSA-N
SMILES: OC(=O)CC1=CC=CC=C1NC1=C(Cl)C=CC=C1Cl
RETENTIONTIME: 
CCS: 157.2742099
IONMODE: Negative
INSTRUMENTTYPE: LC-ESI-ITFT
INSTRUMENT: 
COLLISIONENERGY: 35
Comment: registered in MassBank
Num Peaks: 1
250.01981	1000

NAME: Diclofenac; LC-ESI-ITFT; MS2; CE
PRECURSORMZ: 294.009408
PRECURSORTYPE: [M-H]-
FORMULA: C14H11Cl2NO2
Ontology: Dichlorobenzenes
INCHIKEY: DCOPUUMXTXDBNB-UHFFFAOYSA-N
SMILES: OC(=O)CC1=CC=CC=C1NC1=C(Cl)C=CC=C1Cl
RETENTIONTIME: 
CCS: 157.2742099
IONMODE: Negative
INSTRUMENTTYPE: LC-ESI-ITFT
INSTRUMENT: 
COLLISIONENERGY: 15
Comment: registered in MassBank
Num Peaks: 2
250.01981	1000
294.0094	146

NAME: Diclofenac; LC-ESI-ITFT; MS2; CE
PRECURSORMZ: 294.009408
PRECURSORTYPE: [M-H]-
FORMULA: C14H11Cl2NO2
Ontology: Dichlorobenzenes
INCHIKEY: DCOPUUMXTXDBNB-UHFFFAOYSA-N
SMILES: OC(=O)CC1=CC=CC=C1NC1=C(Cl)C=CC=C1Cl
RETENTIONTIME: 
CCS: 157.2742099
IONMODE: Negative
INSTRUMENTTYPE: LC-ESI-ITFT
INSTRUMENT: 
COLLISIONENERGY: 30
Comment: registered in MassBank
Num Peaks: 2
214.043	45
250.0197	1000

NAME: Diclofenac; LC-ESI-ITFT; MS2; CE
PRECURSORMZ: 294.009408
PRECURSORTYPE: [M-H]-
FORMULA: C14H11Cl2NO2
Ontology: Dichlorobenzenes
INCHIKEY: DCOPUUMXTXDBNB-UHFFFAOYSA-N
SMILES: OC(=O)CC1=CC=CC=C1NC1=C(Cl)C=CC=C1Cl
RETENTIONTIME: 
CCS: 157.2742099
IONMODE: Negative
INSTRUMENTTYPE: LC-ESI-ITFT
INSTRUMENT: 
COLLISIONENERGY: 45
Comment: registered in MassBank
Num Peaks: 3
178.06689	121
214.04289	877
250.01981	1000

NAME: Diclofenac; LC-ESI-ITFT; MS2; CE
PRECURSORMZ: 294.009408
PRECURSORTYPE: [M-H]-
FORMULA: C14H11Cl2NO2
Ontology: Dichlorobenzenes
INCHIKEY: DCOPUUMXTXDBNB-UHFFFAOYSA-N
SMILES: OC(=O)CC1=CC=CC=C1NC1=C(Cl)C=CC=C1Cl
RETENTIONTIME: 
CCS: 157.2742099
IONMODE: Negative
INSTRUMENTTYPE: LC-ESI-ITFT
INSTRUMENT: 
COLLISIONENERGY: 60
Comment: registered in MassBank
Num Peaks: 2
178.0667	922
214.043	1000

NAME: Diclofenac; LC-ESI-ITFT; MS2; CE
PRECURSORMZ: 294.009408
PRECURSORTYPE: [M-H]-
FORMULA: C14H11Cl2NO2
Ontology: Dichlorobenzenes
INCHIKEY: DCOPUUMXTXDBNB-UHFFFAOYSA-N
SMILES: OC(=O)CC1=CC=CC=C1NC1=C(Cl)C=CC=C1Cl
RETENTIONTIME: 
CCS: 157.2742099
IONMODE: Negative
INSTRUMENTTYPE: LC-ESI-ITFT
INSTRUMENT: 
COLLISIONENERGY: 75
Comment: registered in MassBank
Num Peaks: 1
178.0666	1000

NAME: Diclofenac; LC-ESI-ITFT; MS2; CE
PRECURSORMZ: 294.009408
PRECURSORTYPE: [M-H]-
FORMULA: C14H11Cl2NO2
Ontology: Dichlorobenzenes
INCHIKEY: DCOPUUMXTXDBNB-UHFFFAOYSA-N
SMILES: OC(=O)CC1=CC=CC=C1NC1=C(Cl)C=CC=C1Cl
RETENTIONTIME: 
CCS: 157.2742099
IONMODE: Negative
INSTRUMENTTYPE: LC-ESI-ITFT
INSTRUMENT: 
COLLISIONENERGY: 15
Comment: registered in MassBank
Num Peaks: 2
250.0197	1000
294.00919	101

NAME: Diclofenac; LC-ESI-ITFT; MS2; CE
PRECURSORMZ: 294.009408
PRECURSORTYPE: [M-H]-
FORMULA: C14H11Cl2NO2
Ontology: Dichlorobenzenes
INCHIKEY: DCOPUUMXTXDBNB-UHFFFAOYSA-N
SMILES: OC(=O)CC1=CC=CC=C1NC1=C(Cl)C=CC=C1Cl
RETENTIONTIME: 
CCS: 157.2742099
IONMODE: Negative
INSTRUMENTTYPE: LC-ESI-ITFT
INSTRUMENT: 
COLLISIONENERGY: 30
Comment: registered in MassBank
Num Peaks: 2
214.04289	41
250.0197	1000

NAME: Diclofenac; LC-ESI-ITFT; MS2; CE
PRECURSORMZ: 294.009408
PRECURSORTYPE: [M-H]-
FORMULA: C14H11Cl2NO2
Ontology: Dichlorobenzenes
INCHIKEY: DCOPUUMXTXDBNB-UHFFFAOYSA-N
SMILES: OC(=O)CC1=CC=CC=C1NC1=C(Cl)C=CC=C1Cl
RETENTIONTIME: 
CCS: 157.2742099
IONMODE: Negative
INSTRUMENTTYPE: LC-ESI-ITFT
INSTRUMENT: 
COLLISIONENERGY: 45
Comment: registered in MassBank
Num Peaks: 3
178.0658	66
214.04311	741
250.0197	1000

NAME: Diclofenac; LC-ESI-ITFT; MS2; CE
PRECURSORMZ: 294.009408
PRECURSORTYPE: [M-H]-
FORMULA: C14H11Cl2NO2
Ontology: Dichlorobenzenes
INCHIKEY: DCOPUUMXTXDBNB-UHFFFAOYSA-N
SMILES: OC(=O)CC1=CC=CC=C1NC1=C(Cl)C=CC=C1Cl
RETENTIONTIME: 
CCS: 157.2742099
IONMODE: Negative
INSTRUMENTTYPE: LC-ESI-ITFT
INSTRUMENT: 
COLLISIONENERGY: 60
Comment: registered in MassBank
Num Peaks: 3
178.0659	498
214.043	1000
250.0192	531

NAME: Diclofenac; LC-ESI-ITFT; MS2; CE
PRECURSORMZ: 294.009408
PRECURSORTYPE: [M-H]-
FORMULA: C14H11Cl2NO2
Ontology: Dichlorobenzenes
INCHIKEY: DCOPUUMXTXDBNB-UHFFFAOYSA-N
SMILES: OC(=O)CC1=CC=CC=C1NC1=C(Cl)C=CC=C1Cl
RETENTIONTIME: 
CCS: 157.2742099
IONMODE: Negative
INSTRUMENTTYPE: LC-ESI-ITFT
INSTRUMENT: 
COLLISIONENERGY: 75
Comment: registered in MassBank
Num Peaks: 1
178.0661	1000

NAME: Diclofenac; LC-ESI-ITFT; MS2; CE
PRECURSORMZ: 294.009408
PRECURSORTYPE: [M-H]-
FORMULA: C14H11Cl2NO2
Ontology: Dichlorobenzenes
INCHIKEY: DCOPUUMXTXDBNB-UHFFFAOYSA-N
SMILES: OC(=O)CC1=CC=CC=C1NC1=C(Cl)C=CC=C1Cl
RETENTIONTIME: 
CCS: 157.2742099
IONMODE: Negative
INSTRUMENTTYPE: LC-ESI-ITFT
INSTRUMENT: 
COLLISIONENERGY: 90
Comment: registered in MassBank
Num Peaks: 2
178.0658	1000
250.02	653

NAME: Diclofenac; LC-ESI-ITFT; MS2; CE
PRECURSORMZ: 294.009408
PRECURSORTYPE: [M-H]-
FORMULA: C14H11Cl2NO2
Ontology: Dichlorobenzenes
INCHIKEY: DCOPUUMXTXDBNB-UHFFFAOYSA-N
SMILES: OC(=O)CC1=CC=CC=C1NC1=C(Cl)C=CC=C1Cl
RETENTIONTIME: 
CCS: 157.2742099
IONMODE: Negative
INSTRUMENTTYPE: LC-ESI-ITFT
INSTRUMENT: 
COLLISIONENERGY: 35
Comment: registered in MassBank
Num Peaks: 1
250.01981	1000

NAME: Naproxen; LC-ESI-ITFT; MS2; CE
PRECURSORMZ: 229.087018
PRECURSORTYPE: [M-H]-
FORMULA: C14H14O3
Ontology: Naphthalenes
INCHIKEY: CMWTZPSULFXXJA-UHFFFAOYNA-N
SMILES: COC1=CC=C2C=C(C=CC2=C1)C(C)C(O)=O
RETENTIONTIME: 
CCS: 156.0058608
IONMODE: Negative
INSTRUMENTTYPE: LC-ESI-ITFT
INSTRUMENT: 
COLLISIONENERGY: 35
Comment: registered in MassBank
Num Peaks: 1
185.0974	1000

NAME: Naproxen; LC-ESI-ITFT; MS2; CE
PRECURSORMZ: 229.087018
PRECURSORTYPE: [M-H]-
FORMULA: C14H14O3
Ontology: Naphthalenes
INCHIKEY: CMWTZPSULFXXJA-UHFFFAOYNA-N
SMILES: COC1=CC=C2C=C(C=CC2=C1)C(C)C(O)=O
RETENTIONTIME: 
CCS: 156.0058608
IONMODE: Negative
INSTRUMENTTYPE: LC-ESI-ITFT
INSTRUMENT: 
COLLISIONENERGY: 35
Comment: registered in MassBank
Num Peaks: 1
185.0963	1000

NAME: Ibuprofen; LC-ESI-ITFT; MS2; CE
PRECURSORMZ: 205.123403
PRECURSORTYPE: [M-H]-
FORMULA: C13H18O2
Ontology: Phenylpropanoic acids
INCHIKEY: HEFNNWSXXWATRW-JTQLQIEISA-N
SMILES: CC(C)CC1=CC=C(C=C1)[C@H](C)C(O)=O
RETENTIONTIME: 
CCS: 151.5552982
IONMODE: Negative
INSTRUMENTTYPE: LC-ESI-ITFT
INSTRUMENT: 
COLLISIONENERGY: 35
Comment: registered in MassBank
Num Peaks: 1
159.118	1000

NAME: Ibuprofen; LC-ESI-ITFT; MS2; CE
PRECURSORMZ: 205.123403
PRECURSORTYPE: [M-H]-
FORMULA: C13H18O2
Ontology: Phenylpropanoic acids
INCHIKEY: HEFNNWSXXWATRW-JTQLQIEISA-N
SMILES: CC(C)CC1=CC=C(C=C1)[C@H](C)C(O)=O
RETENTIONTIME: 
CCS: 151.5552982
IONMODE: Negative
INSTRUMENTTYPE: LC-ESI-ITFT
INSTRUMENT: 
COLLISIONENERGY: 15
Comment: registered in MassBank
Num Peaks: 1
159.1179	1000

NAME: Ibuprofen; LC-ESI-ITFT; MS2; CE
PRECURSORMZ: 205.123403
PRECURSORTYPE: [M-H]-
FORMULA: C13H18O2
Ontology: Phenylpropanoic acids
INCHIKEY: HEFNNWSXXWATRW-JTQLQIEISA-N
SMILES: CC(C)CC1=CC=C(C=C1)[C@H](C)C(O)=O
RETENTIONTIME: 
CCS: 151.5552982
IONMODE: Negative
INSTRUMENTTYPE: LC-ESI-ITFT
INSTRUMENT: 
COLLISIONENERGY: 15
Comment: registered in MassBank
Num Peaks: 1
159.118	1000

NAME: Ibuprofen; LC-ESI-ITFT; MS2; CE
PRECURSORMZ: 205.123403
PRECURSORTYPE: [M-H]-
FORMULA: C13H18O2
Ontology: Phenylpropanoic acids
INCHIKEY: HEFNNWSXXWATRW-JTQLQIEISA-N
SMILES: CC(C)CC1=CC=C(C=C1)[C@H](C)C(O)=O
RETENTIONTIME: 
CCS: 151.5552982
IONMODE: Negative
INSTRUMENTTYPE: LC-ESI-ITFT
INSTRUMENT: 
COLLISIONENERGY: 35
Comment: registered in MassBank
Num Peaks: 1
159.1181	1000

NAME: Clofibric acid; LC-ESI-ITFT; MS2; CE
PRECURSORMZ: 213.032395
PRECURSORTYPE: [M-H]-
FORMULA: C10H11ClO3
Ontology: Phenoxyacetic acid derivatives
INCHIKEY: TXCGAZHTZHNUAI-UHFFFAOYSA-N
SMILES: CC(C)(OC1=CC=C(Cl)C=C1)C(O)=O
RETENTIONTIME: 
CCS: 143.5654624
IONMODE: Negative
INSTRUMENTTYPE: LC-ESI-ITFT
INSTRUMENT: 
COLLISIONENERGY: 35
Comment: registered in MassBank
Num Peaks: 3
85.0297	284
126.9959	1000
213.04469	5

NAME: Clofibric acid; LC-ESI-ITFT; MS2; CE
PRECURSORMZ: 213.032395
PRECURSORTYPE: [M-H]-
FORMULA: C10H11ClO3
Ontology: Phenoxyacetic acid derivatives
INCHIKEY: TXCGAZHTZHNUAI-UHFFFAOYSA-N
SMILES: CC(C)(OC1=CC=C(Cl)C=C1)C(O)=O
RETENTIONTIME: 
CCS: 143.5654624
IONMODE: Negative
INSTRUMENTTYPE: LC-ESI-ITFT
INSTRUMENT: 
COLLISIONENERGY: 15
Comment: registered in MassBank
Num Peaks: 3
85.0296	188
126.9955	1000
213.03239	454

NAME: Clofibric acid; LC-ESI-ITFT; MS2; CE
PRECURSORMZ: 213.032395
PRECURSORTYPE: [M-H]-
FORMULA: C10H11ClO3
Ontology: Phenoxyacetic acid derivatives
INCHIKEY: TXCGAZHTZHNUAI-UHFFFAOYSA-N
SMILES: CC(C)(OC1=CC=C(Cl)C=C1)C(O)=O
RETENTIONTIME: 
CCS: 143.5654624
IONMODE: Negative
INSTRUMENTTYPE: LC-ESI-ITFT
INSTRUMENT: 
COLLISIONENERGY: 30
Comment: registered in MassBank
Num Peaks: 2
85.0297	63
126.9959	1000

NAME: Clofibric acid; LC-ESI-ITFT; MS2; CE
PRECURSORMZ: 213.032395
PRECURSORTYPE: [M-H]-
FORMULA: C10H11ClO3
Ontology: Phenoxyacetic acid derivatives
INCHIKEY: TXCGAZHTZHNUAI-UHFFFAOYSA-N
SMILES: CC(C)(OC1=CC=C(Cl)C=C1)C(O)=O
RETENTIONTIME: 
CCS: 143.5654624
IONMODE: Negative
INSTRUMENTTYPE: LC-ESI-ITFT
INSTRUMENT: 
COLLISIONENERGY: 45
Comment: registered in MassBank
Num Peaks: 3
85.0296	39
126.9955	1000
213.04359	21

NAME: Clofibric acid; LC-ESI-ITFT; MS2; CE
PRECURSORMZ: 213.032395
PRECURSORTYPE: [M-H]-
FORMULA: C10H11ClO3
Ontology: Phenoxyacetic acid derivatives
INCHIKEY: TXCGAZHTZHNUAI-UHFFFAOYSA-N
SMILES: CC(C)(OC1=CC=C(Cl)C=C1)C(O)=O
RETENTIONTIME: 
CCS: 143.5654624
IONMODE: Negative
INSTRUMENTTYPE: LC-ESI-ITFT
INSTRUMENT: 
COLLISIONENERGY: 60
Comment: registered in MassBank
Num Peaks: 2
85.0293	21
126.9957	1000

NAME: Clofibric acid; LC-ESI-ITFT; MS2; CE
PRECURSORMZ: 213.032395
PRECURSORTYPE: [M-H]-
FORMULA: C10H11ClO3
Ontology: Phenoxyacetic acid derivatives
INCHIKEY: TXCGAZHTZHNUAI-UHFFFAOYSA-N
SMILES: CC(C)(OC1=CC=C(Cl)C=C1)C(O)=O
RETENTIONTIME: 
CCS: 143.5654624
IONMODE: Negative
INSTRUMENTTYPE: LC-ESI-ITFT
INSTRUMENT: 
COLLISIONENERGY: 75
Comment: registered in MassBank
Num Peaks: 1
126.9957	1000

NAME: Clofibric acid; LC-ESI-ITFT; MS2; CE
PRECURSORMZ: 213.032395
PRECURSORTYPE: [M-H]-
FORMULA: C10H11ClO3
Ontology: Phenoxyacetic acid derivatives
INCHIKEY: TXCGAZHTZHNUAI-UHFFFAOYSA-N
SMILES: CC(C)(OC1=CC=C(Cl)C=C1)C(O)=O
RETENTIONTIME: 
CCS: 143.5654624
IONMODE: Negative
INSTRUMENTTYPE: LC-ESI-ITFT
INSTRUMENT: 
COLLISIONENERGY: 90
Comment: registered in MassBank
Num Peaks: 1
126.9955	1000

NAME: Clofibric acid; LC-ESI-ITFT; MS2; CE
PRECURSORMZ: 213.032395
PRECURSORTYPE: [M-H]-
FORMULA: C10H11ClO3
Ontology: Phenoxyacetic acid derivatives
INCHIKEY: TXCGAZHTZHNUAI-UHFFFAOYSA-N
SMILES: CC(C)(OC1=CC=C(Cl)C=C1)C(O)=O
RETENTIONTIME: 
CCS: 143.5654624
IONMODE: Negative
INSTRUMENTTYPE: LC-ESI-ITFT
INSTRUMENT: 
COLLISIONENERGY: 15
Comment: registered in MassBank
Num Peaks: 3
85.0295	173
126.9956	1000
213.032	482

NAME: Clofibric acid; LC-ESI-ITFT; MS2; CE
PRECURSORMZ: 213.032395
PRECURSORTYPE: [M-H]-
FORMULA: C10H11ClO3
Ontology: Phenoxyacetic acid derivatives
INCHIKEY: TXCGAZHTZHNUAI-UHFFFAOYSA-N
SMILES: CC(C)(OC1=CC=C(Cl)C=C1)C(O)=O
RETENTIONTIME: 
CCS: 143.5654624
IONMODE: Negative
INSTRUMENTTYPE: LC-ESI-ITFT
INSTRUMENT: 
COLLISIONENERGY: 30
Comment: registered in MassBank
Num Peaks: 2
85.0295	81
126.9957	1000

NAME: Clofibric acid; LC-ESI-ITFT; MS2; CE
PRECURSORMZ: 213.032395
PRECURSORTYPE: [M-H]-
FORMULA: C10H11ClO3
Ontology: Phenoxyacetic acid derivatives
INCHIKEY: TXCGAZHTZHNUAI-UHFFFAOYSA-N
SMILES: CC(C)(OC1=CC=C(Cl)C=C1)C(O)=O
RETENTIONTIME: 
CCS: 143.5654624
IONMODE: Negative
INSTRUMENTTYPE: LC-ESI-ITFT
INSTRUMENT: 
COLLISIONENERGY: 45
Comment: registered in MassBank
Num Peaks: 1
126.9959	1000

NAME: Clofibric acid; LC-ESI-ITFT; MS2; CE
PRECURSORMZ: 213.032395
PRECURSORTYPE: [M-H]-
FORMULA: C10H11ClO3
Ontology: Phenoxyacetic acid derivatives
INCHIKEY: TXCGAZHTZHNUAI-UHFFFAOYSA-N
SMILES: CC(C)(OC1=CC=C(Cl)C=C1)C(O)=O
RETENTIONTIME: 
CCS: 143.5654624
IONMODE: Negative
INSTRUMENTTYPE: LC-ESI-ITFT
INSTRUMENT: 
COLLISIONENERGY: 60
Comment: registered in MassBank
Num Peaks: 2
85.0296	27
126.9957	1000

NAME: Clofibric acid; LC-ESI-ITFT; MS2; CE
PRECURSORMZ: 213.032395
PRECURSORTYPE: [M-H]-
FORMULA: C10H11ClO3
Ontology: Phenoxyacetic acid derivatives
INCHIKEY: TXCGAZHTZHNUAI-UHFFFAOYSA-N
SMILES: CC(C)(OC1=CC=C(Cl)C=C1)C(O)=O
RETENTIONTIME: 
CCS: 143.5654624
IONMODE: Negative
INSTRUMENTTYPE: LC-ESI-ITFT
INSTRUMENT: 
COLLISIONENERGY: 75
Comment: registered in MassBank
Num Peaks: 1
126.9958	1000

NAME: Clofibric acid; LC-ESI-ITFT; MS2; CE
PRECURSORMZ: 213.032395
PRECURSORTYPE: [M-H]-
FORMULA: C10H11ClO3
Ontology: Phenoxyacetic acid derivatives
INCHIKEY: TXCGAZHTZHNUAI-UHFFFAOYSA-N
SMILES: CC(C)(OC1=CC=C(Cl)C=C1)C(O)=O
RETENTIONTIME: 
CCS: 143.5654624
IONMODE: Negative
INSTRUMENTTYPE: LC-ESI-ITFT
INSTRUMENT: 
COLLISIONENERGY: 90
Comment: registered in MassBank
Num Peaks: 1
126.9954	1000

NAME: Ketoprofen; LC-ESI-ITFT; MS2; CE
PRECURSORMZ: 253.087018
PRECURSORTYPE: [M-H]-
FORMULA: C16H14O3
Ontology: Benzophenones
INCHIKEY: DKYWVDODHFEZIM-UHFFFAOYNA-N
SMILES: CC(C(O)=O)C1=CC(=CC=C1)C(=O)C1=CC=CC=C1
RETENTIONTIME: 
CCS: 161.0190564
IONMODE: Negative
INSTRUMENTTYPE: LC-ESI-ITFT
INSTRUMENT: 
COLLISIONENERGY: 35
Comment: registered in MassBank
Num Peaks: 3
185.0609	7
197.0611	395
209.0974	1000

NAME: Ketoprofen; LC-ESI-ITFT; MS2; CE
PRECURSORMZ: 253.087018
PRECURSORTYPE: [M-H]-
FORMULA: C16H14O3
Ontology: Benzophenones
INCHIKEY: DKYWVDODHFEZIM-UHFFFAOYNA-N
SMILES: CC(C(O)=O)C1=CC(=CC=C1)C(=O)C1=CC=CC=C1
RETENTIONTIME: 
CCS: 161.0190564
IONMODE: Negative
INSTRUMENTTYPE: LC-ESI-ITFT
INSTRUMENT: 
COLLISIONENERGY: 15
Comment: registered in MassBank
Num Peaks: 7
169.06619	8
185.0609	14
197.061	1000
209.09711	11
213.0916	8
223.0766	8
241.0869	47

NAME: Ketoprofen; LC-ESI-ITFT; MS2; CE
PRECURSORMZ: 253.087018
PRECURSORTYPE: [M-H]-
FORMULA: C16H14O3
Ontology: Benzophenones
INCHIKEY: DKYWVDODHFEZIM-UHFFFAOYNA-N
SMILES: CC(C(O)=O)C1=CC(=CC=C1)C(=O)C1=CC=CC=C1
RETENTIONTIME: 
CCS: 161.0190564
IONMODE: Negative
INSTRUMENTTYPE: LC-ESI-ITFT
INSTRUMENT: 
COLLISIONENERGY: 30
Comment: registered in MassBank
Num Peaks: 1
197.0611	1000

NAME: Ketoprofen; LC-ESI-ITFT; MS2; CE
PRECURSORMZ: 253.087018
PRECURSORTYPE: [M-H]-
FORMULA: C16H14O3
Ontology: Benzophenones
INCHIKEY: DKYWVDODHFEZIM-UHFFFAOYNA-N
SMILES: CC(C(O)=O)C1=CC(=CC=C1)C(=O)C1=CC=CC=C1
RETENTIONTIME: 
CCS: 161.0190564
IONMODE: Negative
INSTRUMENTTYPE: LC-ESI-ITFT
INSTRUMENT: 
COLLISIONENERGY: 15
Comment: registered in MassBank
Num Peaks: 4
169.06599	11
185.061	18
197.0609	1000
241.08659	30

NAME: Ketoprofen; LC-ESI-ITFT; MS2; CE
PRECURSORMZ: 253.087018
PRECURSORTYPE: [M-H]-
FORMULA: C16H14O3
Ontology: Benzophenones
INCHIKEY: DKYWVDODHFEZIM-UHFFFAOYNA-N
SMILES: CC(C(O)=O)C1=CC(=CC=C1)C(=O)C1=CC=CC=C1
RETENTIONTIME: 
CCS: 161.0190564
IONMODE: Negative
INSTRUMENTTYPE: LC-ESI-ITFT
INSTRUMENT: 
COLLISIONENERGY: 30
Comment: registered in MassBank
Num Peaks: 1
197.0607	1000

NAME: Ketoprofen; LC-ESI-ITFT; MS2; CE
PRECURSORMZ: 253.087018
PRECURSORTYPE: [M-H]-
FORMULA: C16H14O3
Ontology: Benzophenones
INCHIKEY: DKYWVDODHFEZIM-UHFFFAOYNA-N
SMILES: CC(C(O)=O)C1=CC(=CC=C1)C(=O)C1=CC=CC=C1
RETENTIONTIME: 
CCS: 161.0190564
IONMODE: Negative
INSTRUMENTTYPE: LC-ESI-ITFT
INSTRUMENT: 
COLLISIONENERGY: 35
Comment: registered in MassBank
Num Peaks: 2
197.061	392
209.0974	1000

NAME: Indomethacin; LC-ESI-ITFT; MS2; CE
PRECURSORMZ: 356.069509
PRECURSORTYPE: [M-H]-
FORMULA: C19H16ClNO4
Ontology: Benzoylindoles
INCHIKEY: CGIGDMFJXJATDK-UHFFFAOYSA-N
SMILES: COC1=CC2=C(C=C1)N(C(=O)C1=CC=C(Cl)C=C1)C(C)=C2CC(O)=O
RETENTIONTIME: 
CCS: 181.3815352
IONMODE: Negative
INSTRUMENTTYPE: LC-ESI-ITFT
INSTRUMENT: 
COLLISIONENERGY: 35
Comment: registered in MassBank
Num Peaks: 1
312.0791	1000

NAME: Indomethacin; LC-ESI-ITFT; MS2; CE
PRECURSORMZ: 356.069509
PRECURSORTYPE: [M-H]-
FORMULA: C19H16ClNO4
Ontology: Benzoylindoles
INCHIKEY: CGIGDMFJXJATDK-UHFFFAOYSA-N
SMILES: COC1=CC2=C(C=C1)N(C(=O)C1=CC=C(Cl)C=C1)C(C)=C2CC(O)=O
RETENTIONTIME: 
CCS: 181.3815352
IONMODE: Negative
INSTRUMENTTYPE: LC-ESI-ITFT
INSTRUMENT: 
COLLISIONENERGY: 15
Comment: registered in MassBank
Num Peaks: 2
270.06799	144
312.08011	1000

NAME: Indomethacin; LC-ESI-ITFT; MS2; CE
PRECURSORMZ: 356.069509
PRECURSORTYPE: [M-H]-
FORMULA: C19H16ClNO4
Ontology: Benzoylindoles
INCHIKEY: CGIGDMFJXJATDK-UHFFFAOYSA-N
SMILES: COC1=CC2=C(C=C1)N(C(=O)C1=CC=C(Cl)C=C1)C(C)=C2CC(O)=O
RETENTIONTIME: 
CCS: 181.3815352
IONMODE: Negative
INSTRUMENTTYPE: LC-ESI-ITFT
INSTRUMENT: 
COLLISIONENERGY: 30
Comment: registered in MassBank
Num Peaks: 2
297.05649	1000
312.0788	353

NAME: Indomethacin; LC-ESI-ITFT; MS2; CE
PRECURSORMZ: 356.069509
PRECURSORTYPE: [M-H]-
FORMULA: C19H16ClNO4
Ontology: Benzoylindoles
INCHIKEY: CGIGDMFJXJATDK-UHFFFAOYSA-N
SMILES: COC1=CC2=C(C=C1)N(C(=O)C1=CC=C(Cl)C=C1)C(C)=C2CC(O)=O
RETENTIONTIME: 
CCS: 181.3815352
IONMODE: Negative
INSTRUMENTTYPE: LC-ESI-ITFT
INSTRUMENT: 
COLLISIONENERGY: 45
Comment: registered in MassBank
Num Peaks: 2
158.06171	1000
312.078	674

NAME: Indomethacin; LC-ESI-ITFT; MS2; CE
PRECURSORMZ: 356.069509
PRECURSORTYPE: [M-H]-
FORMULA: C19H16ClNO4
Ontology: Benzoylindoles
INCHIKEY: CGIGDMFJXJATDK-UHFFFAOYSA-N
SMILES: COC1=CC2=C(C=C1)N(C(=O)C1=CC=C(Cl)C=C1)C(C)=C2CC(O)=O
RETENTIONTIME: 
CCS: 181.3815352
IONMODE: Negative
INSTRUMENTTYPE: LC-ESI-ITFT
INSTRUMENT: 
COLLISIONENERGY: 60
Comment: registered in MassBank
Num Peaks: 2
158.061	900
282.0336	1000

NAME: Indomethacin; LC-ESI-ITFT; MS2; CE
PRECURSORMZ: 356.069509
PRECURSORTYPE: [M-H]-
FORMULA: C19H16ClNO4
Ontology: Benzoylindoles
INCHIKEY: CGIGDMFJXJATDK-UHFFFAOYSA-N
SMILES: COC1=CC2=C(C=C1)N(C(=O)C1=CC=C(Cl)C=C1)C(C)=C2CC(O)=O
RETENTIONTIME: 
CCS: 181.3815352
IONMODE: Negative
INSTRUMENTTYPE: LC-ESI-ITFT
INSTRUMENT: 
COLLISIONENERGY: 75
Comment: registered in MassBank
Num Peaks: 1
158.06129	1000

NAME: Indomethacin; LC-ESI-ITFT; MS2; CE
PRECURSORMZ: 356.069509
PRECURSORTYPE: [M-H]-
FORMULA: C19H16ClNO4
Ontology: Benzoylindoles
INCHIKEY: CGIGDMFJXJATDK-UHFFFAOYSA-N
SMILES: COC1=CC2=C(C=C1)N(C(=O)C1=CC=C(Cl)C=C1)C(C)=C2CC(O)=O
RETENTIONTIME: 
CCS: 181.3815352
IONMODE: Negative
INSTRUMENTTYPE: LC-ESI-ITFT
INSTRUMENT: 
COLLISIONENERGY: 90
Comment: registered in MassBank
Num Peaks: 1
158.06129	1000

NAME: Indomethacin; LC-ESI-ITFT; MS2; CE
PRECURSORMZ: 356.069509
PRECURSORTYPE: [M-H]-
FORMULA: C19H16ClNO4
Ontology: Benzoylindoles
INCHIKEY: CGIGDMFJXJATDK-UHFFFAOYSA-N
SMILES: COC1=CC2=C(C=C1)N(C(=O)C1=CC=C(Cl)C=C1)C(C)=C2CC(O)=O
RETENTIONTIME: 
CCS: 181.3815352
IONMODE: Negative
INSTRUMENTTYPE: LC-ESI-ITFT
INSTRUMENT: 
COLLISIONENERGY: 15
Comment: registered in MassBank
Num Peaks: 3
270.06821	47
297.05569	75
312.0795	1000

NAME: Indomethacin; LC-ESI-ITFT; MS2; CE
PRECURSORMZ: 356.069509
PRECURSORTYPE: [M-H]-
FORMULA: C19H16ClNO4
Ontology: Benzoylindoles
INCHIKEY: CGIGDMFJXJATDK-UHFFFAOYSA-N
SMILES: COC1=CC2=C(C=C1)N(C(=O)C1=CC=C(Cl)C=C1)C(C)=C2CC(O)=O
RETENTIONTIME: 
CCS: 181.3815352
IONMODE: Negative
INSTRUMENTTYPE: LC-ESI-ITFT
INSTRUMENT: 
COLLISIONENERGY: 30
Comment: registered in MassBank
Num Peaks: 3
270.06879	147
297.05609	1000
312.07971	368

NAME: Indomethacin; LC-ESI-ITFT; MS2; CE
PRECURSORMZ: 356.069509
PRECURSORTYPE: [M-H]-
FORMULA: C19H16ClNO4
Ontology: Benzoylindoles
INCHIKEY: CGIGDMFJXJATDK-UHFFFAOYSA-N
SMILES: COC1=CC2=C(C=C1)N(C(=O)C1=CC=C(Cl)C=C1)C(C)=C2CC(O)=O
RETENTIONTIME: 
CCS: 181.3815352
IONMODE: Negative
INSTRUMENTTYPE: LC-ESI-ITFT
INSTRUMENT: 
COLLISIONENERGY: 45
Comment: registered in MassBank
Num Peaks: 3
158.061	1000
297.05679	846
312.0773	351

NAME: Indomethacin; LC-ESI-ITFT; MS2; CE
PRECURSORMZ: 356.069509
PRECURSORTYPE: [M-H]-
FORMULA: C19H16ClNO4
Ontology: Benzoylindoles
INCHIKEY: CGIGDMFJXJATDK-UHFFFAOYSA-N
SMILES: COC1=CC2=C(C=C1)N(C(=O)C1=CC=C(Cl)C=C1)C(C)=C2CC(O)=O
RETENTIONTIME: 
CCS: 181.3815352
IONMODE: Negative
INSTRUMENTTYPE: LC-ESI-ITFT
INSTRUMENT: 
COLLISIONENERGY: 60
Comment: registered in MassBank
Num Peaks: 2
158.0611	859
282.03259	1000

NAME: Indomethacin; LC-ESI-ITFT; MS2; CE
PRECURSORMZ: 356.069509
PRECURSORTYPE: [M-H]-
FORMULA: C19H16ClNO4
Ontology: Benzoylindoles
INCHIKEY: CGIGDMFJXJATDK-UHFFFAOYSA-N
SMILES: COC1=CC2=C(C=C1)N(C(=O)C1=CC=C(Cl)C=C1)C(C)=C2CC(O)=O
RETENTIONTIME: 
CCS: 181.3815352
IONMODE: Negative
INSTRUMENTTYPE: LC-ESI-ITFT
INSTRUMENT: 
COLLISIONENERGY: 75
Comment: registered in MassBank
Num Peaks: 1
158.061	1000

NAME: Indomethacin; LC-ESI-ITFT; MS2; CE
PRECURSORMZ: 356.069509
PRECURSORTYPE: [M-H]-
FORMULA: C19H16ClNO4
Ontology: Benzoylindoles
INCHIKEY: CGIGDMFJXJATDK-UHFFFAOYSA-N
SMILES: COC1=CC2=C(C=C1)N(C(=O)C1=CC=C(Cl)C=C1)C(C)=C2CC(O)=O
RETENTIONTIME: 
CCS: 181.3815352
IONMODE: Negative
INSTRUMENTTYPE: LC-ESI-ITFT
INSTRUMENT: 
COLLISIONENERGY: 35
Comment: registered in MassBank
Num Peaks: 1
312.07932	1000

NAME: Mefenamic acid; LC-ESI-ITFT; MS2; CE
PRECURSORMZ: 240.103002
PRECURSORTYPE: [M-H]-
FORMULA: C15H15NO2
Ontology: Aminobenzoic acids
INCHIKEY: HYYBABOKPJLUIN-UHFFFAOYSA-N
SMILES: CC1=C(C)C(NC2=CC=CC=C2C(O)=O)=CC=C1
RETENTIONTIME: 
CCS: 157.2859559
IONMODE: Negative
INSTRUMENTTYPE: LC-ESI-ITFT
INSTRUMENT: 
COLLISIONENERGY: 35
Comment: registered in MassBank
Num Peaks: 1
196.1136	1000

NAME: Mefenamic acid; LC-ESI-ITFT; MS2; CE
PRECURSORMZ: 240.103002
PRECURSORTYPE: [M-H]-
FORMULA: C15H15NO2
Ontology: Aminobenzoic acids
INCHIKEY: HYYBABOKPJLUIN-UHFFFAOYSA-N
SMILES: CC1=C(C)C(NC2=CC=CC=C2C(O)=O)=CC=C1
RETENTIONTIME: 
CCS: 157.2859559
IONMODE: Negative
INSTRUMENTTYPE: LC-ESI-ITFT
INSTRUMENT: 
COLLISIONENERGY: 15
Comment: registered in MassBank
Num Peaks: 2
196.1136	40
240.1031	1000

NAME: Mefenamic acid; LC-ESI-ITFT; MS2; CE
PRECURSORMZ: 240.103002
PRECURSORTYPE: [M-H]-
FORMULA: C15H15NO2
Ontology: Aminobenzoic acids
INCHIKEY: HYYBABOKPJLUIN-UHFFFAOYSA-N
SMILES: CC1=C(C)C(NC2=CC=CC=C2C(O)=O)=CC=C1
RETENTIONTIME: 
CCS: 157.2859559
IONMODE: Negative
INSTRUMENTTYPE: LC-ESI-ITFT
INSTRUMENT: 
COLLISIONENERGY: 30
Comment: registered in MassBank
Num Peaks: 2
196.1133	1000
240.10291	696

NAME: Mefenamic acid; LC-ESI-ITFT; MS2; CE
PRECURSORMZ: 240.103002
PRECURSORTYPE: [M-H]-
FORMULA: C15H15NO2
Ontology: Aminobenzoic acids
INCHIKEY: HYYBABOKPJLUIN-UHFFFAOYSA-N
SMILES: CC1=C(C)C(NC2=CC=CC=C2C(O)=O)=CC=C1
RETENTIONTIME: 
CCS: 157.2859559
IONMODE: Negative
INSTRUMENTTYPE: LC-ESI-ITFT
INSTRUMENT: 
COLLISIONENERGY: 45
Comment: registered in MassBank
Num Peaks: 5
180.0822	11
192.08211	9
194.0972	7
196.1133	1000
240.10291	32

NAME: Mefenamic acid; LC-ESI-ITFT; MS2; CE
PRECURSORMZ: 240.103002
PRECURSORTYPE: [M-H]-
FORMULA: C15H15NO2
Ontology: Aminobenzoic acids
INCHIKEY: HYYBABOKPJLUIN-UHFFFAOYSA-N
SMILES: CC1=C(C)C(NC2=CC=CC=C2C(O)=O)=CC=C1
RETENTIONTIME: 
CCS: 157.2859559
IONMODE: Negative
INSTRUMENTTYPE: LC-ESI-ITFT
INSTRUMENT: 
COLLISIONENERGY: 60
Comment: registered in MassBank
Num Peaks: 5
179.0865	30
180.082	72
192.082	89
194.0976	57
196.1133	1000

NAME: Mefenamic acid; LC-ESI-ITFT; MS2; CE
PRECURSORMZ: 240.103002
PRECURSORTYPE: [M-H]-
FORMULA: C15H15NO2
Ontology: Aminobenzoic acids
INCHIKEY: HYYBABOKPJLUIN-UHFFFAOYSA-N
SMILES: CC1=C(C)C(NC2=CC=CC=C2C(O)=O)=CC=C1
RETENTIONTIME: 
CCS: 157.2859559
IONMODE: Negative
INSTRUMENTTYPE: LC-ESI-ITFT
INSTRUMENT: 
COLLISIONENERGY: 75
Comment: registered in MassBank
Num Peaks: 6
92.0504	74
179.08659	153
180.08189	336
192.08211	389
194.0974	242
196.11279	1000

NAME: Mefenamic acid; LC-ESI-ITFT; MS2; CE
PRECURSORMZ: 240.103002
PRECURSORTYPE: [M-H]-
FORMULA: C15H15NO2
Ontology: Aminobenzoic acids
INCHIKEY: HYYBABOKPJLUIN-UHFFFAOYSA-N
SMILES: CC1=C(C)C(NC2=CC=CC=C2C(O)=O)=CC=C1
RETENTIONTIME: 
CCS: 157.2859559
IONMODE: Negative
INSTRUMENTTYPE: LC-ESI-ITFT
INSTRUMENT: 
COLLISIONENERGY: 90
Comment: registered in MassBank
Num Peaks: 5
92.0505	664
179.086	399
180.0817	1000
192.0816	703
194.097	659

NAME: Mefenamic acid; LC-ESI-ITFT; MS2; CE
PRECURSORMZ: 240.103002
PRECURSORTYPE: [M-H]-
FORMULA: C15H15NO2
Ontology: Aminobenzoic acids
INCHIKEY: HYYBABOKPJLUIN-UHFFFAOYSA-N
SMILES: CC1=C(C)C(NC2=CC=CC=C2C(O)=O)=CC=C1
RETENTIONTIME: 
CCS: 157.2859559
IONMODE: Negative
INSTRUMENTTYPE: LC-ESI-ITFT
INSTRUMENT: 
COLLISIONENERGY: 15
Comment: registered in MassBank
Num Peaks: 2
196.1131	35
240.1031	1000

NAME: Mefenamic acid; LC-ESI-ITFT; MS2; CE
PRECURSORMZ: 240.103002
PRECURSORTYPE: [M-H]-
FORMULA: C15H15NO2
Ontology: Aminobenzoic acids
INCHIKEY: HYYBABOKPJLUIN-UHFFFAOYSA-N
SMILES: CC1=C(C)C(NC2=CC=CC=C2C(O)=O)=CC=C1
RETENTIONTIME: 
CCS: 157.2859559
IONMODE: Negative
INSTRUMENTTYPE: LC-ESI-ITFT
INSTRUMENT: 
COLLISIONENERGY: 30
Comment: registered in MassBank
Num Peaks: 2
196.1134	1000
240.103	686

NAME: Mefenamic acid; LC-ESI-ITFT; MS2; CE
PRECURSORMZ: 240.103002
PRECURSORTYPE: [M-H]-
FORMULA: C15H15NO2
Ontology: Aminobenzoic acids
INCHIKEY: HYYBABOKPJLUIN-UHFFFAOYSA-N
SMILES: CC1=C(C)C(NC2=CC=CC=C2C(O)=O)=CC=C1
RETENTIONTIME: 
CCS: 157.2859559
IONMODE: Negative
INSTRUMENTTYPE: LC-ESI-ITFT
INSTRUMENT: 
COLLISIONENERGY: 45
Comment: registered in MassBank
Num Peaks: 5
180.0817	8
192.0815	8
194.0981	6
196.1133	1000
240.103	23

NAME: Mefenamic acid; LC-ESI-ITFT; MS2; CE
PRECURSORMZ: 240.103002
PRECURSORTYPE: [M-H]-
FORMULA: C15H15NO2
Ontology: Aminobenzoic acids
INCHIKEY: HYYBABOKPJLUIN-UHFFFAOYSA-N
SMILES: CC1=C(C)C(NC2=CC=CC=C2C(O)=O)=CC=C1
RETENTIONTIME: 
CCS: 157.2859559
IONMODE: Negative
INSTRUMENTTYPE: LC-ESI-ITFT
INSTRUMENT: 
COLLISIONENERGY: 60
Comment: registered in MassBank
Num Peaks: 5
179.08681	27
180.0817	71
192.0822	65
194.0974	45
196.1132	1000

NAME: Mefenamic acid; LC-ESI-ITFT; MS2; CE
PRECURSORMZ: 240.103002
PRECURSORTYPE: [M-H]-
FORMULA: C15H15NO2
Ontology: Aminobenzoic acids
INCHIKEY: HYYBABOKPJLUIN-UHFFFAOYSA-N
SMILES: CC1=C(C)C(NC2=CC=CC=C2C(O)=O)=CC=C1
RETENTIONTIME: 
CCS: 157.2859559
IONMODE: Negative
INSTRUMENTTYPE: LC-ESI-ITFT
INSTRUMENT: 
COLLISIONENERGY: 75
Comment: registered in MassBank
Num Peaks: 6
92.0504	32
179.0864	133
180.08189	344
192.0815	336
194.0975	302
196.11301	1000

NAME: Mefenamic acid; LC-ESI-ITFT; MS2; CE
PRECURSORMZ: 240.103002
PRECURSORTYPE: [M-H]-
FORMULA: C15H15NO2
Ontology: Aminobenzoic acids
INCHIKEY: HYYBABOKPJLUIN-UHFFFAOYSA-N
SMILES: CC1=C(C)C(NC2=CC=CC=C2C(O)=O)=CC=C1
RETENTIONTIME: 
CCS: 157.2859559
IONMODE: Negative
INSTRUMENTTYPE: LC-ESI-ITFT
INSTRUMENT: 
COLLISIONENERGY: 90
Comment: registered in MassBank
Num Peaks: 6
92.0504	725
179.0865	483
180.0816	979
192.08099	821
194.09779	1000
196.11279	947

NAME: Mefenamic acid; LC-ESI-ITFT; MS2; CE
PRECURSORMZ: 240.103002
PRECURSORTYPE: [M-H]-
FORMULA: C15H15NO2
Ontology: Aminobenzoic acids
INCHIKEY: HYYBABOKPJLUIN-UHFFFAOYSA-N
SMILES: CC1=C(C)C(NC2=CC=CC=C2C(O)=O)=CC=C1
RETENTIONTIME: 
CCS: 157.2859559
IONMODE: Negative
INSTRUMENTTYPE: LC-ESI-ITFT
INSTRUMENT: 
COLLISIONENERGY: 35
Comment: registered in MassBank
Num Peaks: 1
196.1136	1000

NAME: Bezafibrate; LC-ESI-ITFT; MS2; CE
PRECURSORMZ: 360.100809
PRECURSORTYPE: [M-H]-
FORMULA: C19H20ClNO4
Ontology: Phenoxyacetic acid derivatives
INCHIKEY: IIBYAHWJQTYFKB-UHFFFAOYSA-N
SMILES: CC(C)(OC1=CC=C(CCNC(=O)C2=CC=C(Cl)C=C2)C=C1)C(O)=O
RETENTIONTIME: 
CCS: 199.7822834
IONMODE: Negative
INSTRUMENTTYPE: LC-ESI-ITFT
INSTRUMENT: 
COLLISIONENERGY: 35
Comment: registered in MassBank
Num Peaks: 2
274.06421	1000
316.11169	7

NAME: Bezafibrate; LC-ESI-ITFT; MS2; CE
PRECURSORMZ: 360.100809
PRECURSORTYPE: [M-H]-
FORMULA: C19H20ClNO4
Ontology: Phenoxyacetic acid derivatives
INCHIKEY: IIBYAHWJQTYFKB-UHFFFAOYSA-N
SMILES: CC(C)(OC1=CC=C(CCNC(=O)C2=CC=C(Cl)C=C2)C=C1)C(O)=O
RETENTIONTIME: 
CCS: 199.7822834
IONMODE: Negative
INSTRUMENTTYPE: LC-ESI-ITFT
INSTRUMENT: 
COLLISIONENERGY: 15
Comment: registered in MassBank
Num Peaks: 4
85.0295	54
154.0067	8
274.06409	531
360.10141	1000

NAME: Bezafibrate; LC-ESI-ITFT; MS2; CE
PRECURSORMZ: 360.100809
PRECURSORTYPE: [M-H]-
FORMULA: C19H20ClNO4
Ontology: Phenoxyacetic acid derivatives
INCHIKEY: IIBYAHWJQTYFKB-UHFFFAOYSA-N
SMILES: CC(C)(OC1=CC=C(CCNC(=O)C2=CC=C(Cl)C=C2)C=C1)C(O)=O
RETENTIONTIME: 
CCS: 199.7822834
IONMODE: Negative
INSTRUMENTTYPE: LC-ESI-ITFT
INSTRUMENT: 
COLLISIONENERGY: 30
Comment: registered in MassBank
Num Peaks: 3
85.0296	75
154.0065	27
274.0643	1000

NAME: Bezafibrate; LC-ESI-ITFT; MS2; CE
PRECURSORMZ: 360.100809
PRECURSORTYPE: [M-H]-
FORMULA: C19H20ClNO4
Ontology: Phenoxyacetic acid derivatives
INCHIKEY: IIBYAHWJQTYFKB-UHFFFAOYSA-N
SMILES: CC(C)(OC1=CC=C(CCNC(=O)C2=CC=C(Cl)C=C2)C=C1)C(O)=O
RETENTIONTIME: 
CCS: 199.7822834
IONMODE: Negative
INSTRUMENTTYPE: LC-ESI-ITFT
INSTRUMENT: 
COLLISIONENERGY: 45
Comment: registered in MassBank
Num Peaks: 3
85.0297	216
154.00681	1000
274.06451	983

NAME: Bezafibrate; LC-ESI-ITFT; MS2; CE
PRECURSORMZ: 360.100809
PRECURSORTYPE: [M-H]-
FORMULA: C19H20ClNO4
Ontology: Phenoxyacetic acid derivatives
INCHIKEY: IIBYAHWJQTYFKB-UHFFFAOYSA-N
SMILES: CC(C)(OC1=CC=C(CCNC(=O)C2=CC=C(Cl)C=C2)C=C1)C(O)=O
RETENTIONTIME: 
CCS: 199.7822834
IONMODE: Negative
INSTRUMENTTYPE: LC-ESI-ITFT
INSTRUMENT: 
COLLISIONENERGY: 60
Comment: registered in MassBank
Num Peaks: 3
85.0295	158
154.00661	1000
274.0629	81

NAME: Bezafibrate; LC-ESI-ITFT; MS2; CE
PRECURSORMZ: 360.100809
PRECURSORTYPE: [M-H]-
FORMULA: C19H20ClNO4
Ontology: Phenoxyacetic acid derivatives
INCHIKEY: IIBYAHWJQTYFKB-UHFFFAOYSA-N
SMILES: CC(C)(OC1=CC=C(CCNC(=O)C2=CC=C(Cl)C=C2)C=C1)C(O)=O
RETENTIONTIME: 
CCS: 199.7822834
IONMODE: Negative
INSTRUMENTTYPE: LC-ESI-ITFT
INSTRUMENT: 
COLLISIONENERGY: 75
Comment: registered in MassBank
Num Peaks: 2
85.0293	368
154.0065	1000

NAME: Bezafibrate; LC-ESI-ITFT; MS2; CE
PRECURSORMZ: 360.100809
PRECURSORTYPE: [M-H]-
FORMULA: C19H20ClNO4
Ontology: Phenoxyacetic acid derivatives
INCHIKEY: IIBYAHWJQTYFKB-UHFFFAOYSA-N
SMILES: CC(C)(OC1=CC=C(CCNC(=O)C2=CC=C(Cl)C=C2)C=C1)C(O)=O
RETENTIONTIME: 
CCS: 199.7822834
IONMODE: Negative
INSTRUMENTTYPE: LC-ESI-ITFT
INSTRUMENT: 
COLLISIONENERGY: 15
Comment: registered in MassBank
Num Peaks: 3
85.0295	42
274.064	554
360.1008	1000

NAME: Bezafibrate; LC-ESI-ITFT; MS2; CE
PRECURSORMZ: 360.100809
PRECURSORTYPE: [M-H]-
FORMULA: C19H20ClNO4
Ontology: Phenoxyacetic acid derivatives
INCHIKEY: IIBYAHWJQTYFKB-UHFFFAOYSA-N
SMILES: CC(C)(OC1=CC=C(CCNC(=O)C2=CC=C(Cl)C=C2)C=C1)C(O)=O
RETENTIONTIME: 
CCS: 199.7822834
IONMODE: Negative
INSTRUMENTTYPE: LC-ESI-ITFT
INSTRUMENT: 
COLLISIONENERGY: 30
Comment: registered in MassBank
Num Peaks: 3
85.0295	69
154.00661	23
274.06421	1000

NAME: Bezafibrate; LC-ESI-ITFT; MS2; CE
PRECURSORMZ: 360.100809
PRECURSORTYPE: [M-H]-
FORMULA: C19H20ClNO4
Ontology: Phenoxyacetic acid derivatives
INCHIKEY: IIBYAHWJQTYFKB-UHFFFAOYSA-N
SMILES: CC(C)(OC1=CC=C(CCNC(=O)C2=CC=C(Cl)C=C2)C=C1)C(O)=O
RETENTIONTIME: 
CCS: 199.7822834
IONMODE: Negative
INSTRUMENTTYPE: LC-ESI-ITFT
INSTRUMENT: 
COLLISIONENERGY: 45
Comment: registered in MassBank
Num Peaks: 3
85.0295	137
154.00661	927
274.064	1000

NAME: Bezafibrate; LC-ESI-ITFT; MS2; CE
PRECURSORMZ: 360.100809
PRECURSORTYPE: [M-H]-
FORMULA: C19H20ClNO4
Ontology: Phenoxyacetic acid derivatives
INCHIKEY: IIBYAHWJQTYFKB-UHFFFAOYSA-N
SMILES: CC(C)(OC1=CC=C(CCNC(=O)C2=CC=C(Cl)C=C2)C=C1)C(O)=O
RETENTIONTIME: 
CCS: 199.7822834
IONMODE: Negative
INSTRUMENTTYPE: LC-ESI-ITFT
INSTRUMENT: 
COLLISIONENERGY: 60
Comment: registered in MassBank
Num Peaks: 3
85.0294	96
154.00661	1000
274.06241	67

NAME: Bezafibrate; LC-ESI-ITFT; MS2; CE
PRECURSORMZ: 360.100809
PRECURSORTYPE: [M-H]-
FORMULA: C19H20ClNO4
Ontology: Phenoxyacetic acid derivatives
INCHIKEY: IIBYAHWJQTYFKB-UHFFFAOYSA-N
SMILES: CC(C)(OC1=CC=C(CCNC(=O)C2=CC=C(Cl)C=C2)C=C1)C(O)=O
RETENTIONTIME: 
CCS: 199.7822834
IONMODE: Negative
INSTRUMENTTYPE: LC-ESI-ITFT
INSTRUMENT: 
COLLISIONENERGY: 75
Comment: registered in MassBank
Num Peaks: 2
85.0295	245
154.0067	1000

NAME: Bezafibrate; LC-ESI-ITFT; MS2; CE
PRECURSORMZ: 360.100809
PRECURSORTYPE: [M-H]-
FORMULA: C19H20ClNO4
Ontology: Phenoxyacetic acid derivatives
INCHIKEY: IIBYAHWJQTYFKB-UHFFFAOYSA-N
SMILES: CC(C)(OC1=CC=C(CCNC(=O)C2=CC=C(Cl)C=C2)C=C1)C(O)=O
RETENTIONTIME: 
CCS: 199.7822834
IONMODE: Negative
INSTRUMENTTYPE: LC-ESI-ITFT
INSTRUMENT: 
COLLISIONENERGY: 35
Comment: registered in MassBank
Num Peaks: 1
274.06409	1000

NAME: Paracetamol; LC-ESI-ITFT; MS2; CE
PRECURSORMZ: 150.056052
PRECURSORTYPE: [M-H]-
FORMULA: C8H9NO2
Ontology: 1-hydroxy-2-unsubstituted benzenoids
INCHIKEY: RZVAJINKPMORJF-UHFFFAOYSA-N
SMILES: CC(O)=NC1=CC=C(O)C=C1
RETENTIONTIME: 
CCS: 131.5556187
IONMODE: Negative
INSTRUMENTTYPE: LC-ESI-ITFT
INSTRUMENT: 
COLLISIONENERGY: 35
Comment: registered in MassBank
Num Peaks: 2
107.0376	853
150.0562	1000

NAME: Paracetamol; LC-ESI-ITFT; MS2; CE
PRECURSORMZ: 150.056052
PRECURSORTYPE: [M-H]-
FORMULA: C8H9NO2
Ontology: 1-hydroxy-2-unsubstituted benzenoids
INCHIKEY: RZVAJINKPMORJF-UHFFFAOYSA-N
SMILES: CC(O)=NC1=CC=C(O)C=C1
RETENTIONTIME: 
CCS: 131.5556187
IONMODE: Negative
INSTRUMENTTYPE: LC-ESI-ITFT
INSTRUMENT: 
COLLISIONENERGY: 45
Comment: registered in MassBank
Num Peaks: 2
107.0375	289
150.05611	1000

NAME: Paracetamol; LC-ESI-ITFT; MS2; CE
PRECURSORMZ: 150.056052
PRECURSORTYPE: [M-H]-
FORMULA: C8H9NO2
Ontology: 1-hydroxy-2-unsubstituted benzenoids
INCHIKEY: RZVAJINKPMORJF-UHFFFAOYSA-N
SMILES: CC(O)=NC1=CC=C(O)C=C1
RETENTIONTIME: 
CCS: 131.5556187
IONMODE: Negative
INSTRUMENTTYPE: LC-ESI-ITFT
INSTRUMENT: 
COLLISIONENERGY: 60
Comment: registered in MassBank
Num Peaks: 2
107.0377	1000
150.05611	784

NAME: Paracetamol; LC-ESI-ITFT; MS2; CE
PRECURSORMZ: 150.056052
PRECURSORTYPE: [M-H]-
FORMULA: C8H9NO2
Ontology: 1-hydroxy-2-unsubstituted benzenoids
INCHIKEY: RZVAJINKPMORJF-UHFFFAOYSA-N
SMILES: CC(O)=NC1=CC=C(O)C=C1
RETENTIONTIME: 
CCS: 131.5556187
IONMODE: Negative
INSTRUMENTTYPE: LC-ESI-ITFT
INSTRUMENT: 
COLLISIONENERGY: 75
Comment: registered in MassBank
Num Peaks: 1
107.0376	1000

NAME: Paracetamol; LC-ESI-ITFT; MS2; CE
PRECURSORMZ: 150.056052
PRECURSORTYPE: [M-H]-
FORMULA: C8H9NO2
Ontology: 1-hydroxy-2-unsubstituted benzenoids
INCHIKEY: RZVAJINKPMORJF-UHFFFAOYSA-N
SMILES: CC(O)=NC1=CC=C(O)C=C1
RETENTIONTIME: 
CCS: 131.5556187
IONMODE: Negative
INSTRUMENTTYPE: LC-ESI-ITFT
INSTRUMENT: 
COLLISIONENERGY: 90
Comment: registered in MassBank
Num Peaks: 1
107.0375	1000

NAME: Paracetamol; LC-ESI-ITFT; MS2; CE
PRECURSORMZ: 150.056052
PRECURSORTYPE: [M-H]-
FORMULA: C8H9NO2
Ontology: 1-hydroxy-2-unsubstituted benzenoids
INCHIKEY: RZVAJINKPMORJF-UHFFFAOYSA-N
SMILES: CC(O)=NC1=CC=C(O)C=C1
RETENTIONTIME: 
CCS: 131.5556187
IONMODE: Negative
INSTRUMENTTYPE: LC-ESI-ITFT
INSTRUMENT: 
COLLISIONENERGY: 45
Comment: registered in MassBank
Num Peaks: 2
107.0374	201
150.05589	1000

NAME: Paracetamol; LC-ESI-ITFT; MS2; CE
PRECURSORMZ: 150.056052
PRECURSORTYPE: [M-H]-
FORMULA: C8H9NO2
Ontology: 1-hydroxy-2-unsubstituted benzenoids
INCHIKEY: RZVAJINKPMORJF-UHFFFAOYSA-N
SMILES: CC(O)=NC1=CC=C(O)C=C1
RETENTIONTIME: 
CCS: 131.5556187
IONMODE: Negative
INSTRUMENTTYPE: LC-ESI-ITFT
INSTRUMENT: 
COLLISIONENERGY: 60
Comment: registered in MassBank
Num Peaks: 2
107.0375	1000
150.056	811

NAME: Paracetamol; LC-ESI-ITFT; MS2; CE
PRECURSORMZ: 150.056052
PRECURSORTYPE: [M-H]-
FORMULA: C8H9NO2
Ontology: 1-hydroxy-2-unsubstituted benzenoids
INCHIKEY: RZVAJINKPMORJF-UHFFFAOYSA-N
SMILES: CC(O)=NC1=CC=C(O)C=C1
RETENTIONTIME: 
CCS: 131.5556187
IONMODE: Negative
INSTRUMENTTYPE: LC-ESI-ITFT
INSTRUMENT: 
COLLISIONENERGY: 75
Comment: registered in MassBank
Num Peaks: 1
107.0374	1000

NAME: Paracetamol; LC-ESI-ITFT; MS2; CE
PRECURSORMZ: 150.056052
PRECURSORTYPE: [M-H]-
FORMULA: C8H9NO2
Ontology: 1-hydroxy-2-unsubstituted benzenoids
INCHIKEY: RZVAJINKPMORJF-UHFFFAOYSA-N
SMILES: CC(O)=NC1=CC=C(O)C=C1
RETENTIONTIME: 
CCS: 131.5556187
IONMODE: Negative
INSTRUMENTTYPE: LC-ESI-ITFT
INSTRUMENT: 
COLLISIONENERGY: 35
Comment: registered in MassBank
Num Peaks: 2
107.0375	326
150.056	1000

NAME: N4-Acetylsulfadimethoxine; LC-ESI-ITFT; MS2; CE
PRECURSORMZ: 351.076864
PRECURSORTYPE: [M-H]-
FORMULA: C14H16N4O5S
Ontology: Benzenesulfonamides
INCHIKEY: DQWIIKBKAIPUPY-UHFFFAOYSA-N
SMILES: COC1=CC(OC)=NC(NS(=O)(=O)C2=CC=C(C=C2)N=C(C)O)=N1
RETENTIONTIME: 
CCS: -1
IONMODE: Negative
INSTRUMENTTYPE: LC-ESI-ITFT
INSTRUMENT: 
COLLISIONENERGY: 35
Comment: registered in MassBank
Num Peaks: 9
122.0362	625
134.0612	450
139.0387	114
153.05431	222
154.0623	510
196.0728	1000
217.0163	56
271.11969	559
351.07529	28

NAME: N4-Acetylsulfadimethoxine; LC-ESI-ITFT; MS2; CE
PRECURSORMZ: 351.076864
PRECURSORTYPE: [M-H]-
FORMULA: C14H16N4O5S
Ontology: Benzenesulfonamides
INCHIKEY: DQWIIKBKAIPUPY-UHFFFAOYSA-N
SMILES: COC1=CC(OC)=NC(NS(=O)(=O)C2=CC=C(C=C2)N=C(C)O)=N1
RETENTIONTIME: 
CCS: -1
IONMODE: Negative
INSTRUMENTTYPE: LC-ESI-ITFT
INSTRUMENT: 
COLLISIONENERGY: 30
Comment: registered in MassBank
Num Peaks: 4
122.0364	109
134.0611	134
196.07291	174
351.0752	1000

NAME: N4-Acetylsulfadimethoxine; LC-ESI-ITFT; MS2; CE
PRECURSORMZ: 351.076864
PRECURSORTYPE: [M-H]-
FORMULA: C14H16N4O5S
Ontology: Benzenesulfonamides
INCHIKEY: DQWIIKBKAIPUPY-UHFFFAOYSA-N
SMILES: COC1=CC(OC)=NC(NS(=O)(=O)C2=CC=C(C=C2)N=C(C)O)=N1
RETENTIONTIME: 
CCS: -1
IONMODE: Negative
INSTRUMENTTYPE: LC-ESI-ITFT
INSTRUMENT: 
COLLISIONENERGY: 45
Comment: registered in MassBank
Num Peaks: 2
122.0359	1000
134.0611	869

NAME: N4-Acetylsulfadimethoxine; LC-ESI-ITFT; MS2; CE
PRECURSORMZ: 351.076864
PRECURSORTYPE: [M-H]-
FORMULA: C14H16N4O5S
Ontology: Benzenesulfonamides
INCHIKEY: DQWIIKBKAIPUPY-UHFFFAOYSA-N
SMILES: COC1=CC(OC)=NC(NS(=O)(=O)C2=CC=C(C=C2)N=C(C)O)=N1
RETENTIONTIME: 
CCS: -1
IONMODE: Negative
INSTRUMENTTYPE: LC-ESI-ITFT
INSTRUMENT: 
COLLISIONENERGY: 60
Comment: registered in MassBank
Num Peaks: 3
122.0363	1000
134.06129	622
154.0631	808

NAME: N4-Acetylsulfadimethoxine; LC-ESI-ITFT; MS2; CE
PRECURSORMZ: 351.076864
PRECURSORTYPE: [M-H]-
FORMULA: C14H16N4O5S
Ontology: Benzenesulfonamides
INCHIKEY: DQWIIKBKAIPUPY-UHFFFAOYSA-N
SMILES: COC1=CC(OC)=NC(NS(=O)(=O)C2=CC=C(C=C2)N=C(C)O)=N1
RETENTIONTIME: 
CCS: -1
IONMODE: Negative
INSTRUMENTTYPE: LC-ESI-ITFT
INSTRUMENT: 
COLLISIONENERGY: 75
Comment: registered in MassBank
Num Peaks: 4
66.0097	492
122.0358	1000
139.03799	831
196.07291	376

NAME: N4-Acetylsulfadimethoxine; LC-ESI-ITFT; MS2; CE
PRECURSORMZ: 351.076864
PRECURSORTYPE: [M-H]-
FORMULA: C14H16N4O5S
Ontology: Benzenesulfonamides
INCHIKEY: DQWIIKBKAIPUPY-UHFFFAOYSA-N
SMILES: COC1=CC(OC)=NC(NS(=O)(=O)C2=CC=C(C=C2)N=C(C)O)=N1
RETENTIONTIME: 
CCS: -1
IONMODE: Negative
INSTRUMENTTYPE: LC-ESI-ITFT
INSTRUMENT: 
COLLISIONENERGY: 90
Comment: registered in MassBank
Num Peaks: 1
139.0383	1000

NAME: N4-Acetylsulfadimethoxine; LC-ESI-ITFT; MS2; CE
PRECURSORMZ: 351.076864
PRECURSORTYPE: [M-H]-
FORMULA: C14H16N4O5S
Ontology: Benzenesulfonamides
INCHIKEY: DQWIIKBKAIPUPY-UHFFFAOYSA-N
SMILES: COC1=CC(OC)=NC(NS(=O)(=O)C2=CC=C(C=C2)N=C(C)O)=N1
RETENTIONTIME: 
CCS: -1
IONMODE: Negative
INSTRUMENTTYPE: LC-ESI-ITFT
INSTRUMENT: 
COLLISIONENERGY: 30
Comment: registered in MassBank
Num Peaks: 5
122.0362	85
134.06129	100
196.073	130
271.12	98
351.0759	1000

NAME: N4-Acetylsulfadimethoxine; LC-ESI-ITFT; MS2; CE
PRECURSORMZ: 351.076864
PRECURSORTYPE: [M-H]-
FORMULA: C14H16N4O5S
Ontology: Benzenesulfonamides
INCHIKEY: DQWIIKBKAIPUPY-UHFFFAOYSA-N
SMILES: COC1=CC(OC)=NC(NS(=O)(=O)C2=CC=C(C=C2)N=C(C)O)=N1
RETENTIONTIME: 
CCS: -1
IONMODE: Negative
INSTRUMENTTYPE: LC-ESI-ITFT
INSTRUMENT: 
COLLISIONENERGY: 45
Comment: registered in MassBank
Num Peaks: 4
122.036	1000
134.0611	803
154.0619	376
196.0731	251

NAME: N4-Acetylsulfadimethoxine; LC-ESI-ITFT; MS2; CE
PRECURSORMZ: 351.076864
PRECURSORTYPE: [M-H]-
FORMULA: C14H16N4O5S
Ontology: Benzenesulfonamides
INCHIKEY: DQWIIKBKAIPUPY-UHFFFAOYSA-N
SMILES: COC1=CC(OC)=NC(NS(=O)(=O)C2=CC=C(C=C2)N=C(C)O)=N1
RETENTIONTIME: 
CCS: -1
IONMODE: Negative
INSTRUMENTTYPE: LC-ESI-ITFT
INSTRUMENT: 
COLLISIONENERGY: 60
Comment: registered in MassBank
Num Peaks: 4
66.0096	656
122.0359	1000
134.0607	367
154.0618	732

NAME: N4-Acetylsulfadimethoxine; LC-ESI-ITFT; MS2; CE
PRECURSORMZ: 351.076864
PRECURSORTYPE: [M-H]-
FORMULA: C14H16N4O5S
Ontology: Benzenesulfonamides
INCHIKEY: DQWIIKBKAIPUPY-UHFFFAOYSA-N
SMILES: COC1=CC(OC)=NC(NS(=O)(=O)C2=CC=C(C=C2)N=C(C)O)=N1
RETENTIONTIME: 
CCS: -1
IONMODE: Negative
INSTRUMENTTYPE: LC-ESI-ITFT
INSTRUMENT: 
COLLISIONENERGY: 75
Comment: registered in MassBank
Num Peaks: 5
66.0096	386
122.0363	1000
134.0611	371
139.0385	387
154.06219	798

NAME: N4-Acetylsulfadimethoxine; LC-ESI-ITFT; MS2; CE
PRECURSORMZ: 351.076864
PRECURSORTYPE: [M-H]-
FORMULA: C14H16N4O5S
Ontology: Benzenesulfonamides
INCHIKEY: DQWIIKBKAIPUPY-UHFFFAOYSA-N
SMILES: COC1=CC(OC)=NC(NS(=O)(=O)C2=CC=C(C=C2)N=C(C)O)=N1
RETENTIONTIME: 
CCS: -1
IONMODE: Negative
INSTRUMENTTYPE: LC-ESI-ITFT
INSTRUMENT: 
COLLISIONENERGY: 90
Comment: registered in MassBank
Num Peaks: 3
66.0098	973
122.0361	1000
139.03841	811

NAME: N4-Acetylsulfamethazine; LC-ESI-ITFT; MS2; CE
PRECURSORMZ: 319.087035
PRECURSORTYPE: [M-H]-
FORMULA: C14H16N4O3S
Ontology: Benzenesulfonamides
INCHIKEY: LJKAKWDUZRJNPJ-UHFFFAOYSA-N
SMILES: CC(O)=NC1=CC=C(C=C1)S(=O)(=O)NC1=NC(C)=CC(C)=N1
RETENTIONTIME: 
CCS: 196.075681
IONMODE: Negative
INSTRUMENTTYPE: LC-ESI-ITFT
INSTRUMENT: 
COLLISIONENERGY: 35
Comment: registered in MassBank
Num Peaks: 8
92.0505	28
106.0411	32
122.0725	43
134.0614	1000
164.0829	101
184.01849	52
239.1301	157
255.12489	75

NAME: N4-Acetylsulfamethazine; LC-ESI-ITFT; MS2; CE
PRECURSORMZ: 319.087035
PRECURSORTYPE: [M-H]-
FORMULA: C14H16N4O3S
Ontology: Benzenesulfonamides
INCHIKEY: LJKAKWDUZRJNPJ-UHFFFAOYSA-N
SMILES: CC(O)=NC1=CC=C(C=C1)S(=O)(=O)NC1=NC(C)=CC(C)=N1
RETENTIONTIME: 
CCS: 196.075681
IONMODE: Negative
INSTRUMENTTYPE: LC-ESI-ITFT
INSTRUMENT: 
COLLISIONENERGY: 30
Comment: registered in MassBank
Num Peaks: 3
134.0609	851
255.1248	148
319.08691	1000

NAME: N4-Acetylsulfamethazine; LC-ESI-ITFT; MS2; CE
PRECURSORMZ: 319.087035
PRECURSORTYPE: [M-H]-
FORMULA: C14H16N4O3S
Ontology: Benzenesulfonamides
INCHIKEY: LJKAKWDUZRJNPJ-UHFFFAOYSA-N
SMILES: CC(O)=NC1=CC=C(C=C1)S(=O)(=O)NC1=NC(C)=CC(C)=N1
RETENTIONTIME: 
CCS: 196.075681
IONMODE: Negative
INSTRUMENTTYPE: LC-ESI-ITFT
INSTRUMENT: 
COLLISIONENERGY: 45
Comment: registered in MassBank
Num Peaks: 3
106.0409	236
134.0612	1000
205.01469	65

NAME: N4-Acetylsulfamethazine; LC-ESI-ITFT; MS2; CE
PRECURSORMZ: 319.087035
PRECURSORTYPE: [M-H]-
FORMULA: C14H16N4O3S
Ontology: Benzenesulfonamides
INCHIKEY: LJKAKWDUZRJNPJ-UHFFFAOYSA-N
SMILES: CC(O)=NC1=CC=C(C=C1)S(=O)(=O)NC1=NC(C)=CC(C)=N1
RETENTIONTIME: 
CCS: 196.075681
IONMODE: Negative
INSTRUMENTTYPE: LC-ESI-ITFT
INSTRUMENT: 
COLLISIONENERGY: 60
Comment: registered in MassBank
Num Peaks: 6
92.0506	225
106.0411	678
122.0724	432
134.0612	1000
171.09261	137
205.01511	122

NAME: N4-Acetylsulfamethazine; LC-ESI-ITFT; MS2; CE
PRECURSORMZ: 319.087035
PRECURSORTYPE: [M-H]-
FORMULA: C14H16N4O3S
Ontology: Benzenesulfonamides
INCHIKEY: LJKAKWDUZRJNPJ-UHFFFAOYSA-N
SMILES: CC(O)=NC1=CC=C(C=C1)S(=O)(=O)NC1=NC(C)=CC(C)=N1
RETENTIONTIME: 
CCS: 196.075681
IONMODE: Negative
INSTRUMENTTYPE: LC-ESI-ITFT
INSTRUMENT: 
COLLISIONENERGY: 75
Comment: registered in MassBank
Num Peaks: 4
92.0503	295
106.041	1000
122.0724	634
205.0163	213

NAME: N4-Acetylsulfamethazine; LC-ESI-ITFT; MS2; CE
PRECURSORMZ: 319.087035
PRECURSORTYPE: [M-H]-
FORMULA: C14H16N4O3S
Ontology: Benzenesulfonamides
INCHIKEY: LJKAKWDUZRJNPJ-UHFFFAOYSA-N
SMILES: CC(O)=NC1=CC=C(C=C1)S(=O)(=O)NC1=NC(C)=CC(C)=N1
RETENTIONTIME: 
CCS: 196.075681
IONMODE: Negative
INSTRUMENTTYPE: LC-ESI-ITFT
INSTRUMENT: 
COLLISIONENERGY: 90
Comment: registered in MassBank
Num Peaks: 3
92.0508	212
106.0412	1000
122.0724	500

NAME: N4-Acetylsulfamethazine; LC-ESI-ITFT; MS2; CE
PRECURSORMZ: 319.087035
PRECURSORTYPE: [M-H]-
FORMULA: C14H16N4O3S
Ontology: Benzenesulfonamides
INCHIKEY: LJKAKWDUZRJNPJ-UHFFFAOYSA-N
SMILES: CC(O)=NC1=CC=C(C=C1)S(=O)(=O)NC1=NC(C)=CC(C)=N1
RETENTIONTIME: 
CCS: 196.075681
IONMODE: Negative
INSTRUMENTTYPE: LC-ESI-ITFT
INSTRUMENT: 
COLLISIONENERGY: 30
Comment: registered in MassBank
Num Peaks: 5
134.0611	1000
164.0824	61
205.01511	44
255.125	94
319.08609	956

NAME: N4-Acetylsulfamethazine; LC-ESI-ITFT; MS2; CE
PRECURSORMZ: 319.087035
PRECURSORTYPE: [M-H]-
FORMULA: C14H16N4O3S
Ontology: Benzenesulfonamides
INCHIKEY: LJKAKWDUZRJNPJ-UHFFFAOYSA-N
SMILES: CC(O)=NC1=CC=C(C=C1)S(=O)(=O)NC1=NC(C)=CC(C)=N1
RETENTIONTIME: 
CCS: 196.075681
IONMODE: Negative
INSTRUMENTTYPE: LC-ESI-ITFT
INSTRUMENT: 
COLLISIONENERGY: 45
Comment: registered in MassBank
Num Peaks: 4
106.0412	178
122.0724	59
134.0611	1000
171.0925	55

NAME: N4-Acetylsulfamethazine; LC-ESI-ITFT; MS2; CE
PRECURSORMZ: 319.087035
PRECURSORTYPE: [M-H]-
FORMULA: C14H16N4O3S
Ontology: Benzenesulfonamides
INCHIKEY: LJKAKWDUZRJNPJ-UHFFFAOYSA-N
SMILES: CC(O)=NC1=CC=C(C=C1)S(=O)(=O)NC1=NC(C)=CC(C)=N1
RETENTIONTIME: 
CCS: 196.075681
IONMODE: Negative
INSTRUMENTTYPE: LC-ESI-ITFT
INSTRUMENT: 
COLLISIONENERGY: 60
Comment: registered in MassBank
Num Peaks: 5
92.0506	172
106.0412	539
122.0723	386
134.06129	1000
171.0923	77

NAME: N4-Acetylsulfamethazine; LC-ESI-ITFT; MS2; CE
PRECURSORMZ: 319.087035
PRECURSORTYPE: [M-H]-
FORMULA: C14H16N4O3S
Ontology: Benzenesulfonamides
INCHIKEY: LJKAKWDUZRJNPJ-UHFFFAOYSA-N
SMILES: CC(O)=NC1=CC=C(C=C1)S(=O)(=O)NC1=NC(C)=CC(C)=N1
RETENTIONTIME: 
CCS: 196.075681
IONMODE: Negative
INSTRUMENTTYPE: LC-ESI-ITFT
INSTRUMENT: 
COLLISIONENERGY: 75
Comment: registered in MassBank
Num Peaks: 4
92.0505	432
106.0411	1000
122.0725	766
134.061	384

NAME: N4-Acetylsulfamethazine; LC-ESI-ITFT; MS2; CE
PRECURSORMZ: 319.087035
PRECURSORTYPE: [M-H]-
FORMULA: C14H16N4O3S
Ontology: Benzenesulfonamides
INCHIKEY: LJKAKWDUZRJNPJ-UHFFFAOYSA-N
SMILES: CC(O)=NC1=CC=C(C=C1)S(=O)(=O)NC1=NC(C)=CC(C)=N1
RETENTIONTIME: 
CCS: 196.075681
IONMODE: Negative
INSTRUMENTTYPE: LC-ESI-ITFT
INSTRUMENT: 
COLLISIONENERGY: 90
Comment: registered in MassBank
Num Peaks: 3
92.0507	365
106.0411	1000
122.0727	412

NAME: N4-Acetylsulfadiazine; LC-ESI-ITFT; MS2; CE
PRECURSORMZ: 291.055735
PRECURSORTYPE: [M-H]-
FORMULA: C12H12N4O3S
Ontology: Benzenesulfonamides
INCHIKEY: NJIZUWGMNCUKGU-UHFFFAOYSA-N
SMILES: CC(O)=NC1=CC=C(C=C1)S(=O)(=O)NC1=NC=CC=N1
RETENTIONTIME: 
CCS: 179.8507499
IONMODE: Negative
INSTRUMENTTYPE: LC-ESI-ITFT
INSTRUMENT: 
COLLISIONENERGY: 35
Comment: registered in MassBank
Num Peaks: 8
92.0257	11
92.0507	18
94.0413	15
134.06149	453
136.0518	51
211.09911	134
227.09441	1000
291.0564	19

NAME: N4-Acetylsulfadiazine; LC-ESI-ITFT; MS2; CE
PRECURSORMZ: 291.055735
PRECURSORTYPE: [M-H]-
FORMULA: C12H12N4O3S
Ontology: Benzenesulfonamides
INCHIKEY: NJIZUWGMNCUKGU-UHFFFAOYSA-N
SMILES: CC(O)=NC1=CC=C(C=C1)S(=O)(=O)NC1=NC=CC=N1
RETENTIONTIME: 
CCS: 179.8507499
IONMODE: Negative
INSTRUMENTTYPE: LC-ESI-ITFT
INSTRUMENT: 
COLLISIONENERGY: 30
Comment: registered in MassBank
Num Peaks: 2
134.061	653
227.0938	1000

NAME: N4-Acetylsulfadiazine; LC-ESI-ITFT; MS2; CE
PRECURSORMZ: 291.055735
PRECURSORTYPE: [M-H]-
FORMULA: C12H12N4O3S
Ontology: Benzenesulfonamides
INCHIKEY: NJIZUWGMNCUKGU-UHFFFAOYSA-N
SMILES: CC(O)=NC1=CC=C(C=C1)S(=O)(=O)NC1=NC=CC=N1
RETENTIONTIME: 
CCS: 179.8507499
IONMODE: Negative
INSTRUMENTTYPE: LC-ESI-ITFT
INSTRUMENT: 
COLLISIONENERGY: 45
Comment: registered in MassBank
Num Peaks: 3
92.0253	178
134.0612	1000
227.0934	922

NAME: N4-Acetylsulfadiazine; LC-ESI-ITFT; MS2; CE
PRECURSORMZ: 291.055735
PRECURSORTYPE: [M-H]-
FORMULA: C12H12N4O3S
Ontology: Benzenesulfonamides
INCHIKEY: NJIZUWGMNCUKGU-UHFFFAOYSA-N
SMILES: CC(O)=NC1=CC=C(C=C1)S(=O)(=O)NC1=NC=CC=N1
RETENTIONTIME: 
CCS: 179.8507499
IONMODE: Negative
INSTRUMENTTYPE: LC-ESI-ITFT
INSTRUMENT: 
COLLISIONENERGY: 60
Comment: registered in MassBank
Num Peaks: 3
92.0255	385
134.0614	888
184.07561	1000

NAME: N4-Acetylsulfadiazine; LC-ESI-ITFT; MS2; CE
PRECURSORMZ: 291.055735
PRECURSORTYPE: [M-H]-
FORMULA: C12H12N4O3S
Ontology: Benzenesulfonamides
INCHIKEY: NJIZUWGMNCUKGU-UHFFFAOYSA-N
SMILES: CC(O)=NC1=CC=C(C=C1)S(=O)(=O)NC1=NC=CC=N1
RETENTIONTIME: 
CCS: 179.8507499
IONMODE: Negative
INSTRUMENTTYPE: LC-ESI-ITFT
INSTRUMENT: 
COLLISIONENERGY: 75
Comment: registered in MassBank
Num Peaks: 4
92.0255	607
92.0504	432
94.0412	438
184.0752	1000

NAME: N4-Acetylsulfadiazine; LC-ESI-ITFT; MS2; CE
PRECURSORMZ: 291.055735
PRECURSORTYPE: [M-H]-
FORMULA: C12H12N4O3S
Ontology: Benzenesulfonamides
INCHIKEY: NJIZUWGMNCUKGU-UHFFFAOYSA-N
SMILES: CC(O)=NC1=CC=C(C=C1)S(=O)(=O)NC1=NC=CC=N1
RETENTIONTIME: 
CCS: 179.8507499
IONMODE: Negative
INSTRUMENTTYPE: LC-ESI-ITFT
INSTRUMENT: 
COLLISIONENERGY: 90
Comment: registered in MassBank
Num Peaks: 4
92.0254	1000
94.0408	269
134.0616	322
184.0759	242

NAME: N4-Acetylsulfadiazine; LC-ESI-ITFT; MS2; CE
PRECURSORMZ: 291.055735
PRECURSORTYPE: [M-H]-
FORMULA: C12H12N4O3S
Ontology: Benzenesulfonamides
INCHIKEY: NJIZUWGMNCUKGU-UHFFFAOYSA-N
SMILES: CC(O)=NC1=CC=C(C=C1)S(=O)(=O)NC1=NC=CC=N1
RETENTIONTIME: 
CCS: 179.8507499
IONMODE: Negative
INSTRUMENTTYPE: LC-ESI-ITFT
INSTRUMENT: 
COLLISIONENERGY: 15
Comment: registered in MassBank
Num Peaks: 2
227.0948	39
291.05511	1000

NAME: N4-Acetylsulfadiazine; LC-ESI-ITFT; MS2; CE
PRECURSORMZ: 291.055735
PRECURSORTYPE: [M-H]-
FORMULA: C12H12N4O3S
Ontology: Benzenesulfonamides
INCHIKEY: NJIZUWGMNCUKGU-UHFFFAOYSA-N
SMILES: CC(O)=NC1=CC=C(C=C1)S(=O)(=O)NC1=NC=CC=N1
RETENTIONTIME: 
CCS: 179.8507499
IONMODE: Negative
INSTRUMENTTYPE: LC-ESI-ITFT
INSTRUMENT: 
COLLISIONENERGY: 30
Comment: registered in MassBank
Num Peaks: 3
134.0611	563
227.09399	1000
291.0549	817

NAME: N4-Acetylsulfadiazine; LC-ESI-ITFT; MS2; CE
PRECURSORMZ: 291.055735
PRECURSORTYPE: [M-H]-
FORMULA: C12H12N4O3S
Ontology: Benzenesulfonamides
INCHIKEY: NJIZUWGMNCUKGU-UHFFFAOYSA-N
SMILES: CC(O)=NC1=CC=C(C=C1)S(=O)(=O)NC1=NC=CC=N1
RETENTIONTIME: 
CCS: 179.8507499
IONMODE: Negative
INSTRUMENTTYPE: LC-ESI-ITFT
INSTRUMENT: 
COLLISIONENERGY: 45
Comment: registered in MassBank
Num Peaks: 5
92.0255	132
94.0412	49
134.0611	838
184.07539	116
227.0939	1000

NAME: N4-Acetylsulfadiazine; LC-ESI-ITFT; MS2; CE
PRECURSORMZ: 291.055735
PRECURSORTYPE: [M-H]-
FORMULA: C12H12N4O3S
Ontology: Benzenesulfonamides
INCHIKEY: NJIZUWGMNCUKGU-UHFFFAOYSA-N
SMILES: CC(O)=NC1=CC=C(C=C1)S(=O)(=O)NC1=NC=CC=N1
RETENTIONTIME: 
CCS: 179.8507499
IONMODE: Negative
INSTRUMENTTYPE: LC-ESI-ITFT
INSTRUMENT: 
COLLISIONENERGY: 60
Comment: registered in MassBank
Num Peaks: 6
92.0254	426
92.0504	173
94.0411	197
134.06129	1000
184.0752	798
227.0937	547

NAME: N4-Acetylsulfadiazine; LC-ESI-ITFT; MS2; CE
PRECURSORMZ: 291.055735
PRECURSORTYPE: [M-H]-
FORMULA: C12H12N4O3S
Ontology: Benzenesulfonamides
INCHIKEY: NJIZUWGMNCUKGU-UHFFFAOYSA-N
SMILES: CC(O)=NC1=CC=C(C=C1)S(=O)(=O)NC1=NC=CC=N1
RETENTIONTIME: 
CCS: 179.8507499
IONMODE: Negative
INSTRUMENTTYPE: LC-ESI-ITFT
INSTRUMENT: 
COLLISIONENERGY: 75
Comment: registered in MassBank
Num Peaks: 5
92.0255	891
92.0509	301
94.0412	535
184.07539	1000
227.0947	220

NAME: N4-Acetylsulfathiazole; LC-ESI-ITFT; MS2; CE
PRECURSORMZ: 296.016906
PRECURSORTYPE: [M-H]-
FORMULA: C11H11N3O3S2
Ontology: Benzenesulfonamides
INCHIKEY: KXNXWINFSDKMHD-UHFFFAOYSA-N
SMILES: CC(O)=NC1=CC=C(C=C1)S(=O)(=O)NC1=NC=CS1
RETENTIONTIME: 
CCS: 175.189483
IONMODE: Negative
INSTRUMENTTYPE: LC-ESI-ITFT
INSTRUMENT: 
COLLISIONENERGY: 35
Comment: registered in MassBank
Num Peaks: 3
134.06129	111
198.0231	1000
205.0441	337

NAME: N4-Acetylsulfathiazole; LC-ESI-ITFT; MS2; CE
PRECURSORMZ: 296.016906
PRECURSORTYPE: [M-H]-
FORMULA: C11H11N3O3S2
Ontology: Benzenesulfonamides
INCHIKEY: KXNXWINFSDKMHD-UHFFFAOYSA-N
SMILES: CC(O)=NC1=CC=C(C=C1)S(=O)(=O)NC1=NC=CS1
RETENTIONTIME: 
CCS: 175.189483
IONMODE: Negative
INSTRUMENTTYPE: LC-ESI-ITFT
INSTRUMENT: 
COLLISIONENERGY: 30
Comment: registered in MassBank
Num Peaks: 2
198.0233	1000
296.01761	664

NAME: N4-Acetylsulfathiazole; LC-ESI-ITFT; MS2; CE
PRECURSORMZ: 296.016906
PRECURSORTYPE: [M-H]-
FORMULA: C11H11N3O3S2
Ontology: Benzenesulfonamides
INCHIKEY: KXNXWINFSDKMHD-UHFFFAOYSA-N
SMILES: CC(O)=NC1=CC=C(C=C1)S(=O)(=O)NC1=NC=CS1
RETENTIONTIME: 
CCS: 175.189483
IONMODE: Negative
INSTRUMENTTYPE: LC-ESI-ITFT
INSTRUMENT: 
COLLISIONENERGY: 30
Comment: registered in MassBank
Num Peaks: 1
198.0237	1000

NAME: Bentazone; LC-ESI-ITFT; MS2; CE
PRECURSORMZ: 239.049587
PRECURSORTYPE: [M-H]-
FORMULA: C10H12N2O3S
Ontology: Benzenoids
INCHIKEY: ZOMSMJKLGFBRBS-UHFFFAOYSA-N
SMILES: CC(C)N1C(=O)C2=CC=CC=C2NS1(=O)=O
RETENTIONTIME: 
CCS: 150.3587541
IONMODE: Negative
INSTRUMENTTYPE: LC-ESI-ITFT
INSTRUMENT: 
COLLISIONENERGY: 35
Comment: registered in MassBank
Num Peaks: 6
132.033	132
133.0408	76
147.0817	22
175.088	785
197.0029	1000
239.0498	41

NAME: Bentazone; LC-ESI-ITFT; MS2; CE
PRECURSORMZ: 239.049587
PRECURSORTYPE: [M-H]-
FORMULA: C10H12N2O3S
Ontology: Benzenoids
INCHIKEY: ZOMSMJKLGFBRBS-UHFFFAOYSA-N
SMILES: CC(C)N1C(=O)C2=CC=CC=C2NS1(=O)=O
RETENTIONTIME: 
CCS: 150.3587541
IONMODE: Negative
INSTRUMENTTYPE: LC-ESI-ITFT
INSTRUMENT: 
COLLISIONENERGY: 30
Comment: registered in MassBank
Num Peaks: 3
175.0878	26
197.0033	18
239.0497	1000

NAME: Bentazone; LC-ESI-ITFT; MS2; CE
PRECURSORMZ: 239.049587
PRECURSORTYPE: [M-H]-
FORMULA: C10H12N2O3S
Ontology: Benzenoids
INCHIKEY: ZOMSMJKLGFBRBS-UHFFFAOYSA-N
SMILES: CC(C)N1C(=O)C2=CC=CC=C2NS1(=O)=O
RETENTIONTIME: 
CCS: 150.3587541
IONMODE: Negative
INSTRUMENTTYPE: LC-ESI-ITFT
INSTRUMENT: 
COLLISIONENERGY: 45
Comment: registered in MassBank
Num Peaks: 6
132.0329	228
133.0408	108
175.0878	395
195.9957	28
197.0027	329
239.04961	1000

NAME: Bentazone; LC-ESI-ITFT; MS2; CE
PRECURSORMZ: 239.049587
PRECURSORTYPE: [M-H]-
FORMULA: C10H12N2O3S
Ontology: Benzenoids
INCHIKEY: ZOMSMJKLGFBRBS-UHFFFAOYSA-N
SMILES: CC(C)N1C(=O)C2=CC=CC=C2NS1(=O)=O
RETENTIONTIME: 
CCS: 150.3587541
IONMODE: Negative
INSTRUMENTTYPE: LC-ESI-ITFT
INSTRUMENT: 
COLLISIONENERGY: 60
Comment: registered in MassBank
Num Peaks: 10
79.9572	16
105.0349	15
117.0459	49
132.0329	1000
133.0407	398
147.0818	29
175.0876	334
195.9949	117
197.0027	392
239.04939	208

NAME: Bentazone; LC-ESI-ITFT; MS2; CE
PRECURSORMZ: 239.049587
PRECURSORTYPE: [M-H]-
FORMULA: C10H12N2O3S
Ontology: Benzenoids
INCHIKEY: ZOMSMJKLGFBRBS-UHFFFAOYSA-N
SMILES: CC(C)N1C(=O)C2=CC=CC=C2NS1(=O)=O
RETENTIONTIME: 
CCS: 150.3587541
IONMODE: Negative
INSTRUMENTTYPE: LC-ESI-ITFT
INSTRUMENT: 
COLLISIONENERGY: 75
Comment: registered in MassBank
Num Peaks: 8
79.9572	20
105.0342	31
117.0459	97
132.0329	1000
133.0407	372
175.0878	43
195.9948	60
197.0029	97

NAME: Bentazone; LC-ESI-ITFT; MS2; CE
PRECURSORMZ: 239.049587
PRECURSORTYPE: [M-H]-
FORMULA: C10H12N2O3S
Ontology: Benzenoids
INCHIKEY: ZOMSMJKLGFBRBS-UHFFFAOYSA-N
SMILES: CC(C)N1C(=O)C2=CC=CC=C2NS1(=O)=O
RETENTIONTIME: 
CCS: 150.3587541
IONMODE: Negative
INSTRUMENTTYPE: LC-ESI-ITFT
INSTRUMENT: 
COLLISIONENERGY: 90
Comment: registered in MassBank
Num Peaks: 5
79.9573	71
105.0344	59
117.046	190
132.0329	1000
133.0406	353

NAME: Bentazone; LC-ESI-ITFT; MS2; CE
PRECURSORMZ: 239.049587
PRECURSORTYPE: [M-H]-
FORMULA: C10H12N2O3S
Ontology: Benzenoids
INCHIKEY: ZOMSMJKLGFBRBS-UHFFFAOYSA-N
SMILES: CC(C)N1C(=O)C2=CC=CC=C2NS1(=O)=O
RETENTIONTIME: 
CCS: 150.3587541
IONMODE: Negative
INSTRUMENTTYPE: LC-ESI-ITFT
INSTRUMENT: 
COLLISIONENERGY: 30
Comment: registered in MassBank
Num Peaks: 3
175.08771	25
197.0023	14
239.0498	1000

NAME: Bentazone; LC-ESI-ITFT; MS2; CE
PRECURSORMZ: 239.049587
PRECURSORTYPE: [M-H]-
FORMULA: C10H12N2O3S
Ontology: Benzenoids
INCHIKEY: ZOMSMJKLGFBRBS-UHFFFAOYSA-N
SMILES: CC(C)N1C(=O)C2=CC=CC=C2NS1(=O)=O
RETENTIONTIME: 
CCS: 150.3587541
IONMODE: Negative
INSTRUMENTTYPE: LC-ESI-ITFT
INSTRUMENT: 
COLLISIONENERGY: 45
Comment: registered in MassBank
Num Peaks: 7
132.03281	172
133.0406	96
147.08141	11
175.08771	363
195.99471	29
197.00259	293
239.04961	1000

NAME: Bentazone; LC-ESI-ITFT; MS2; CE
PRECURSORMZ: 239.049587
PRECURSORTYPE: [M-H]-
FORMULA: C10H12N2O3S
Ontology: Benzenoids
INCHIKEY: ZOMSMJKLGFBRBS-UHFFFAOYSA-N
SMILES: CC(C)N1C(=O)C2=CC=CC=C2NS1(=O)=O
RETENTIONTIME: 
CCS: 150.3587541
IONMODE: Negative
INSTRUMENTTYPE: LC-ESI-ITFT
INSTRUMENT: 
COLLISIONENERGY: 60
Comment: registered in MassBank
Num Peaks: 9
116.0376	12
117.0457	39
132.0329	1000
133.0407	347
147.08121	17
175.08771	273
195.99471	110
197.0027	370
239.0495	178

NAME: Bentazone; LC-ESI-ITFT; MS2; CE
PRECURSORMZ: 239.049587
PRECURSORTYPE: [M-H]-
FORMULA: C10H12N2O3S
Ontology: Benzenoids
INCHIKEY: ZOMSMJKLGFBRBS-UHFFFAOYSA-N
SMILES: CC(C)N1C(=O)C2=CC=CC=C2NS1(=O)=O
RETENTIONTIME: 
CCS: 150.3587541
IONMODE: Negative
INSTRUMENTTYPE: LC-ESI-ITFT
INSTRUMENT: 
COLLISIONENERGY: 75
Comment: registered in MassBank
Num Peaks: 10
79.9575	14
105.0344	20
116.0379	17
117.0458	72
132.0329	1000
133.0407	382
167.9995	13
175.088	36
195.9948	56
197.00259	112

NAME: Bentazone; LC-ESI-ITFT; MS2; CE
PRECURSORMZ: 239.049587
PRECURSORTYPE: [M-H]-
FORMULA: C10H12N2O3S
Ontology: Benzenoids
INCHIKEY: ZOMSMJKLGFBRBS-UHFFFAOYSA-N
SMILES: CC(C)N1C(=O)C2=CC=CC=C2NS1(=O)=O
RETENTIONTIME: 
CCS: 150.3587541
IONMODE: Negative
INSTRUMENTTYPE: LC-ESI-ITFT
INSTRUMENT: 
COLLISIONENERGY: 90
Comment: registered in MassBank
Num Peaks: 8
79.9574	33
105.0342	19
117.0455	73
132.03281	1000
133.0405	233
167.9998	22
197.00301	25
239.0499	12

NAME: Bentazone; LC-ESI-ITFT; MS2; CE
PRECURSORMZ: 239.049587
PRECURSORTYPE: [M-H]-
FORMULA: C10H12N2O3S
Ontology: Benzenoids
INCHIKEY: ZOMSMJKLGFBRBS-UHFFFAOYSA-N
SMILES: CC(C)N1C(=O)C2=CC=CC=C2NS1(=O)=O
RETENTIONTIME: 
CCS: 150.3587541
IONMODE: Negative
INSTRUMENTTYPE: LC-ESI-ITFT
INSTRUMENT: 
COLLISIONENERGY: 35
Comment: registered in MassBank
Num Peaks: 6
132.033	99
133.0408	50
147.0815	10
175.088	765
197.0029	1000
239.0495	20

NAME: Dinoseb; LC-ESI-ITFT; MS2; CE
PRECURSORMZ: 239.067345
PRECURSORTYPE: [M-H]-
FORMULA: C10H12N2O5
Ontology: Dinitrophenols
INCHIKEY: OWZPCEFYPSAJFR-UHFFFAOYNA-N
SMILES: CCC(C)C1=C(O)C(=CC(=C1)N(=O)=O)N(=O)=O
RETENTIONTIME: 
CCS: 149.9879836
IONMODE: Negative
INSTRUMENTTYPE: LC-ESI-ITFT
INSTRUMENT: 
COLLISIONENERGY: 35
Comment: registered in MassBank
Num Peaks: 20
109.0169	5
137.0117	11
149.0354	9
174.0562	7
176.0352	14
179.0714	34
180.0304	16
191.0589	28
192.0667	19
193.0256	84
194.04601	1000
203.04581	6
207.04131	13
208.062	20
209.0694	125
210.02831	91
221.0569	121
222.06461	181
224.0439	9
239.06731	168

NAME: Dinoseb; LC-ESI-ITFT; MS2; CE
PRECURSORMZ: 239.067345
PRECURSORTYPE: [M-H]-
FORMULA: C10H12N2O5
Ontology: Dinitrophenols
INCHIKEY: OWZPCEFYPSAJFR-UHFFFAOYNA-N
SMILES: CCC(C)C1=C(O)C(=CC(=C1)N(=O)=O)N(=O)=O
RETENTIONTIME: 
CCS: 149.9879836
IONMODE: Negative
INSTRUMENTTYPE: LC-ESI-ITFT
INSTRUMENT: 
COLLISIONENERGY: 30
Comment: registered in MassBank
Num Peaks: 2
194.0466	9
239.06731	1000

NAME: Dinoseb; LC-ESI-ITFT; MS2; CE
PRECURSORMZ: 239.067345
PRECURSORTYPE: [M-H]-
FORMULA: C10H12N2O5
Ontology: Dinitrophenols
INCHIKEY: OWZPCEFYPSAJFR-UHFFFAOYNA-N
SMILES: CCC(C)C1=C(O)C(=CC(=C1)N(=O)=O)N(=O)=O
RETENTIONTIME: 
CCS: 149.9879836
IONMODE: Negative
INSTRUMENTTYPE: LC-ESI-ITFT
INSTRUMENT: 
COLLISIONENERGY: 45
Comment: registered in MassBank
Num Peaks: 16
151.0761	9
176.0356	9
179.07179	24
180.0296	12
190.05099	6
192.0667	43
193.0255	152
194.04581	235
207.04131	30
208.06059	10
209.0211	16
209.0692	27
210.0278	35
221.0575	21
222.0645	62
239.06731	1000

NAME: Dinoseb; LC-ESI-ITFT; MS2; CE
PRECURSORMZ: 239.067345
PRECURSORTYPE: [M-H]-
FORMULA: C10H12N2O5
Ontology: Dinitrophenols
INCHIKEY: OWZPCEFYPSAJFR-UHFFFAOYNA-N
SMILES: CCC(C)C1=C(O)C(=CC(=C1)N(=O)=O)N(=O)=O
RETENTIONTIME: 
CCS: 149.9879836
IONMODE: Negative
INSTRUMENTTYPE: LC-ESI-ITFT
INSTRUMENT: 
COLLISIONENERGY: 60
Comment: registered in MassBank
Num Peaks: 16
136.0406	35
151.0764	56
176.03551	89
178.0508	82
179.0714	73
180.0302	67
192.0666	284
193.02521	1000
194.04581	624
207.041	144
209.0199	90
209.0688	22
210.02769	26
221.05611	34
222.0643	76
239.0675	288

NAME: Dinoseb; LC-ESI-ITFT; MS2; CE
PRECURSORMZ: 239.067345
PRECURSORTYPE: [M-H]-
FORMULA: C10H12N2O5
Ontology: Dinitrophenols
INCHIKEY: OWZPCEFYPSAJFR-UHFFFAOYNA-N
SMILES: CCC(C)C1=C(O)C(=CC(=C1)N(=O)=O)N(=O)=O
RETENTIONTIME: 
CCS: 149.9879836
IONMODE: Negative
INSTRUMENTTYPE: LC-ESI-ITFT
INSTRUMENT: 
COLLISIONENERGY: 75
Comment: registered in MassBank
Num Peaks: 15
121.0294	61
134.02451	132
136.0403	89
151.0761	78
162.0191	50
164.04781	68
176.0354	164
177.04311	84
178.05119	177
179.07111	25
192.06641	279
193.02541	1000
194.0453	481
207.0414	154
209.02029	239

NAME: Dinoseb; LC-ESI-ITFT; MS2; CE
PRECURSORMZ: 239.067345
PRECURSORTYPE: [M-H]-
FORMULA: C10H12N2O5
Ontology: Dinitrophenols
INCHIKEY: OWZPCEFYPSAJFR-UHFFFAOYNA-N
SMILES: CCC(C)C1=C(O)C(=CC(=C1)N(=O)=O)N(=O)=O
RETENTIONTIME: 
CCS: 149.9879836
IONMODE: Negative
INSTRUMENTTYPE: LC-ESI-ITFT
INSTRUMENT: 
COLLISIONENERGY: 90
Comment: registered in MassBank
Num Peaks: 16
121.0292	80
126.011	31
134.0247	1000
136.0408	80
148.03999	47
149.02431	46
151.0771	42
162.01939	148
176.0354	186
177.0433	45
178.0508	149
192.0666	66
193.0257	325
194.0451	177
207.0414	56
209.0202	150

NAME: Dinoseb; LC-ESI-ITFT; MS2; CE
PRECURSORMZ: 239.067345
PRECURSORTYPE: [M-H]-
FORMULA: C10H12N2O5
Ontology: Dinitrophenols
INCHIKEY: OWZPCEFYPSAJFR-UHFFFAOYNA-N
SMILES: CCC(C)C1=C(O)C(=CC(=C1)N(=O)=O)N(=O)=O
RETENTIONTIME: 
CCS: 149.9879836
IONMODE: Negative
INSTRUMENTTYPE: LC-ESI-ITFT
INSTRUMENT: 
COLLISIONENERGY: 30
Comment: registered in MassBank
Num Peaks: 2
194.04581	8
239.06731	1000

NAME: Dinoseb; LC-ESI-ITFT; MS2; CE
PRECURSORMZ: 239.067345
PRECURSORTYPE: [M-H]-
FORMULA: C10H12N2O5
Ontology: Dinitrophenols
INCHIKEY: OWZPCEFYPSAJFR-UHFFFAOYNA-N
SMILES: CCC(C)C1=C(O)C(=CC(=C1)N(=O)=O)N(=O)=O
RETENTIONTIME: 
CCS: 149.9879836
IONMODE: Negative
INSTRUMENTTYPE: LC-ESI-ITFT
INSTRUMENT: 
COLLISIONENERGY: 45
Comment: registered in MassBank
Num Peaks: 15
151.076	8
176.0351	12
179.07111	19
180.0302	9
192.0663	38
193.0253	148
194.0457	230
207.0408	28
208.061	10
209.0206	13
209.0688	22
210.02831	26
221.0565	18
222.0645	64
239.0672	1000

NAME: Dinoseb; LC-ESI-ITFT; MS2; CE
PRECURSORMZ: 239.067345
PRECURSORTYPE: [M-H]-
FORMULA: C10H12N2O5
Ontology: Dinitrophenols
INCHIKEY: OWZPCEFYPSAJFR-UHFFFAOYNA-N
SMILES: CCC(C)C1=C(O)C(=CC(=C1)N(=O)=O)N(=O)=O
RETENTIONTIME: 
CCS: 149.9879836
IONMODE: Negative
INSTRUMENTTYPE: LC-ESI-ITFT
INSTRUMENT: 
COLLISIONENERGY: 60
Comment: registered in MassBank
Num Peaks: 20
136.0403	36
151.0764	68
164.03481	23
164.04761	19
176.03551	89
177.043	21
178.0508	64
179.0712	67
180.03	34
192.0665	267
193.0253	1000
194.04559	710
207.041	137
208.061	33
209.0199	107
209.0688	20
210.02811	26
221.0565	22
222.0645	75
239.06731	295

NAME: Dinoseb; LC-ESI-ITFT; MS2; CE
PRECURSORMZ: 239.067345
PRECURSORTYPE: [M-H]-
FORMULA: C10H12N2O5
Ontology: Dinitrophenols
INCHIKEY: OWZPCEFYPSAJFR-UHFFFAOYNA-N
SMILES: CCC(C)C1=C(O)C(=CC(=C1)N(=O)=O)N(=O)=O
RETENTIONTIME: 
CCS: 149.9879836
IONMODE: Negative
INSTRUMENTTYPE: LC-ESI-ITFT
INSTRUMENT: 
COLLISIONENERGY: 75
Comment: registered in MassBank
Num Peaks: 20
121.0294	33
134.02451	99
136.0403	51
149.0246	31
150.056	23
151.0764	71
162.02	44
163.0276	24
164.0354	37
164.0479	67
176.0351	134
177.04289	73
178.0508	157
180.03011	30
190.05051	20
192.0663	222
193.0253	1000
194.0457	394
207.04089	126
209.0202	209

NAME: Dinoseb; LC-ESI-ITFT; MS2; CE
PRECURSORMZ: 239.067345
PRECURSORTYPE: [M-H]-
FORMULA: C10H12N2O5
Ontology: Dinitrophenols
INCHIKEY: OWZPCEFYPSAJFR-UHFFFAOYNA-N
SMILES: CCC(C)C1=C(O)C(=CC(=C1)N(=O)=O)N(=O)=O
RETENTIONTIME: 
CCS: 149.9879836
IONMODE: Negative
INSTRUMENTTYPE: LC-ESI-ITFT
INSTRUMENT: 
COLLISIONENERGY: 90
Comment: registered in MassBank
Num Peaks: 19
121.029	66
126.0116	23
134.0246	1000
136.0399	55
148.0406	41
149.02409	69
150.05611	43
151.077	39
162.0195	157
164.0475	54
176.03481	118
177.0426	46
178.0511	61
192.06731	57
193.02521	356
194.04581	102
207.0407	38
209.0202	111
239.06709	39

NAME: Dinoseb; LC-ESI-ITFT; MS2; CE
PRECURSORMZ: 239.067345
PRECURSORTYPE: [M-H]-
FORMULA: C10H12N2O5
Ontology: Dinitrophenols
INCHIKEY: OWZPCEFYPSAJFR-UHFFFAOYNA-N
SMILES: CCC(C)C1=C(O)C(=CC(=C1)N(=O)=O)N(=O)=O
RETENTIONTIME: 
CCS: 149.9879836
IONMODE: Negative
INSTRUMENTTYPE: LC-ESI-ITFT
INSTRUMENT: 
COLLISIONENERGY: 35
Comment: registered in MassBank
Num Peaks: 16
137.01221	5
149.03551	6
176.03529	9
179.0712	18
180.0298	7
191.05881	15
192.0661	6
193.02541	67
194.0459	1000
207.04089	9
208.0609	7
209.06931	76
210.02789	58
221.05659	83
222.06441	123
239.06709	39

NAME: Mesotrione; LC-ESI-ITFT; MS2; CE
PRECURSORMZ: 338.033996
PRECURSORTYPE: [M-H]-
FORMULA: C14H13NO7S
Ontology: Benzoylcyclohexane-1,3-diones
INCHIKEY: KPUREKXXPHOJQT-UHFFFAOYSA-N
SMILES: CS(=O)(=O)C1=CC(=C(C=C1)C(=O)C1C(=O)CCCC1=O)N(=O)=O
RETENTIONTIME: 
CCS: 186.6399299
IONMODE: Negative
INSTRUMENTTYPE: LC-ESI-ITFT
INSTRUMENT: 
COLLISIONENERGY: 35
Comment: registered in MassBank
Num Peaks: 1
291.03299	1000

NAME: Mesotrione; LC-ESI-ITFT; MS2; CE
PRECURSORMZ: 338.033996
PRECURSORTYPE: [M-H]-
FORMULA: C14H13NO7S
Ontology: Benzoylcyclohexane-1,3-diones
INCHIKEY: KPUREKXXPHOJQT-UHFFFAOYSA-N
SMILES: CS(=O)(=O)C1=CC(=C(C=C1)C(=O)C1C(=O)CCCC1=O)N(=O)=O
RETENTIONTIME: 
CCS: 186.6399299
IONMODE: Negative
INSTRUMENTTYPE: LC-ESI-ITFT
INSTRUMENT: 
COLLISIONENERGY: 15
Comment: registered in MassBank
Num Peaks: 1
291.03329	1000

NAME: Mesotrione; LC-ESI-ITFT; MS2; CE
PRECURSORMZ: 338.033996
PRECURSORTYPE: [M-H]-
FORMULA: C14H13NO7S
Ontology: Benzoylcyclohexane-1,3-diones
INCHIKEY: KPUREKXXPHOJQT-UHFFFAOYSA-N
SMILES: CS(=O)(=O)C1=CC(=C(C=C1)C(=O)C1C(=O)CCCC1=O)N(=O)=O
RETENTIONTIME: 
CCS: 186.6399299
IONMODE: Negative
INSTRUMENTTYPE: LC-ESI-ITFT
INSTRUMENT: 
COLLISIONENERGY: 30
Comment: registered in MassBank
Num Peaks: 1
291.03311	1000

NAME: Mesotrione; LC-ESI-ITFT; MS2; CE
PRECURSORMZ: 338.033996
PRECURSORTYPE: [M-H]-
FORMULA: C14H13NO7S
Ontology: Benzoylcyclohexane-1,3-diones
INCHIKEY: KPUREKXXPHOJQT-UHFFFAOYSA-N
SMILES: CS(=O)(=O)C1=CC(=C(C=C1)C(=O)C1C(=O)CCCC1=O)N(=O)=O
RETENTIONTIME: 
CCS: 186.6399299
IONMODE: Negative
INSTRUMENTTYPE: LC-ESI-ITFT
INSTRUMENT: 
COLLISIONENERGY: 45
Comment: registered in MassBank
Num Peaks: 1
291.0332	1000

NAME: Mesotrione; LC-ESI-ITFT; MS2; CE
PRECURSORMZ: 338.033996
PRECURSORTYPE: [M-H]-
FORMULA: C14H13NO7S
Ontology: Benzoylcyclohexane-1,3-diones
INCHIKEY: KPUREKXXPHOJQT-UHFFFAOYSA-N
SMILES: CS(=O)(=O)C1=CC(=C(C=C1)C(=O)C1C(=O)CCCC1=O)N(=O)=O
RETENTIONTIME: 
CCS: 186.6399299
IONMODE: Negative
INSTRUMENTTYPE: LC-ESI-ITFT
INSTRUMENT: 
COLLISIONENERGY: 60
Comment: registered in MassBank
Num Peaks: 1
215.03419	1000

NAME: Mesotrione; LC-ESI-ITFT; MS2; CE
PRECURSORMZ: 338.033996
PRECURSORTYPE: [M-H]-
FORMULA: C14H13NO7S
Ontology: Benzoylcyclohexane-1,3-diones
INCHIKEY: KPUREKXXPHOJQT-UHFFFAOYSA-N
SMILES: CS(=O)(=O)C1=CC(=C(C=C1)C(=O)C1C(=O)CCCC1=O)N(=O)=O
RETENTIONTIME: 
CCS: 186.6399299
IONMODE: Negative
INSTRUMENTTYPE: LC-ESI-ITFT
INSTRUMENT: 
COLLISIONENERGY: 15
Comment: registered in MassBank
Num Peaks: 1
291.03311	1000

NAME: Mesotrione; LC-ESI-ITFT; MS2; CE
PRECURSORMZ: 338.033996
PRECURSORTYPE: [M-H]-
FORMULA: C14H13NO7S
Ontology: Benzoylcyclohexane-1,3-diones
INCHIKEY: KPUREKXXPHOJQT-UHFFFAOYSA-N
SMILES: CS(=O)(=O)C1=CC(=C(C=C1)C(=O)C1C(=O)CCCC1=O)N(=O)=O
RETENTIONTIME: 
CCS: 186.6399299
IONMODE: Negative
INSTRUMENTTYPE: LC-ESI-ITFT
INSTRUMENT: 
COLLISIONENERGY: 30
Comment: registered in MassBank
Num Peaks: 1
291.0332	1000

NAME: Mesotrione; LC-ESI-ITFT; MS2; CE
PRECURSORMZ: 338.033996
PRECURSORTYPE: [M-H]-
FORMULA: C14H13NO7S
Ontology: Benzoylcyclohexane-1,3-diones
INCHIKEY: KPUREKXXPHOJQT-UHFFFAOYSA-N
SMILES: CS(=O)(=O)C1=CC(=C(C=C1)C(=O)C1C(=O)CCCC1=O)N(=O)=O
RETENTIONTIME: 
CCS: 186.6399299
IONMODE: Negative
INSTRUMENTTYPE: LC-ESI-ITFT
INSTRUMENT: 
COLLISIONENERGY: 45
Comment: registered in MassBank
Num Peaks: 2
215.0341	408
291.03351	1000

NAME: Mesotrione; LC-ESI-ITFT; MS2; CE
PRECURSORMZ: 338.033996
PRECURSORTYPE: [M-H]-
FORMULA: C14H13NO7S
Ontology: Benzoylcyclohexane-1,3-diones
INCHIKEY: KPUREKXXPHOJQT-UHFFFAOYSA-N
SMILES: CS(=O)(=O)C1=CC(=C(C=C1)C(=O)C1C(=O)CCCC1=O)N(=O)=O
RETENTIONTIME: 
CCS: 186.6399299
IONMODE: Negative
INSTRUMENTTYPE: LC-ESI-ITFT
INSTRUMENT: 
COLLISIONENERGY: 35
Comment: registered in MassBank
Num Peaks: 1
291.03281	1000

NAME: Dimethenamid OXA; LC-ESI-ITFT; MS2; CE
PRECURSORMZ: 270.080552
PRECURSORTYPE: [M-H]-
FORMULA: C12H17NO4S
Ontology: Alpha amino acids and derivatives
INCHIKEY: HOYCASTVMCEOTP-UHFFFAOYNA-N
SMILES: COCC(C)N(C(=O)C(O)=O)C1=C(C)SC=C1C
RETENTIONTIME: 
CCS: 161.3912183
IONMODE: Negative
INSTRUMENTTYPE: LC-ESI-ITFT
INSTRUMENT: 
COLLISIONENERGY: 35
Comment: registered in MassBank
Num Peaks: 2
166.0695	13
198.0959	1000

NAME: Dimethenamid OXA; LC-ESI-ITFT; MS2; CE
PRECURSORMZ: 270.080552
PRECURSORTYPE: [M-H]-
FORMULA: C12H17NO4S
Ontology: Alpha amino acids and derivatives
INCHIKEY: HOYCASTVMCEOTP-UHFFFAOYNA-N
SMILES: COCC(C)N(C(=O)C(O)=O)C1=C(C)SC=C1C
RETENTIONTIME: 
CCS: 161.3912183
IONMODE: Negative
INSTRUMENTTYPE: LC-ESI-ITFT
INSTRUMENT: 
COLLISIONENERGY: 15
Comment: registered in MassBank
Num Peaks: 5
124.0225	9
164.05321	5
166.0696	194
198.09579	1000
270.08029	132

NAME: Dimethenamid OXA; LC-ESI-ITFT; MS2; CE
PRECURSORMZ: 270.080552
PRECURSORTYPE: [M-H]-
FORMULA: C12H17NO4S
Ontology: Alpha amino acids and derivatives
INCHIKEY: HOYCASTVMCEOTP-UHFFFAOYNA-N
SMILES: COCC(C)N(C(=O)C(O)=O)C1=C(C)SC=C1C
RETENTIONTIME: 
CCS: 161.3912183
IONMODE: Negative
INSTRUMENTTYPE: LC-ESI-ITFT
INSTRUMENT: 
COLLISIONENERGY: 30
Comment: registered in MassBank
Num Peaks: 11
73.0114	6
97.0113	6
98.007	18
124.0221	14
148.02251	8
150.0378	13
152.0542	15
164.05389	19
166.0696	638
167.04041	7
198.09579	1000

NAME: Dimethenamid OXA; LC-ESI-ITFT; MS2; CE
PRECURSORMZ: 270.080552
PRECURSORTYPE: [M-H]-
FORMULA: C12H17NO4S
Ontology: Alpha amino acids and derivatives
INCHIKEY: HOYCASTVMCEOTP-UHFFFAOYNA-N
SMILES: COCC(C)N(C(=O)C(O)=O)C1=C(C)SC=C1C
RETENTIONTIME: 
CCS: 161.3912183
IONMODE: Negative
INSTRUMENTTYPE: LC-ESI-ITFT
INSTRUMENT: 
COLLISIONENERGY: 45
Comment: registered in MassBank
Num Peaks: 11
73.0118	26
83.9912	29
97.0113	31
98.0067	131
122.0069	38
124.0226	34
150.0379	104
152.0536	158
164.05389	73
166.0697	1000
198.09531	353

NAME: Dimethenamid OXA; LC-ESI-ITFT; MS2; CE
PRECURSORMZ: 270.080552
PRECURSORTYPE: [M-H]-
FORMULA: C12H17NO4S
Ontology: Alpha amino acids and derivatives
INCHIKEY: HOYCASTVMCEOTP-UHFFFAOYNA-N
SMILES: COCC(C)N(C(=O)C(O)=O)C1=C(C)SC=C1C
RETENTIONTIME: 
CCS: 161.3912183
IONMODE: Negative
INSTRUMENTTYPE: LC-ESI-ITFT
INSTRUMENT: 
COLLISIONENERGY: 60
Comment: registered in MassBank
Num Peaks: 11
70.9961	216
83.991	171
98.0069	911
122.0066	240
148.0224	240
150.03841	516
151.04559	155
152.05409	608
162.0386	180
164.0538	169
166.0694	1000

NAME: Dimethenamid OXA; LC-ESI-ITFT; MS2; CE
PRECURSORMZ: 270.080552
PRECURSORTYPE: [M-H]-
FORMULA: C12H17NO4S
Ontology: Alpha amino acids and derivatives
INCHIKEY: HOYCASTVMCEOTP-UHFFFAOYNA-N
SMILES: COCC(C)N(C(=O)C(O)=O)C1=C(C)SC=C1C
RETENTIONTIME: 
CCS: 161.3912183
IONMODE: Negative
INSTRUMENTTYPE: LC-ESI-ITFT
INSTRUMENT: 
COLLISIONENERGY: 75
Comment: registered in MassBank
Num Peaks: 6
70.9963	262
97.0118	300
98.0068	1000
148.0222	178
150.03799	514
152.05389	314

NAME: Dimethenamid OXA; LC-ESI-ITFT; MS2; CE
PRECURSORMZ: 270.080552
PRECURSORTYPE: [M-H]-
FORMULA: C12H17NO4S
Ontology: Alpha amino acids and derivatives
INCHIKEY: HOYCASTVMCEOTP-UHFFFAOYNA-N
SMILES: COCC(C)N(C(=O)C(O)=O)C1=C(C)SC=C1C
RETENTIONTIME: 
CCS: 161.3912183
IONMODE: Negative
INSTRUMENTTYPE: LC-ESI-ITFT
INSTRUMENT: 
COLLISIONENERGY: 90
Comment: registered in MassBank
Num Peaks: 3
70.9959	224
98.0067	1000
150.0385	247

NAME: Dimethenamid OXA; LC-ESI-ITFT; MS2; CE
PRECURSORMZ: 270.080552
PRECURSORTYPE: [M-H]-
FORMULA: C12H17NO4S
Ontology: Alpha amino acids and derivatives
INCHIKEY: HOYCASTVMCEOTP-UHFFFAOYNA-N
SMILES: COCC(C)N(C(=O)C(O)=O)C1=C(C)SC=C1C
RETENTIONTIME: 
CCS: 161.3912183
IONMODE: Negative
INSTRUMENTTYPE: LC-ESI-ITFT
INSTRUMENT: 
COLLISIONENERGY: 15
Comment: registered in MassBank
Num Peaks: 4
124.0228	6
166.0695	169
198.09579	1000
270.08029	115

NAME: Dimethenamid OXA; LC-ESI-ITFT; MS2; CE
PRECURSORMZ: 270.080552
PRECURSORTYPE: [M-H]-
FORMULA: C12H17NO4S
Ontology: Alpha amino acids and derivatives
INCHIKEY: HOYCASTVMCEOTP-UHFFFAOYNA-N
SMILES: COCC(C)N(C(=O)C(O)=O)C1=C(C)SC=C1C
RETENTIONTIME: 
CCS: 161.3912183
IONMODE: Negative
INSTRUMENTTYPE: LC-ESI-ITFT
INSTRUMENT: 
COLLISIONENERGY: 30
Comment: registered in MassBank
Num Peaks: 7
98.007	12
124.0224	13
150.0385	6
152.05409	8
164.0537	12
166.0695	630
198.09579	1000

NAME: Dimethenamid OXA; LC-ESI-ITFT; MS2; CE
PRECURSORMZ: 270.080552
PRECURSORTYPE: [M-H]-
FORMULA: C12H17NO4S
Ontology: Alpha amino acids and derivatives
INCHIKEY: HOYCASTVMCEOTP-UHFFFAOYNA-N
SMILES: COCC(C)N(C(=O)C(O)=O)C1=C(C)SC=C1C
RETENTIONTIME: 
CCS: 161.3912183
IONMODE: Negative
INSTRUMENTTYPE: LC-ESI-ITFT
INSTRUMENT: 
COLLISIONENERGY: 45
Comment: registered in MassBank
Num Peaks: 12
83.9911	26
98.0068	105
124.0223	25
148.0229	45
150.0381	88
151.0461	21
152.05389	154
162.0386	25
164.0533	52
166.0694	1000
167.041	18
198.0956	355

NAME: Dimethenamid OXA; LC-ESI-ITFT; MS2; CE
PRECURSORMZ: 270.080552
PRECURSORTYPE: [M-H]-
FORMULA: C12H17NO4S
Ontology: Alpha amino acids and derivatives
INCHIKEY: HOYCASTVMCEOTP-UHFFFAOYNA-N
SMILES: COCC(C)N(C(=O)C(O)=O)C1=C(C)SC=C1C
RETENTIONTIME: 
CCS: 161.3912183
IONMODE: Negative
INSTRUMENTTYPE: LC-ESI-ITFT
INSTRUMENT: 
COLLISIONENERGY: 60
Comment: registered in MassBank
Num Peaks: 9
97.0114	193
98.0068	709
122.0065	122
124.0224	141
148.0229	237
150.03799	473
152.0537	785
162.03819	126
166.0692	1000

NAME: Dimethenamid OXA; LC-ESI-ITFT; MS2; CE
PRECURSORMZ: 270.080552
PRECURSORTYPE: [M-H]-
FORMULA: C12H17NO4S
Ontology: Alpha amino acids and derivatives
INCHIKEY: HOYCASTVMCEOTP-UHFFFAOYNA-N
SMILES: COCC(C)N(C(=O)C(O)=O)C1=C(C)SC=C1C
RETENTIONTIME: 
CCS: 161.3912183
IONMODE: Negative
INSTRUMENTTYPE: LC-ESI-ITFT
INSTRUMENT: 
COLLISIONENERGY: 75
Comment: registered in MassBank
Num Peaks: 4
98.0066	1000
148.02229	339
150.03819	652
152.0542	318

NAME: Dimethenamid OXA; LC-ESI-ITFT; MS2; CE
PRECURSORMZ: 270.080552
PRECURSORTYPE: [M-H]-
FORMULA: C12H17NO4S
Ontology: Alpha amino acids and derivatives
INCHIKEY: HOYCASTVMCEOTP-UHFFFAOYNA-N
SMILES: COCC(C)N(C(=O)C(O)=O)C1=C(C)SC=C1C
RETENTIONTIME: 
CCS: 161.3912183
IONMODE: Negative
INSTRUMENTTYPE: LC-ESI-ITFT
INSTRUMENT: 
COLLISIONENERGY: 90
Comment: registered in MassBank
Num Peaks: 4
70.9959	732
98.0069	1000
148.02229	963
150.0387	453

NAME: Dimethenamid OXA; LC-ESI-ITFT; MS2; CE
PRECURSORMZ: 270.080552
PRECURSORTYPE: [M-H]-
FORMULA: C12H17NO4S
Ontology: Alpha amino acids and derivatives
INCHIKEY: HOYCASTVMCEOTP-UHFFFAOYNA-N
SMILES: COCC(C)N(C(=O)C(O)=O)C1=C(C)SC=C1C
RETENTIONTIME: 
CCS: 161.3912183
IONMODE: Negative
INSTRUMENTTYPE: LC-ESI-ITFT
INSTRUMENT: 
COLLISIONENERGY: 35
Comment: registered in MassBank
Num Peaks: 2
166.0694	8
198.0959	1000

NAME: Dimethenamide ESA; LC-ESI-ITFT; MS2; CE
PRECURSORMZ: 320.063188
PRECURSORTYPE: [M-H]-
FORMULA: C12H19NO5S2
Ontology: Heteroaromatic compounds
INCHIKEY: YMYKMSAZEZQEER-UHFFFAOYNA-N
SMILES: COCC(C)N(C(=O)CS(O)(=O)=O)C1=C(C)SC=C1C
RETENTIONTIME: 
CCS: -1
IONMODE: Negative
INSTRUMENTTYPE: LC-ESI-ITFT
INSTRUMENT: 
COLLISIONENERGY: 35
Comment: registered in MassBank
Num Peaks: 11
76.9702	15
120.9601	1000
166.0696	58
192.03391	7
198.0959	20
224.075	39
229.9942	6
246.9982	9
248.00549	58
256.10159	11
288.0368	114

NAME: Dimethenamide ESA; LC-ESI-ITFT; MS2; CE
PRECURSORMZ: 320.063188
PRECURSORTYPE: [M-H]-
FORMULA: C12H19NO5S2
Ontology: Heteroaromatic compounds
INCHIKEY: YMYKMSAZEZQEER-UHFFFAOYNA-N
SMILES: COCC(C)N(C(=O)CS(O)(=O)=O)C1=C(C)SC=C1C
RETENTIONTIME: 
CCS: -1
IONMODE: Negative
INSTRUMENTTYPE: LC-ESI-ITFT
INSTRUMENT: 
COLLISIONENERGY: 30
Comment: registered in MassBank
Num Peaks: 4
76.9702	17
79.9573	31
120.96	88
320.0629	1000

NAME: Dimethenamide ESA; LC-ESI-ITFT; MS2; CE
PRECURSORMZ: 320.063188
PRECURSORTYPE: [M-H]-
FORMULA: C12H19NO5S2
Ontology: Heteroaromatic compounds
INCHIKEY: YMYKMSAZEZQEER-UHFFFAOYNA-N
SMILES: COCC(C)N(C(=O)CS(O)(=O)=O)C1=C(C)SC=C1C
RETENTIONTIME: 
CCS: -1
IONMODE: Negative
INSTRUMENTTYPE: LC-ESI-ITFT
INSTRUMENT: 
COLLISIONENERGY: 45
Comment: registered in MassBank
Num Peaks: 5
76.9702	270
79.9573	1000
120.9601	935
166.0697	77
320.06259	553

NAME: Dimethenamide ESA; LC-ESI-ITFT; MS2; CE
PRECURSORMZ: 320.063188
PRECURSORTYPE: [M-H]-
FORMULA: C12H19NO5S2
Ontology: Heteroaromatic compounds
INCHIKEY: YMYKMSAZEZQEER-UHFFFAOYNA-N
SMILES: COCC(C)N(C(=O)CS(O)(=O)=O)C1=C(C)SC=C1C
RETENTIONTIME: 
CCS: -1
IONMODE: Negative
INSTRUMENTTYPE: LC-ESI-ITFT
INSTRUMENT: 
COLLISIONENERGY: 60
Comment: registered in MassBank
Num Peaks: 5
76.9702	255
79.9573	1000
93.9729	38
120.9601	305
166.0697	26

NAME: Dimethenamide ESA; LC-ESI-ITFT; MS2; CE
PRECURSORMZ: 320.063188
PRECURSORTYPE: [M-H]-
FORMULA: C12H19NO5S2
Ontology: Heteroaromatic compounds
INCHIKEY: YMYKMSAZEZQEER-UHFFFAOYNA-N
SMILES: COCC(C)N(C(=O)CS(O)(=O)=O)C1=C(C)SC=C1C
RETENTIONTIME: 
CCS: -1
IONMODE: Negative
INSTRUMENTTYPE: LC-ESI-ITFT
INSTRUMENT: 
COLLISIONENERGY: 75
Comment: registered in MassBank
Num Peaks: 4
76.9702	187
79.9573	1000
93.973	37
120.9598	106

NAME: Dimethenamide ESA; LC-ESI-ITFT; MS2; CE
PRECURSORMZ: 320.063188
PRECURSORTYPE: [M-H]-
FORMULA: C12H19NO5S2
Ontology: Heteroaromatic compounds
INCHIKEY: YMYKMSAZEZQEER-UHFFFAOYNA-N
SMILES: COCC(C)N(C(=O)CS(O)(=O)=O)C1=C(C)SC=C1C
RETENTIONTIME: 
CCS: -1
IONMODE: Negative
INSTRUMENTTYPE: LC-ESI-ITFT
INSTRUMENT: 
COLLISIONENERGY: 90
Comment: registered in MassBank
Num Peaks: 4
76.9702	174
79.9573	1000
93.9729	47
120.9604	40

NAME: Dimethenamide ESA; LC-ESI-ITFT; MS2; CE
PRECURSORMZ: 320.063188
PRECURSORTYPE: [M-H]-
FORMULA: C12H19NO5S2
Ontology: Heteroaromatic compounds
INCHIKEY: YMYKMSAZEZQEER-UHFFFAOYNA-N
SMILES: COCC(C)N(C(=O)CS(O)(=O)=O)C1=C(C)SC=C1C
RETENTIONTIME: 
CCS: -1
IONMODE: Negative
INSTRUMENTTYPE: LC-ESI-ITFT
INSTRUMENT: 
COLLISIONENERGY: 30
Comment: registered in MassBank
Num Peaks: 4
76.97	15
79.9572	23
120.96	70
320.06299	1000

NAME: Dimethenamide ESA; LC-ESI-ITFT; MS2; CE
PRECURSORMZ: 320.063188
PRECURSORTYPE: [M-H]-
FORMULA: C12H19NO5S2
Ontology: Heteroaromatic compounds
INCHIKEY: YMYKMSAZEZQEER-UHFFFAOYNA-N
SMILES: COCC(C)N(C(=O)CS(O)(=O)=O)C1=C(C)SC=C1C
RETENTIONTIME: 
CCS: -1
IONMODE: Negative
INSTRUMENTTYPE: LC-ESI-ITFT
INSTRUMENT: 
COLLISIONENERGY: 45
Comment: registered in MassBank
Num Peaks: 8
76.9702	237
79.9573	1000
120.96	836
166.06931	47
198.0959	35
248.005	30
288.0368	13
320.06259	489

NAME: Dimethenamide ESA; LC-ESI-ITFT; MS2; CE
PRECURSORMZ: 320.063188
PRECURSORTYPE: [M-H]-
FORMULA: C12H19NO5S2
Ontology: Heteroaromatic compounds
INCHIKEY: YMYKMSAZEZQEER-UHFFFAOYNA-N
SMILES: COCC(C)N(C(=O)CS(O)(=O)=O)C1=C(C)SC=C1C
RETENTIONTIME: 
CCS: -1
IONMODE: Negative
INSTRUMENTTYPE: LC-ESI-ITFT
INSTRUMENT: 
COLLISIONENERGY: 60
Comment: registered in MassBank
Num Peaks: 5
76.9701	186
79.9573	1000
93.9726	17
120.96	267
166.0699	11

NAME: Dimethenamide ESA; LC-ESI-ITFT; MS2; CE
PRECURSORMZ: 320.063188
PRECURSORTYPE: [M-H]-
FORMULA: C12H19NO5S2
Ontology: Heteroaromatic compounds
INCHIKEY: YMYKMSAZEZQEER-UHFFFAOYNA-N
SMILES: COCC(C)N(C(=O)CS(O)(=O)=O)C1=C(C)SC=C1C
RETENTIONTIME: 
CCS: -1
IONMODE: Negative
INSTRUMENTTYPE: LC-ESI-ITFT
INSTRUMENT: 
COLLISIONENERGY: 75
Comment: registered in MassBank
Num Peaks: 4
76.9702	221
79.9573	1000
93.9729	35
120.96	77

NAME: Dimethenamide ESA; LC-ESI-ITFT; MS2; CE
PRECURSORMZ: 320.063188
PRECURSORTYPE: [M-H]-
FORMULA: C12H19NO5S2
Ontology: Heteroaromatic compounds
INCHIKEY: YMYKMSAZEZQEER-UHFFFAOYNA-N
SMILES: COCC(C)N(C(=O)CS(O)(=O)=O)C1=C(C)SC=C1C
RETENTIONTIME: 
CCS: -1
IONMODE: Negative
INSTRUMENTTYPE: LC-ESI-ITFT
INSTRUMENT: 
COLLISIONENERGY: 90
Comment: registered in MassBank
Num Peaks: 3
76.9702	69
79.9573	1000
93.9731	28

NAME: Dimethenamide ESA; LC-ESI-ITFT; MS2; CE
PRECURSORMZ: 320.063188
PRECURSORTYPE: [M-H]-
FORMULA: C12H19NO5S2
Ontology: Heteroaromatic compounds
INCHIKEY: YMYKMSAZEZQEER-UHFFFAOYNA-N
SMILES: COCC(C)N(C(=O)CS(O)(=O)=O)C1=C(C)SC=C1C
RETENTIONTIME: 
CCS: -1
IONMODE: Negative
INSTRUMENTTYPE: LC-ESI-ITFT
INSTRUMENT: 
COLLISIONENERGY: 35
Comment: registered in MassBank
Num Peaks: 8
120.9601	1000
166.0694	37
192.03371	6
198.0955	14
224.07471	23
248.00549	32
256.10071	8
288.03671	78

NAME: MCPA; LC-ESI-ITFT; MS2; CE
PRECURSORMZ: 199.016745
PRECURSORTYPE: [M-H]-
FORMULA: C9H9ClO3
Ontology: Chlorophenoxyacetates
INCHIKEY: WHKUVVPPKQRRBV-UHFFFAOYSA-N
SMILES: CC1=CC(Cl)=CC=C1OCC(O)=O
RETENTIONTIME: 
CCS: 139.1852627
IONMODE: Negative
INSTRUMENTTYPE: LC-ESI-ITFT
INSTRUMENT: 
COLLISIONENERGY: 35
Comment: registered in MassBank
Num Peaks: 3
141.0114	1000
155.02721	110
199.01649	5

NAME: MCPA; LC-ESI-ITFT; MS2; CE
PRECURSORMZ: 199.016745
PRECURSORTYPE: [M-H]-
FORMULA: C9H9ClO3
Ontology: Chlorophenoxyacetates
INCHIKEY: WHKUVVPPKQRRBV-UHFFFAOYSA-N
SMILES: CC1=CC(Cl)=CC=C1OCC(O)=O
RETENTIONTIME: 
CCS: 139.1852627
IONMODE: Negative
INSTRUMENTTYPE: LC-ESI-ITFT
INSTRUMENT: 
COLLISIONENERGY: 15
Comment: registered in MassBank
Num Peaks: 3
141.01131	965
155.0271	34
199.0168	1000

NAME: MCPA; LC-ESI-ITFT; MS2; CE
PRECURSORMZ: 199.016745
PRECURSORTYPE: [M-H]-
FORMULA: C9H9ClO3
Ontology: Chlorophenoxyacetates
INCHIKEY: WHKUVVPPKQRRBV-UHFFFAOYSA-N
SMILES: CC1=CC(Cl)=CC=C1OCC(O)=O
RETENTIONTIME: 
CCS: 139.1852627
IONMODE: Negative
INSTRUMENTTYPE: LC-ESI-ITFT
INSTRUMENT: 
COLLISIONENERGY: 30
Comment: registered in MassBank
Num Peaks: 3
141.0114	1000
155.0269	9
199.01691	56

NAME: MCPA; LC-ESI-ITFT; MS2; CE
PRECURSORMZ: 199.016745
PRECURSORTYPE: [M-H]-
FORMULA: C9H9ClO3
Ontology: Chlorophenoxyacetates
INCHIKEY: WHKUVVPPKQRRBV-UHFFFAOYSA-N
SMILES: CC1=CC(Cl)=CC=C1OCC(O)=O
RETENTIONTIME: 
CCS: 139.1852627
IONMODE: Negative
INSTRUMENTTYPE: LC-ESI-ITFT
INSTRUMENT: 
COLLISIONENERGY: 45
Comment: registered in MassBank
Num Peaks: 1
141.01131	1000

NAME: MCPA; LC-ESI-ITFT; MS2; CE
PRECURSORMZ: 199.016745
PRECURSORTYPE: [M-H]-
FORMULA: C9H9ClO3
Ontology: Chlorophenoxyacetates
INCHIKEY: WHKUVVPPKQRRBV-UHFFFAOYSA-N
SMILES: CC1=CC(Cl)=CC=C1OCC(O)=O
RETENTIONTIME: 
CCS: 139.1852627
IONMODE: Negative
INSTRUMENTTYPE: LC-ESI-ITFT
INSTRUMENT: 
COLLISIONENERGY: 60
Comment: registered in MassBank
Num Peaks: 1
141.0114	1000

NAME: MCPA; LC-ESI-ITFT; MS2; CE
PRECURSORMZ: 199.016745
PRECURSORTYPE: [M-H]-
FORMULA: C9H9ClO3
Ontology: Chlorophenoxyacetates
INCHIKEY: WHKUVVPPKQRRBV-UHFFFAOYSA-N
SMILES: CC1=CC(Cl)=CC=C1OCC(O)=O
RETENTIONTIME: 
CCS: 139.1852627
IONMODE: Negative
INSTRUMENTTYPE: LC-ESI-ITFT
INSTRUMENT: 
COLLISIONENERGY: 75
Comment: registered in MassBank
Num Peaks: 3
105.0346	9
121.0291	17
141.01131	1000

NAME: MCPA; LC-ESI-ITFT; MS2; CE
PRECURSORMZ: 199.016745
PRECURSORTYPE: [M-H]-
FORMULA: C9H9ClO3
Ontology: Chlorophenoxyacetates
INCHIKEY: WHKUVVPPKQRRBV-UHFFFAOYSA-N
SMILES: CC1=CC(Cl)=CC=C1OCC(O)=O
RETENTIONTIME: 
CCS: 139.1852627
IONMODE: Negative
INSTRUMENTTYPE: LC-ESI-ITFT
INSTRUMENT: 
COLLISIONENERGY: 90
Comment: registered in MassBank
Num Peaks: 3
105.0344	45
121.0294	55
141.01131	1000

NAME: MCPA; LC-ESI-ITFT; MS2; CE
PRECURSORMZ: 199.016745
PRECURSORTYPE: [M-H]-
FORMULA: C9H9ClO3
Ontology: Chlorophenoxyacetates
INCHIKEY: WHKUVVPPKQRRBV-UHFFFAOYSA-N
SMILES: CC1=CC(Cl)=CC=C1OCC(O)=O
RETENTIONTIME: 
CCS: 139.1852627
IONMODE: Negative
INSTRUMENTTYPE: LC-ESI-ITFT
INSTRUMENT: 
COLLISIONENERGY: 15
Comment: registered in MassBank
Num Peaks: 3
141.01131	952
155.02679	22
199.0168	1000

NAME: MCPA; LC-ESI-ITFT; MS2; CE
PRECURSORMZ: 199.016745
PRECURSORTYPE: [M-H]-
FORMULA: C9H9ClO3
Ontology: Chlorophenoxyacetates
INCHIKEY: WHKUVVPPKQRRBV-UHFFFAOYSA-N
SMILES: CC1=CC(Cl)=CC=C1OCC(O)=O
RETENTIONTIME: 
CCS: 139.1852627
IONMODE: Negative
INSTRUMENTTYPE: LC-ESI-ITFT
INSTRUMENT: 
COLLISIONENERGY: 30
Comment: registered in MassBank
Num Peaks: 3
141.0114	1000
155.0269	9
199.01669	50

NAME: MCPA; LC-ESI-ITFT; MS2; CE
PRECURSORMZ: 199.016745
PRECURSORTYPE: [M-H]-
FORMULA: C9H9ClO3
Ontology: Chlorophenoxyacetates
INCHIKEY: WHKUVVPPKQRRBV-UHFFFAOYSA-N
SMILES: CC1=CC(Cl)=CC=C1OCC(O)=O
RETENTIONTIME: 
CCS: 139.1852627
IONMODE: Negative
INSTRUMENTTYPE: LC-ESI-ITFT
INSTRUMENT: 
COLLISIONENERGY: 45
Comment: registered in MassBank
Num Peaks: 1
141.01131	1000

NAME: MCPA; LC-ESI-ITFT; MS2; CE
PRECURSORMZ: 199.016745
PRECURSORTYPE: [M-H]-
FORMULA: C9H9ClO3
Ontology: Chlorophenoxyacetates
INCHIKEY: WHKUVVPPKQRRBV-UHFFFAOYSA-N
SMILES: CC1=CC(Cl)=CC=C1OCC(O)=O
RETENTIONTIME: 
CCS: 139.1852627
IONMODE: Negative
INSTRUMENTTYPE: LC-ESI-ITFT
INSTRUMENT: 
COLLISIONENERGY: 60
Comment: registered in MassBank
Num Peaks: 1
141.01131	1000

NAME: MCPA; LC-ESI-ITFT; MS2; CE
PRECURSORMZ: 199.016745
PRECURSORTYPE: [M-H]-
FORMULA: C9H9ClO3
Ontology: Chlorophenoxyacetates
INCHIKEY: WHKUVVPPKQRRBV-UHFFFAOYSA-N
SMILES: CC1=CC(Cl)=CC=C1OCC(O)=O
RETENTIONTIME: 
CCS: 139.1852627
IONMODE: Negative
INSTRUMENTTYPE: LC-ESI-ITFT
INSTRUMENT: 
COLLISIONENERGY: 75
Comment: registered in MassBank
Num Peaks: 3
105.0344	6
121.0291	10
141.01131	1000

NAME: MCPA; LC-ESI-ITFT; MS2; CE
PRECURSORMZ: 199.016745
PRECURSORTYPE: [M-H]-
FORMULA: C9H9ClO3
Ontology: Chlorophenoxyacetates
INCHIKEY: WHKUVVPPKQRRBV-UHFFFAOYSA-N
SMILES: CC1=CC(Cl)=CC=C1OCC(O)=O
RETENTIONTIME: 
CCS: 139.1852627
IONMODE: Negative
INSTRUMENTTYPE: LC-ESI-ITFT
INSTRUMENT: 
COLLISIONENERGY: 90
Comment: registered in MassBank
Num Peaks: 1
141.0112	1000

NAME: MCPA; LC-ESI-ITFT; MS2; CE
PRECURSORMZ: 199.016745
PRECURSORTYPE: [M-H]-
FORMULA: C9H9ClO3
Ontology: Chlorophenoxyacetates
INCHIKEY: WHKUVVPPKQRRBV-UHFFFAOYSA-N
SMILES: CC1=CC(Cl)=CC=C1OCC(O)=O
RETENTIONTIME: 
CCS: 139.1852627
IONMODE: Negative
INSTRUMENTTYPE: LC-ESI-ITFT
INSTRUMENT: 
COLLISIONENERGY: 35
Comment: registered in MassBank
Num Peaks: 3
141.0114	1000
155.02721	107
199.0166	6

NAME: Metolachlor OXA; LC-ESI-ITFT; MS2; CE
PRECURSORMZ: 278.139782
PRECURSORTYPE: [M-H]-
FORMULA: C15H21NO4
Ontology: Alpha amino acids and derivatives
INCHIKEY: LNOOSYCKMKZOJB-UHFFFAOYNA-N
SMILES: CCC1=CC=CC(C)=C1N(C(C)COC)C(=O)C(O)=O
RETENTIONTIME: 
CCS: 164.6672633
IONMODE: Negative
INSTRUMENTTYPE: LC-ESI-ITFT
INSTRUMENT: 
COLLISIONENERGY: 35
Comment: registered in MassBank
Num Peaks: 1
206.15559	1000

NAME: Metolachlor OXA; LC-ESI-ITFT; MS2; CE
PRECURSORMZ: 278.139782
PRECURSORTYPE: [M-H]-
FORMULA: C15H21NO4
Ontology: Alpha amino acids and derivatives
INCHIKEY: LNOOSYCKMKZOJB-UHFFFAOYNA-N
SMILES: CCC1=CC=CC(C)=C1N(C(C)COC)C(=O)C(O)=O
RETENTIONTIME: 
CCS: 164.6672633
IONMODE: Negative
INSTRUMENTTYPE: LC-ESI-ITFT
INSTRUMENT: 
COLLISIONENERGY: 15
Comment: registered in MassBank
Num Peaks: 5
158.09779	15
172.1131	11
174.1291	65
206.1555	1000
278.1402	130

NAME: Metolachlor OXA; LC-ESI-ITFT; MS2; CE
PRECURSORMZ: 278.139782
PRECURSORTYPE: [M-H]-
FORMULA: C15H21NO4
Ontology: Alpha amino acids and derivatives
INCHIKEY: LNOOSYCKMKZOJB-UHFFFAOYNA-N
SMILES: CCC1=CC=CC(C)=C1N(C(C)COC)C(=O)C(O)=O
RETENTIONTIME: 
CCS: 164.6672633
IONMODE: Negative
INSTRUMENTTYPE: LC-ESI-ITFT
INSTRUMENT: 
COLLISIONENERGY: 30
Comment: registered in MassBank
Num Peaks: 9
135.0815	5
156.0815	6
158.0979	58
160.11301	23
172.1132	43
174.1291	251
175.10049	5
204.1398	10
206.1555	1000

NAME: Metolachlor OXA; LC-ESI-ITFT; MS2; CE
PRECURSORMZ: 278.139782
PRECURSORTYPE: [M-H]-
FORMULA: C15H21NO4
Ontology: Alpha amino acids and derivatives
INCHIKEY: LNOOSYCKMKZOJB-UHFFFAOYNA-N
SMILES: CCC1=CC=CC(C)=C1N(C(C)COC)C(=O)C(O)=O
RETENTIONTIME: 
CCS: 164.6672633
IONMODE: Negative
INSTRUMENTTYPE: LC-ESI-ITFT
INSTRUMENT: 
COLLISIONENERGY: 45
Comment: registered in MassBank
Num Peaks: 11
134.09689	78
144.082	266
156.0815	99
158.0979	1000
160.11349	558
170.0977	130
172.11369	433
174.129	876
175.0995	64
204.13921	51
206.15511	764

NAME: Metolachlor OXA; LC-ESI-ITFT; MS2; CE
PRECURSORMZ: 278.139782
PRECURSORTYPE: [M-H]-
FORMULA: C15H21NO4
Ontology: Alpha amino acids and derivatives
INCHIKEY: LNOOSYCKMKZOJB-UHFFFAOYNA-N
SMILES: CCC1=CC=CC(C)=C1N(C(C)COC)C(=O)C(O)=O
RETENTIONTIME: 
CCS: 164.6672633
IONMODE: Negative
INSTRUMENTTYPE: LC-ESI-ITFT
INSTRUMENT: 
COLLISIONENERGY: 60
Comment: registered in MassBank
Num Peaks: 8
134.0979	133
143.07381	123
144.0824	564
156.0825	136
158.0981	1000
160.1134	292
170.0979	153
172.1136	291

NAME: Metolachlor OXA; LC-ESI-ITFT; MS2; CE
PRECURSORMZ: 278.139782
PRECURSORTYPE: [M-H]-
FORMULA: C15H21NO4
Ontology: Alpha amino acids and derivatives
INCHIKEY: LNOOSYCKMKZOJB-UHFFFAOYNA-N
SMILES: CCC1=CC=CC(C)=C1N(C(C)COC)C(=O)C(O)=O
RETENTIONTIME: 
CCS: 164.6672633
IONMODE: Negative
INSTRUMENTTYPE: LC-ESI-ITFT
INSTRUMENT: 
COLLISIONENERGY: 75
Comment: registered in MassBank
Num Peaks: 3
143.0746	363
144.08211	1000
158.09801	972

NAME: Metolachlor OXA; LC-ESI-ITFT; MS2; CE
PRECURSORMZ: 278.139782
PRECURSORTYPE: [M-H]-
FORMULA: C15H21NO4
Ontology: Alpha amino acids and derivatives
INCHIKEY: LNOOSYCKMKZOJB-UHFFFAOYNA-N
SMILES: CCC1=CC=CC(C)=C1N(C(C)COC)C(=O)C(O)=O
RETENTIONTIME: 
CCS: 164.6672633
IONMODE: Negative
INSTRUMENTTYPE: LC-ESI-ITFT
INSTRUMENT: 
COLLISIONENERGY: 90
Comment: registered in MassBank
Num Peaks: 3
143.0744	435
144.0822	1000
158.0983	574

NAME: Metolachlor OXA; LC-ESI-ITFT; MS2; CE
PRECURSORMZ: 278.139782
PRECURSORTYPE: [M-H]-
FORMULA: C15H21NO4
Ontology: Alpha amino acids and derivatives
INCHIKEY: LNOOSYCKMKZOJB-UHFFFAOYNA-N
SMILES: CCC1=CC=CC(C)=C1N(C(C)COC)C(=O)C(O)=O
RETENTIONTIME: 
CCS: 164.6672633
IONMODE: Negative
INSTRUMENTTYPE: LC-ESI-ITFT
INSTRUMENT: 
COLLISIONENERGY: 15
Comment: registered in MassBank
Num Peaks: 5
158.0975	8
172.1138	9
174.129	52
206.1554	1000
278.13989	108

NAME: Metolachlor OXA; LC-ESI-ITFT; MS2; CE
PRECURSORMZ: 278.139782
PRECURSORTYPE: [M-H]-
FORMULA: C15H21NO4
Ontology: Alpha amino acids and derivatives
INCHIKEY: LNOOSYCKMKZOJB-UHFFFAOYNA-N
SMILES: CCC1=CC=CC(C)=C1N(C(C)COC)C(=O)C(O)=O
RETENTIONTIME: 
CCS: 164.6672633
IONMODE: Negative
INSTRUMENTTYPE: LC-ESI-ITFT
INSTRUMENT: 
COLLISIONENERGY: 30
Comment: registered in MassBank
Num Peaks: 5
158.0979	44
160.1131	21
172.1133	33
174.1291	243
206.1555	1000

NAME: Metolachlor OXA; LC-ESI-ITFT; MS2; CE
PRECURSORMZ: 278.139782
PRECURSORTYPE: [M-H]-
FORMULA: C15H21NO4
Ontology: Alpha amino acids and derivatives
INCHIKEY: LNOOSYCKMKZOJB-UHFFFAOYNA-N
SMILES: CCC1=CC=CC(C)=C1N(C(C)COC)C(=O)C(O)=O
RETENTIONTIME: 
CCS: 164.6672633
IONMODE: Negative
INSTRUMENTTYPE: LC-ESI-ITFT
INSTRUMENT: 
COLLISIONENERGY: 45
Comment: registered in MassBank
Num Peaks: 12
134.0975	109
144.08211	219
156.08189	82
158.09779	1000
160.1133	552
170.0976	96
172.11349	402
174.1292	856
175.1006	60
190.1239	33
204.13969	53
206.1553	808

NAME: Metolachlor OXA; LC-ESI-ITFT; MS2; CE
PRECURSORMZ: 278.139782
PRECURSORTYPE: [M-H]-
FORMULA: C15H21NO4
Ontology: Alpha amino acids and derivatives
INCHIKEY: LNOOSYCKMKZOJB-UHFFFAOYNA-N
SMILES: CCC1=CC=CC(C)=C1N(C(C)COC)C(=O)C(O)=O
RETENTIONTIME: 
CCS: 164.6672633
IONMODE: Negative
INSTRUMENTTYPE: LC-ESI-ITFT
INSTRUMENT: 
COLLISIONENERGY: 60
Comment: registered in MassBank
Num Peaks: 7
134.0977	53
144.08189	576
156.08211	179
158.0977	1000
160.1134	439
172.11349	410
174.129	111

NAME: Metolachlor OXA; LC-ESI-ITFT; MS2; CE
PRECURSORMZ: 278.139782
PRECURSORTYPE: [M-H]-
FORMULA: C15H21NO4
Ontology: Alpha amino acids and derivatives
INCHIKEY: LNOOSYCKMKZOJB-UHFFFAOYNA-N
SMILES: CCC1=CC=CC(C)=C1N(C(C)COC)C(=O)C(O)=O
RETENTIONTIME: 
CCS: 164.6672633
IONMODE: Negative
INSTRUMENTTYPE: LC-ESI-ITFT
INSTRUMENT: 
COLLISIONENERGY: 75
Comment: registered in MassBank
Num Peaks: 5
143.0744	277
144.08189	1000
156.08189	122
158.0977	909
172.11369	175

NAME: Metolachlor OXA; LC-ESI-ITFT; MS2; CE
PRECURSORMZ: 278.139782
PRECURSORTYPE: [M-H]-
FORMULA: C15H21NO4
Ontology: Alpha amino acids and derivatives
INCHIKEY: LNOOSYCKMKZOJB-UHFFFAOYNA-N
SMILES: CCC1=CC=CC(C)=C1N(C(C)COC)C(=O)C(O)=O
RETENTIONTIME: 
CCS: 164.6672633
IONMODE: Negative
INSTRUMENTTYPE: LC-ESI-ITFT
INSTRUMENT: 
COLLISIONENERGY: 90
Comment: registered in MassBank
Num Peaks: 4
143.0743	241
144.08189	1000
158.09151	119
158.09779	528

NAME: Metolachlor OXA; LC-ESI-ITFT; MS2; CE
PRECURSORMZ: 278.139782
PRECURSORTYPE: [M-H]-
FORMULA: C15H21NO4
Ontology: Alpha amino acids and derivatives
INCHIKEY: LNOOSYCKMKZOJB-UHFFFAOYNA-N
SMILES: CCC1=CC=CC(C)=C1N(C(C)COC)C(=O)C(O)=O
RETENTIONTIME: 
CCS: 164.6672633
IONMODE: Negative
INSTRUMENTTYPE: LC-ESI-ITFT
INSTRUMENT: 
COLLISIONENERGY: 35
Comment: registered in MassBank
Num Peaks: 1
206.15559	1000

NAME: Bromacil; LC-ESI-ITFT; MS2; CE
PRECURSORMZ: 259.008764
PRECURSORTYPE: [M-H]-
FORMULA: C9H13BrN2O2
Ontology: Halopyrimidines
INCHIKEY: CTSLUCNDVMMDHG-UHFFFAOYNA-N
SMILES: CCC(C)N1C(O)=NC(C)=C(Br)C1=O
RETENTIONTIME: 
CCS: 150.9364276
IONMODE: Negative
INSTRUMENTTYPE: LC-ESI-ITFT
INSTRUMENT: 
COLLISIONENERGY: 35
Comment: registered in MassBank
Num Peaks: 3
78.9189	29
159.9407	9
202.94659	1000

NAME: Bromacil; LC-ESI-ITFT; MS2; CE
PRECURSORMZ: 259.008764
PRECURSORTYPE: [M-H]-
FORMULA: C9H13BrN2O2
Ontology: Halopyrimidines
INCHIKEY: CTSLUCNDVMMDHG-UHFFFAOYNA-N
SMILES: CCC(C)N1C(O)=NC(C)=C(Br)C1=O
RETENTIONTIME: 
CCS: 150.9364276
IONMODE: Negative
INSTRUMENTTYPE: LC-ESI-ITFT
INSTRUMENT: 
COLLISIONENERGY: 30
Comment: registered in MassBank
Num Peaks: 3
78.9188	43
202.9462	136
259.00891	1000

NAME: Bromacil; LC-ESI-ITFT; MS2; CE
PRECURSORMZ: 259.008764
PRECURSORTYPE: [M-H]-
FORMULA: C9H13BrN2O2
Ontology: Halopyrimidines
INCHIKEY: CTSLUCNDVMMDHG-UHFFFAOYNA-N
SMILES: CCC(C)N1C(O)=NC(C)=C(Br)C1=O
RETENTIONTIME: 
CCS: 150.9364276
IONMODE: Negative
INSTRUMENTTYPE: LC-ESI-ITFT
INSTRUMENT: 
COLLISIONENERGY: 45
Comment: registered in MassBank
Num Peaks: 3
78.9189	893
202.9463	1000
259.0087	993

NAME: Bromacil; LC-ESI-ITFT; MS2; CE
PRECURSORMZ: 259.008764
PRECURSORTYPE: [M-H]-
FORMULA: C9H13BrN2O2
Ontology: Halopyrimidines
INCHIKEY: CTSLUCNDVMMDHG-UHFFFAOYNA-N
SMILES: CCC(C)N1C(O)=NC(C)=C(Br)C1=O
RETENTIONTIME: 
CCS: 150.9364276
IONMODE: Negative
INSTRUMENTTYPE: LC-ESI-ITFT
INSTRUMENT: 
COLLISIONENERGY: 60
Comment: registered in MassBank
Num Peaks: 3
78.9189	1000
202.9462	372
259.00879	93

NAME: Bromacil; LC-ESI-ITFT; MS2; CE
PRECURSORMZ: 259.008764
PRECURSORTYPE: [M-H]-
FORMULA: C9H13BrN2O2
Ontology: Halopyrimidines
INCHIKEY: CTSLUCNDVMMDHG-UHFFFAOYNA-N
SMILES: CCC(C)N1C(O)=NC(C)=C(Br)C1=O
RETENTIONTIME: 
CCS: 150.9364276
IONMODE: Negative
INSTRUMENTTYPE: LC-ESI-ITFT
INSTRUMENT: 
COLLISIONENERGY: 75
Comment: registered in MassBank
Num Peaks: 2
78.9189	1000
202.94591	73

NAME: Bromacil; LC-ESI-ITFT; MS2; CE
PRECURSORMZ: 259.008764
PRECURSORTYPE: [M-H]-
FORMULA: C9H13BrN2O2
Ontology: Halopyrimidines
INCHIKEY: CTSLUCNDVMMDHG-UHFFFAOYNA-N
SMILES: CCC(C)N1C(O)=NC(C)=C(Br)C1=O
RETENTIONTIME: 
CCS: 150.9364276
IONMODE: Negative
INSTRUMENTTYPE: LC-ESI-ITFT
INSTRUMENT: 
COLLISIONENERGY: 90
Comment: registered in MassBank
Num Peaks: 1
78.9188	1000

NAME: Bromacil; LC-ESI-ITFT; MS2; CE
PRECURSORMZ: 259.008764
PRECURSORTYPE: [M-H]-
FORMULA: C9H13BrN2O2
Ontology: Halopyrimidines
INCHIKEY: CTSLUCNDVMMDHG-UHFFFAOYNA-N
SMILES: CCC(C)N1C(O)=NC(C)=C(Br)C1=O
RETENTIONTIME: 
CCS: 150.9364276
IONMODE: Negative
INSTRUMENTTYPE: LC-ESI-ITFT
INSTRUMENT: 
COLLISIONENERGY: 30
Comment: registered in MassBank
Num Peaks: 3
78.9188	33
202.9462	114
259.00891	1000

NAME: Bromacil; LC-ESI-ITFT; MS2; CE
PRECURSORMZ: 259.008764
PRECURSORTYPE: [M-H]-
FORMULA: C9H13BrN2O2
Ontology: Halopyrimidines
INCHIKEY: CTSLUCNDVMMDHG-UHFFFAOYNA-N
SMILES: CCC(C)N1C(O)=NC(C)=C(Br)C1=O
RETENTIONTIME: 
CCS: 150.9364276
IONMODE: Negative
INSTRUMENTTYPE: LC-ESI-ITFT
INSTRUMENT: 
COLLISIONENERGY: 45
Comment: registered in MassBank
Num Peaks: 3
78.9189	856
202.9462	1000
259.00879	940

NAME: Bromacil; LC-ESI-ITFT; MS2; CE
PRECURSORMZ: 259.008764
PRECURSORTYPE: [M-H]-
FORMULA: C9H13BrN2O2
Ontology: Halopyrimidines
INCHIKEY: CTSLUCNDVMMDHG-UHFFFAOYNA-N
SMILES: CCC(C)N1C(O)=NC(C)=C(Br)C1=O
RETENTIONTIME: 
CCS: 150.9364276
IONMODE: Negative
INSTRUMENTTYPE: LC-ESI-ITFT
INSTRUMENT: 
COLLISIONENERGY: 60
Comment: registered in MassBank
Num Peaks: 3
78.9189	1000
202.94611	315
259.008	78

NAME: Bromacil; LC-ESI-ITFT; MS2; CE
PRECURSORMZ: 259.008764
PRECURSORTYPE: [M-H]-
FORMULA: C9H13BrN2O2
Ontology: Halopyrimidines
INCHIKEY: CTSLUCNDVMMDHG-UHFFFAOYNA-N
SMILES: CCC(C)N1C(O)=NC(C)=C(Br)C1=O
RETENTIONTIME: 
CCS: 150.9364276
IONMODE: Negative
INSTRUMENTTYPE: LC-ESI-ITFT
INSTRUMENT: 
COLLISIONENERGY: 75
Comment: registered in MassBank
Num Peaks: 2
78.9189	1000
202.9458	64

NAME: Bromacil; LC-ESI-ITFT; MS2; CE
PRECURSORMZ: 259.008764
PRECURSORTYPE: [M-H]-
FORMULA: C9H13BrN2O2
Ontology: Halopyrimidines
INCHIKEY: CTSLUCNDVMMDHG-UHFFFAOYNA-N
SMILES: CCC(C)N1C(O)=NC(C)=C(Br)C1=O
RETENTIONTIME: 
CCS: 150.9364276
IONMODE: Negative
INSTRUMENTTYPE: LC-ESI-ITFT
INSTRUMENT: 
COLLISIONENERGY: 90
Comment: registered in MassBank
Num Peaks: 1
78.9189	1000

NAME: Bromacil; LC-ESI-ITFT; MS2; CE
PRECURSORMZ: 259.008764
PRECURSORTYPE: [M-H]-
FORMULA: C9H13BrN2O2
Ontology: Halopyrimidines
INCHIKEY: CTSLUCNDVMMDHG-UHFFFAOYNA-N
SMILES: CCC(C)N1C(O)=NC(C)=C(Br)C1=O
RETENTIONTIME: 
CCS: 150.9364276
IONMODE: Negative
INSTRUMENTTYPE: LC-ESI-ITFT
INSTRUMENT: 
COLLISIONENERGY: 35
Comment: registered in MassBank
Num Peaks: 2
78.9189	17
202.9463	1000

NAME: 2,4-D; LC-ESI-ITFT; MS2; CE
PRECURSORMZ: 218.962123
PRECURSORTYPE: [M-H]-
FORMULA: C8H6Cl2O3
Ontology: Chlorophenoxyacetates
INCHIKEY: OVSKIKFHRZPJSS-UHFFFAOYSA-N
SMILES: OC(=O)COC1=C(Cl)C=C(Cl)C=C1
RETENTIONTIME: 
CCS: 138.5397615
IONMODE: Negative
INSTRUMENTTYPE: LC-ESI-ITFT
INSTRUMENT: 
COLLISIONENERGY: 35
Comment: registered in MassBank
Num Peaks: 2
160.95689	1000
174.9725	22

NAME: 2,4-D; LC-ESI-ITFT; MS2; CE
PRECURSORMZ: 218.962123
PRECURSORTYPE: [M-H]-
FORMULA: C8H6Cl2O3
Ontology: Chlorophenoxyacetates
INCHIKEY: OVSKIKFHRZPJSS-UHFFFAOYSA-N
SMILES: OC(=O)COC1=C(Cl)C=C(Cl)C=C1
RETENTIONTIME: 
CCS: 138.5397615
IONMODE: Negative
INSTRUMENTTYPE: LC-ESI-ITFT
INSTRUMENT: 
COLLISIONENERGY: 15
Comment: registered in MassBank
Num Peaks: 3
160.95689	1000
174.97301	9
218.9622	230

NAME: 2,4-D; LC-ESI-ITFT; MS2; CE
PRECURSORMZ: 218.962123
PRECURSORTYPE: [M-H]-
FORMULA: C8H6Cl2O3
Ontology: Chlorophenoxyacetates
INCHIKEY: OVSKIKFHRZPJSS-UHFFFAOYSA-N
SMILES: OC(=O)COC1=C(Cl)C=C(Cl)C=C1
RETENTIONTIME: 
CCS: 138.5397615
IONMODE: Negative
INSTRUMENTTYPE: LC-ESI-ITFT
INSTRUMENT: 
COLLISIONENERGY: 30
Comment: registered in MassBank
Num Peaks: 1
160.9568	1000

NAME: 2,4-D; LC-ESI-ITFT; MS2; CE
PRECURSORMZ: 218.962123
PRECURSORTYPE: [M-H]-
FORMULA: C8H6Cl2O3
Ontology: Chlorophenoxyacetates
INCHIKEY: OVSKIKFHRZPJSS-UHFFFAOYSA-N
SMILES: OC(=O)COC1=C(Cl)C=C(Cl)C=C1
RETENTIONTIME: 
CCS: 138.5397615
IONMODE: Negative
INSTRUMENTTYPE: LC-ESI-ITFT
INSTRUMENT: 
COLLISIONENERGY: 45
Comment: registered in MassBank
Num Peaks: 2
124.9798	11
160.95689	1000

NAME: 2,4-D; LC-ESI-ITFT; MS2; CE
PRECURSORMZ: 218.962123
PRECURSORTYPE: [M-H]-
FORMULA: C8H6Cl2O3
Ontology: Chlorophenoxyacetates
INCHIKEY: OVSKIKFHRZPJSS-UHFFFAOYSA-N
SMILES: OC(=O)COC1=C(Cl)C=C(Cl)C=C1
RETENTIONTIME: 
CCS: 138.5397615
IONMODE: Negative
INSTRUMENTTYPE: LC-ESI-ITFT
INSTRUMENT: 
COLLISIONENERGY: 60
Comment: registered in MassBank
Num Peaks: 3
89.0032	10
124.98	72
160.9568	1000

NAME: 2,4-D; LC-ESI-ITFT; MS2; CE
PRECURSORMZ: 218.962123
PRECURSORTYPE: [M-H]-
FORMULA: C8H6Cl2O3
Ontology: Chlorophenoxyacetates
INCHIKEY: OVSKIKFHRZPJSS-UHFFFAOYSA-N
SMILES: OC(=O)COC1=C(Cl)C=C(Cl)C=C1
RETENTIONTIME: 
CCS: 138.5397615
IONMODE: Negative
INSTRUMENTTYPE: LC-ESI-ITFT
INSTRUMENT: 
COLLISIONENERGY: 75
Comment: registered in MassBank
Num Peaks: 3
89.0034	66
124.9799	304
160.9568	1000

NAME: 2,4-D; LC-ESI-ITFT; MS2; CE
PRECURSORMZ: 218.962123
PRECURSORTYPE: [M-H]-
FORMULA: C8H6Cl2O3
Ontology: Chlorophenoxyacetates
INCHIKEY: OVSKIKFHRZPJSS-UHFFFAOYSA-N
SMILES: OC(=O)COC1=C(Cl)C=C(Cl)C=C1
RETENTIONTIME: 
CCS: 138.5397615
IONMODE: Negative
INSTRUMENTTYPE: LC-ESI-ITFT
INSTRUMENT: 
COLLISIONENERGY: 90
Comment: registered in MassBank
Num Peaks: 3
89.0033	380
124.9799	788
160.9567	1000

NAME: 2,4-D; LC-ESI-ITFT; MS2; CE
PRECURSORMZ: 218.962123
PRECURSORTYPE: [M-H]-
FORMULA: C8H6Cl2O3
Ontology: Chlorophenoxyacetates
INCHIKEY: OVSKIKFHRZPJSS-UHFFFAOYSA-N
SMILES: OC(=O)COC1=C(Cl)C=C(Cl)C=C1
RETENTIONTIME: 
CCS: 138.5397615
IONMODE: Negative
INSTRUMENTTYPE: LC-ESI-ITFT
INSTRUMENT: 
COLLISIONENERGY: 15
Comment: registered in MassBank
Num Peaks: 3
160.9568	1000
174.97211	5
218.9621	205

NAME: 2,4-D; LC-ESI-ITFT; MS2; CE
PRECURSORMZ: 218.962123
PRECURSORTYPE: [M-H]-
FORMULA: C8H6Cl2O3
Ontology: Chlorophenoxyacetates
INCHIKEY: OVSKIKFHRZPJSS-UHFFFAOYSA-N
SMILES: OC(=O)COC1=C(Cl)C=C(Cl)C=C1
RETENTIONTIME: 
CCS: 138.5397615
IONMODE: Negative
INSTRUMENTTYPE: LC-ESI-ITFT
INSTRUMENT: 
COLLISIONENERGY: 30
Comment: registered in MassBank
Num Peaks: 1
160.95689	1000

NAME: 2,4-D; LC-ESI-ITFT; MS2; CE
PRECURSORMZ: 218.962123
PRECURSORTYPE: [M-H]-
FORMULA: C8H6Cl2O3
Ontology: Chlorophenoxyacetates
INCHIKEY: OVSKIKFHRZPJSS-UHFFFAOYSA-N
SMILES: OC(=O)COC1=C(Cl)C=C(Cl)C=C1
RETENTIONTIME: 
CCS: 138.5397615
IONMODE: Negative
INSTRUMENTTYPE: LC-ESI-ITFT
INSTRUMENT: 
COLLISIONENERGY: 45
Comment: registered in MassBank
Num Peaks: 2
124.98	7
160.9568	1000

NAME: 2,4-D; LC-ESI-ITFT; MS2; CE
PRECURSORMZ: 218.962123
PRECURSORTYPE: [M-H]-
FORMULA: C8H6Cl2O3
Ontology: Chlorophenoxyacetates
INCHIKEY: OVSKIKFHRZPJSS-UHFFFAOYSA-N
SMILES: OC(=O)COC1=C(Cl)C=C(Cl)C=C1
RETENTIONTIME: 
CCS: 138.5397615
IONMODE: Negative
INSTRUMENTTYPE: LC-ESI-ITFT
INSTRUMENT: 
COLLISIONENERGY: 60
Comment: registered in MassBank
Num Peaks: 2
124.98	57
160.9568	1000

NAME: 2,4-D; LC-ESI-ITFT; MS2; CE
PRECURSORMZ: 218.962123
PRECURSORTYPE: [M-H]-
FORMULA: C8H6Cl2O3
Ontology: Chlorophenoxyacetates
INCHIKEY: OVSKIKFHRZPJSS-UHFFFAOYSA-N
SMILES: OC(=O)COC1=C(Cl)C=C(Cl)C=C1
RETENTIONTIME: 
CCS: 138.5397615
IONMODE: Negative
INSTRUMENTTYPE: LC-ESI-ITFT
INSTRUMENT: 
COLLISIONENERGY: 75
Comment: registered in MassBank
Num Peaks: 3
89.0032	44
124.9799	272
160.9567	1000

NAME: 2,4-D; LC-ESI-ITFT; MS2; CE
PRECURSORMZ: 218.962123
PRECURSORTYPE: [M-H]-
FORMULA: C8H6Cl2O3
Ontology: Chlorophenoxyacetates
INCHIKEY: OVSKIKFHRZPJSS-UHFFFAOYSA-N
SMILES: OC(=O)COC1=C(Cl)C=C(Cl)C=C1
RETENTIONTIME: 
CCS: 138.5397615
IONMODE: Negative
INSTRUMENTTYPE: LC-ESI-ITFT
INSTRUMENT: 
COLLISIONENERGY: 90
Comment: registered in MassBank
Num Peaks: 3
89.0032	272
124.9798	576
160.9566	1000

NAME: 2,4-D; LC-ESI-ITFT; MS2; CE
PRECURSORMZ: 218.962123
PRECURSORTYPE: [M-H]-
FORMULA: C8H6Cl2O3
Ontology: Chlorophenoxyacetates
INCHIKEY: OVSKIKFHRZPJSS-UHFFFAOYSA-N
SMILES: OC(=O)COC1=C(Cl)C=C(Cl)C=C1
RETENTIONTIME: 
CCS: 138.5397615
IONMODE: Negative
INSTRUMENTTYPE: LC-ESI-ITFT
INSTRUMENT: 
COLLISIONENERGY: 35
Comment: registered in MassBank
Num Peaks: 2
160.95689	1000
174.97211	12

NAME: Dichlorprop; LC-ESI-ITFT; MS2; CE
PRECURSORMZ: 232.977773
PRECURSORTYPE: [M-H]-
FORMULA: C9H8Cl2O3
Ontology: 2-phenoxypropionic acids
INCHIKEY: MZHCENGPTKEIGP-UHFFFAOYNA-N
SMILES: CC(OC1=C(Cl)C=C(Cl)C=C1)C(O)=O
RETENTIONTIME: 
CCS: 142.9806666
IONMODE: Negative
INSTRUMENTTYPE: LC-ESI-ITFT
INSTRUMENT: 
COLLISIONENERGY: 35
Comment: registered in MassBank
Num Peaks: 2
160.95689	1000
188.9882	10

NAME: Dichlorprop; LC-ESI-ITFT; MS2; CE
PRECURSORMZ: 232.977773
PRECURSORTYPE: [M-H]-
FORMULA: C9H8Cl2O3
Ontology: 2-phenoxypropionic acids
INCHIKEY: MZHCENGPTKEIGP-UHFFFAOYNA-N
SMILES: CC(OC1=C(Cl)C=C(Cl)C=C1)C(O)=O
RETENTIONTIME: 
CCS: 142.9806666
IONMODE: Negative
INSTRUMENTTYPE: LC-ESI-ITFT
INSTRUMENT: 
COLLISIONENERGY: 15
Comment: registered in MassBank
Num Peaks: 2
160.9566	1000
232.9776	106

NAME: Dichlorprop; LC-ESI-ITFT; MS2; CE
PRECURSORMZ: 232.977773
PRECURSORTYPE: [M-H]-
FORMULA: C9H8Cl2O3
Ontology: 2-phenoxypropionic acids
INCHIKEY: MZHCENGPTKEIGP-UHFFFAOYNA-N
SMILES: CC(OC1=C(Cl)C=C(Cl)C=C1)C(O)=O
RETENTIONTIME: 
CCS: 142.9806666
IONMODE: Negative
INSTRUMENTTYPE: LC-ESI-ITFT
INSTRUMENT: 
COLLISIONENERGY: 30
Comment: registered in MassBank
Num Peaks: 1
160.9567	1000

NAME: Dichlorprop; LC-ESI-ITFT; MS2; CE
PRECURSORMZ: 232.977773
PRECURSORTYPE: [M-H]-
FORMULA: C9H8Cl2O3
Ontology: 2-phenoxypropionic acids
INCHIKEY: MZHCENGPTKEIGP-UHFFFAOYNA-N
SMILES: CC(OC1=C(Cl)C=C(Cl)C=C1)C(O)=O
RETENTIONTIME: 
CCS: 142.9806666
IONMODE: Negative
INSTRUMENTTYPE: LC-ESI-ITFT
INSTRUMENT: 
COLLISIONENERGY: 45
Comment: registered in MassBank
Num Peaks: 2
124.9794	12
160.9567	1000

NAME: Dichlorprop; LC-ESI-ITFT; MS2; CE
PRECURSORMZ: 232.977773
PRECURSORTYPE: [M-H]-
FORMULA: C9H8Cl2O3
Ontology: 2-phenoxypropionic acids
INCHIKEY: MZHCENGPTKEIGP-UHFFFAOYNA-N
SMILES: CC(OC1=C(Cl)C=C(Cl)C=C1)C(O)=O
RETENTIONTIME: 
CCS: 142.9806666
IONMODE: Negative
INSTRUMENTTYPE: LC-ESI-ITFT
INSTRUMENT: 
COLLISIONENERGY: 60
Comment: registered in MassBank
Num Peaks: 3
89.0033	12
124.9801	96
160.9567	1000

NAME: Dichlorprop; LC-ESI-ITFT; MS2; CE
PRECURSORMZ: 232.977773
PRECURSORTYPE: [M-H]-
FORMULA: C9H8Cl2O3
Ontology: 2-phenoxypropionic acids
INCHIKEY: MZHCENGPTKEIGP-UHFFFAOYNA-N
SMILES: CC(OC1=C(Cl)C=C(Cl)C=C1)C(O)=O
RETENTIONTIME: 
CCS: 142.9806666
IONMODE: Negative
INSTRUMENTTYPE: LC-ESI-ITFT
INSTRUMENT: 
COLLISIONENERGY: 75
Comment: registered in MassBank
Num Peaks: 3
89.0033	82
124.9799	377
160.9566	1000

NAME: Dichlorprop; LC-ESI-ITFT; MS2; CE
PRECURSORMZ: 232.977773
PRECURSORTYPE: [M-H]-
FORMULA: C9H8Cl2O3
Ontology: 2-phenoxypropionic acids
INCHIKEY: MZHCENGPTKEIGP-UHFFFAOYNA-N
SMILES: CC(OC1=C(Cl)C=C(Cl)C=C1)C(O)=O
RETENTIONTIME: 
CCS: 142.9806666
IONMODE: Negative
INSTRUMENTTYPE: LC-ESI-ITFT
INSTRUMENT: 
COLLISIONENERGY: 90
Comment: registered in MassBank
Num Peaks: 3
89.0033	441
124.9798	908
160.9565	1000

NAME: Dichlorprop; LC-ESI-ITFT; MS2; CE
PRECURSORMZ: 232.977773
PRECURSORTYPE: [M-H]-
FORMULA: C9H8Cl2O3
Ontology: 2-phenoxypropionic acids
INCHIKEY: MZHCENGPTKEIGP-UHFFFAOYNA-N
SMILES: CC(OC1=C(Cl)C=C(Cl)C=C1)C(O)=O
RETENTIONTIME: 
CCS: 142.9806666
IONMODE: Negative
INSTRUMENTTYPE: LC-ESI-ITFT
INSTRUMENT: 
COLLISIONENERGY: 15
Comment: registered in MassBank
Num Peaks: 2
160.9566	1000
232.97749	89

NAME: Dichlorprop; LC-ESI-ITFT; MS2; CE
PRECURSORMZ: 232.977773
PRECURSORTYPE: [M-H]-
FORMULA: C9H8Cl2O3
Ontology: 2-phenoxypropionic acids
INCHIKEY: MZHCENGPTKEIGP-UHFFFAOYNA-N
SMILES: CC(OC1=C(Cl)C=C(Cl)C=C1)C(O)=O
RETENTIONTIME: 
CCS: 142.9806666
IONMODE: Negative
INSTRUMENTTYPE: LC-ESI-ITFT
INSTRUMENT: 
COLLISIONENERGY: 30
Comment: registered in MassBank
Num Peaks: 1
160.9566	1000

NAME: Dichlorprop; LC-ESI-ITFT; MS2; CE
PRECURSORMZ: 232.977773
PRECURSORTYPE: [M-H]-
FORMULA: C9H8Cl2O3
Ontology: 2-phenoxypropionic acids
INCHIKEY: MZHCENGPTKEIGP-UHFFFAOYNA-N
SMILES: CC(OC1=C(Cl)C=C(Cl)C=C1)C(O)=O
RETENTIONTIME: 
CCS: 142.9806666
IONMODE: Negative
INSTRUMENTTYPE: LC-ESI-ITFT
INSTRUMENT: 
COLLISIONENERGY: 45
Comment: registered in MassBank
Num Peaks: 2
124.9799	10
160.9567	1000

NAME: Dichlorprop; LC-ESI-ITFT; MS2; CE
PRECURSORMZ: 232.977773
PRECURSORTYPE: [M-H]-
FORMULA: C9H8Cl2O3
Ontology: 2-phenoxypropionic acids
INCHIKEY: MZHCENGPTKEIGP-UHFFFAOYNA-N
SMILES: CC(OC1=C(Cl)C=C(Cl)C=C1)C(O)=O
RETENTIONTIME: 
CCS: 142.9806666
IONMODE: Negative
INSTRUMENTTYPE: LC-ESI-ITFT
INSTRUMENT: 
COLLISIONENERGY: 60
Comment: registered in MassBank
Num Peaks: 2
124.9798	69
160.9565	1000

NAME: Dichlorprop; LC-ESI-ITFT; MS2; CE
PRECURSORMZ: 232.977773
PRECURSORTYPE: [M-H]-
FORMULA: C9H8Cl2O3
Ontology: 2-phenoxypropionic acids
INCHIKEY: MZHCENGPTKEIGP-UHFFFAOYNA-N
SMILES: CC(OC1=C(Cl)C=C(Cl)C=C1)C(O)=O
RETENTIONTIME: 
CCS: 142.9806666
IONMODE: Negative
INSTRUMENTTYPE: LC-ESI-ITFT
INSTRUMENT: 
COLLISIONENERGY: 75
Comment: registered in MassBank
Num Peaks: 3
89.0033	41
124.9799	315
160.9565	1000

NAME: Dichlorprop; LC-ESI-ITFT; MS2; CE
PRECURSORMZ: 232.977773
PRECURSORTYPE: [M-H]-
FORMULA: C9H8Cl2O3
Ontology: 2-phenoxypropionic acids
INCHIKEY: MZHCENGPTKEIGP-UHFFFAOYNA-N
SMILES: CC(OC1=C(Cl)C=C(Cl)C=C1)C(O)=O
RETENTIONTIME: 
CCS: 142.9806666
IONMODE: Negative
INSTRUMENTTYPE: LC-ESI-ITFT
INSTRUMENT: 
COLLISIONENERGY: 90
Comment: registered in MassBank
Num Peaks: 3
89.0034	342
124.98	808
160.95641	1000

NAME: Dichlorprop; LC-ESI-ITFT; MS2; CE
PRECURSORMZ: 232.977773
PRECURSORTYPE: [M-H]-
FORMULA: C9H8Cl2O3
Ontology: 2-phenoxypropionic acids
INCHIKEY: MZHCENGPTKEIGP-UHFFFAOYNA-N
SMILES: CC(OC1=C(Cl)C=C(Cl)C=C1)C(O)=O
RETENTIONTIME: 
CCS: 142.9806666
IONMODE: Negative
INSTRUMENTTYPE: LC-ESI-ITFT
INSTRUMENT: 
COLLISIONENERGY: 35
Comment: registered in MassBank
Num Peaks: 1
160.9568	1000

NAME: Dicamba; LC-ESI-ITFT; MS2; CE
PRECURSORMZ: 218.962123
PRECURSORTYPE: [M-H]-
FORMULA: C8H6Cl2O3
Ontology: O-methoxybenzoic acids and derivatives
INCHIKEY: IWEDIXLBFLAXBO-UHFFFAOYSA-N
SMILES: COC1=C(Cl)C=CC(Cl)=C1C(O)=O
RETENTIONTIME: 
CCS: 134.4480786
IONMODE: Negative
INSTRUMENTTYPE: LC-ESI-ITFT
INSTRUMENT: 
COLLISIONENERGY: 35
Comment: registered in MassBank
Num Peaks: 2
150.94791	26
174.97231	1000

NAME: Dicamba; LC-ESI-ITFT; MS2; CE
PRECURSORMZ: 218.962123
PRECURSORTYPE: [M-H]-
FORMULA: C8H6Cl2O3
Ontology: O-methoxybenzoic acids and derivatives
INCHIKEY: IWEDIXLBFLAXBO-UHFFFAOYSA-N
SMILES: COC1=C(Cl)C=CC(Cl)=C1C(O)=O
RETENTIONTIME: 
CCS: 134.4480786
IONMODE: Negative
INSTRUMENTTYPE: LC-ESI-ITFT
INSTRUMENT: 
COLLISIONENERGY: 60
Comment: registered in MassBank
Num Peaks: 1
154.94679	1000

NAME: Dicamba; LC-ESI-ITFT; MS2; CE
PRECURSORMZ: 218.962123
PRECURSORTYPE: [M-H]-
FORMULA: C8H6Cl2O3
Ontology: O-methoxybenzoic acids and derivatives
INCHIKEY: IWEDIXLBFLAXBO-UHFFFAOYSA-N
SMILES: COC1=C(Cl)C=CC(Cl)=C1C(O)=O
RETENTIONTIME: 
CCS: 134.4480786
IONMODE: Negative
INSTRUMENTTYPE: LC-ESI-ITFT
INSTRUMENT: 
COLLISIONENERGY: 15
Comment: registered in MassBank
Num Peaks: 1
174.9725	1000

NAME: Dicamba; LC-ESI-ITFT; MS2; CE
PRECURSORMZ: 218.962123
PRECURSORTYPE: [M-H]-
FORMULA: C8H6Cl2O3
Ontology: O-methoxybenzoic acids and derivatives
INCHIKEY: IWEDIXLBFLAXBO-UHFFFAOYSA-N
SMILES: COC1=C(Cl)C=CC(Cl)=C1C(O)=O
RETENTIONTIME: 
CCS: 134.4480786
IONMODE: Negative
INSTRUMENTTYPE: LC-ESI-ITFT
INSTRUMENT: 
COLLISIONENERGY: 60
Comment: registered in MassBank
Num Peaks: 1
154.94611	1000

NAME: Dicamba; LC-ESI-ITFT; MS2; CE
PRECURSORMZ: 218.962123
PRECURSORTYPE: [M-H]-
FORMULA: C8H6Cl2O3
Ontology: O-methoxybenzoic acids and derivatives
INCHIKEY: IWEDIXLBFLAXBO-UHFFFAOYSA-N
SMILES: COC1=C(Cl)C=CC(Cl)=C1C(O)=O
RETENTIONTIME: 
CCS: 134.4480786
IONMODE: Negative
INSTRUMENTTYPE: LC-ESI-ITFT
INSTRUMENT: 
COLLISIONENERGY: 35
Comment: registered in MassBank
Num Peaks: 2
150.94679	8
174.97231	1000

NAME: Atrazine-desethyl-2-hydroxy; LC-ESI-ITFT; MS2; CE
PRECURSORMZ: 168.089084
PRECURSORTYPE: [M-H]-
FORMULA: C6H11N5O
Ontology: 1,3,5-triazines
INCHIKEY: GCKLGRUZDXSATG-UHFFFAOYSA-N
SMILES: CC(C)N=C1NC(O)=NC(=N)N1
RETENTIONTIME: 
CCS: 141.3074605
IONMODE: Negative
INSTRUMENTTYPE: LC-ESI-ITFT
INSTRUMENT: 
COLLISIONENERGY: 35
Comment: registered in MassBank
Num Peaks: 5
83.0363	28
83.0615	80
125.0836	1000
126.0423	89
168.0894	10

NAME: Atrazine-desethyl-2-hydroxy; LC-ESI-ITFT; MS2; CE
PRECURSORMZ: 168.089084
PRECURSORTYPE: [M-H]-
FORMULA: C6H11N5O
Ontology: 1,3,5-triazines
INCHIKEY: GCKLGRUZDXSATG-UHFFFAOYSA-N
SMILES: CC(C)N=C1NC(O)=NC(=N)N1
RETENTIONTIME: 
CCS: 141.3074605
IONMODE: Negative
INSTRUMENTTYPE: LC-ESI-ITFT
INSTRUMENT: 
COLLISIONENERGY: 15
Comment: registered in MassBank
Num Peaks: 2
125.0834	32
168.0891	1000

NAME: Atrazine-desethyl-2-hydroxy; LC-ESI-ITFT; MS2; CE
PRECURSORMZ: 168.089084
PRECURSORTYPE: [M-H]-
FORMULA: C6H11N5O
Ontology: 1,3,5-triazines
INCHIKEY: GCKLGRUZDXSATG-UHFFFAOYSA-N
SMILES: CC(C)N=C1NC(O)=NC(=N)N1
RETENTIONTIME: 
CCS: 141.3074605
IONMODE: Negative
INSTRUMENTTYPE: LC-ESI-ITFT
INSTRUMENT: 
COLLISIONENERGY: 30
Comment: registered in MassBank
Num Peaks: 2
125.0836	211
168.0894	1000

NAME: Atrazine-desethyl-2-hydroxy; LC-ESI-ITFT; MS2; CE
PRECURSORMZ: 168.089084
PRECURSORTYPE: [M-H]-
FORMULA: C6H11N5O
Ontology: 1,3,5-triazines
INCHIKEY: GCKLGRUZDXSATG-UHFFFAOYSA-N
SMILES: CC(C)N=C1NC(O)=NC(=N)N1
RETENTIONTIME: 
CCS: 141.3074605
IONMODE: Negative
INSTRUMENTTYPE: LC-ESI-ITFT
INSTRUMENT: 
COLLISIONENERGY: 45
Comment: registered in MassBank
Num Peaks: 5
83.0367	75
83.0614	339
125.0833	857
126.042	140
168.089	1000

NAME: Atrazine-desethyl-2-hydroxy; LC-ESI-ITFT; MS2; CE
PRECURSORMZ: 168.089084
PRECURSORTYPE: [M-H]-
FORMULA: C6H11N5O
Ontology: 1,3,5-triazines
INCHIKEY: GCKLGRUZDXSATG-UHFFFAOYSA-N
SMILES: CC(C)N=C1NC(O)=NC(=N)N1
RETENTIONTIME: 
CCS: 141.3074605
IONMODE: Negative
INSTRUMENTTYPE: LC-ESI-ITFT
INSTRUMENT: 
COLLISIONENERGY: 60
Comment: registered in MassBank
Num Peaks: 4
83.0367	163
83.0615	1000
125.0835	739
126.0416	181

NAME: Atrazine-desethyl-2-hydroxy; LC-ESI-ITFT; MS2; CE
PRECURSORMZ: 168.089084
PRECURSORTYPE: [M-H]-
FORMULA: C6H11N5O
Ontology: 1,3,5-triazines
INCHIKEY: GCKLGRUZDXSATG-UHFFFAOYSA-N
SMILES: CC(C)N=C1NC(O)=NC(=N)N1
RETENTIONTIME: 
CCS: 141.3074605
IONMODE: Negative
INSTRUMENTTYPE: LC-ESI-ITFT
INSTRUMENT: 
COLLISIONENERGY: 75
Comment: registered in MassBank
Num Peaks: 1
83.0615	1000

NAME: Atrazine-desethyl-2-hydroxy; LC-ESI-ITFT; MS2; CE
PRECURSORMZ: 168.089084
PRECURSORTYPE: [M-H]-
FORMULA: C6H11N5O
Ontology: 1,3,5-triazines
INCHIKEY: GCKLGRUZDXSATG-UHFFFAOYSA-N
SMILES: CC(C)N=C1NC(O)=NC(=N)N1
RETENTIONTIME: 
CCS: 141.3074605
IONMODE: Negative
INSTRUMENTTYPE: LC-ESI-ITFT
INSTRUMENT: 
COLLISIONENERGY: 15
Comment: registered in MassBank
Num Peaks: 2
125.0836	29
168.0889	1000

NAME: Atrazine-desethyl-2-hydroxy; LC-ESI-ITFT; MS2; CE
PRECURSORMZ: 168.089084
PRECURSORTYPE: [M-H]-
FORMULA: C6H11N5O
Ontology: 1,3,5-triazines
INCHIKEY: GCKLGRUZDXSATG-UHFFFAOYSA-N
SMILES: CC(C)N=C1NC(O)=NC(=N)N1
RETENTIONTIME: 
CCS: 141.3074605
IONMODE: Negative
INSTRUMENTTYPE: LC-ESI-ITFT
INSTRUMENT: 
COLLISIONENERGY: 30
Comment: registered in MassBank
Num Peaks: 3
83.0615	32
125.0836	210
168.089	1000

NAME: Atrazine-desethyl-2-hydroxy; LC-ESI-ITFT; MS2; CE
PRECURSORMZ: 168.089084
PRECURSORTYPE: [M-H]-
FORMULA: C6H11N5O
Ontology: 1,3,5-triazines
INCHIKEY: GCKLGRUZDXSATG-UHFFFAOYSA-N
SMILES: CC(C)N=C1NC(O)=NC(=N)N1
RETENTIONTIME: 
CCS: 141.3074605
IONMODE: Negative
INSTRUMENTTYPE: LC-ESI-ITFT
INSTRUMENT: 
COLLISIONENERGY: 45
Comment: registered in MassBank
Num Peaks: 4
83.0615	327
125.0835	871
126.0423	119
168.0891	1000

NAME: Atrazine-desethyl-2-hydroxy; LC-ESI-ITFT; MS2; CE
PRECURSORMZ: 168.089084
PRECURSORTYPE: [M-H]-
FORMULA: C6H11N5O
Ontology: 1,3,5-triazines
INCHIKEY: GCKLGRUZDXSATG-UHFFFAOYSA-N
SMILES: CC(C)N=C1NC(O)=NC(=N)N1
RETENTIONTIME: 
CCS: 141.3074605
IONMODE: Negative
INSTRUMENTTYPE: LC-ESI-ITFT
INSTRUMENT: 
COLLISIONENERGY: 60
Comment: registered in MassBank
Num Peaks: 4
83.0615	1000
125.0836	515
126.0427	198
168.08839	258

NAME: Atrazine-desethyl-2-hydroxy; LC-ESI-ITFT; MS2; CE
PRECURSORMZ: 168.089084
PRECURSORTYPE: [M-H]-
FORMULA: C6H11N5O
Ontology: 1,3,5-triazines
INCHIKEY: GCKLGRUZDXSATG-UHFFFAOYSA-N
SMILES: CC(C)N=C1NC(O)=NC(=N)N1
RETENTIONTIME: 
CCS: 141.3074605
IONMODE: Negative
INSTRUMENTTYPE: LC-ESI-ITFT
INSTRUMENT: 
COLLISIONENERGY: 75
Comment: registered in MassBank
Num Peaks: 2
83.0365	310
83.0615	1000

NAME: Atrazine-2-hydroxy; LC-ESI-ITFT; MS2; CE
PRECURSORMZ: 196.120384
PRECURSORTYPE: [M-H]-
FORMULA: C8H15N5O
Ontology: 1,3,5-triazines
INCHIKEY: NFMIMWNQWAWNDW-UHFFFAOYSA-N
SMILES: CCN=C1NC(NC(O)=N1)=NC(C)C
RETENTIONTIME: 
CCS: 145.3809803
IONMODE: Negative
INSTRUMENTTYPE: LC-ESI-ITFT
INSTRUMENT: 
COLLISIONENERGY: 35
Comment: registered in MassBank
Num Peaks: 7
69.0459	121
83.0616	514
111.0678	471
125.0835	709
154.07359	1000
168.0892	349
196.12061	776

NAME: Atrazine-2-hydroxy; LC-ESI-ITFT; MS2; CE
PRECURSORMZ: 196.120384
PRECURSORTYPE: [M-H]-
FORMULA: C8H15N5O
Ontology: 1,3,5-triazines
INCHIKEY: NFMIMWNQWAWNDW-UHFFFAOYSA-N
SMILES: CCN=C1NC(NC(O)=N1)=NC(C)C
RETENTIONTIME: 
CCS: 145.3809803
IONMODE: Negative
INSTRUMENTTYPE: LC-ESI-ITFT
INSTRUMENT: 
COLLISIONENERGY: 30
Comment: registered in MassBank
Num Peaks: 5
69.0458	12
83.0613	29
125.0837	22
154.07359	37
196.12061	1000

NAME: Atrazine-2-hydroxy; LC-ESI-ITFT; MS2; CE
PRECURSORMZ: 196.120384
PRECURSORTYPE: [M-H]-
FORMULA: C8H15N5O
Ontology: 1,3,5-triazines
INCHIKEY: NFMIMWNQWAWNDW-UHFFFAOYSA-N
SMILES: CCN=C1NC(NC(O)=N1)=NC(C)C
RETENTIONTIME: 
CCS: 145.3809803
IONMODE: Negative
INSTRUMENTTYPE: LC-ESI-ITFT
INSTRUMENT: 
COLLISIONENERGY: 45
Comment: registered in MassBank
Num Peaks: 6
83.0614	292
111.0677	111
125.0832	189
154.07359	214
168.0885	81
196.12061	1000

NAME: Atrazine-2-hydroxy; LC-ESI-ITFT; MS2; CE
PRECURSORMZ: 196.120384
PRECURSORTYPE: [M-H]-
FORMULA: C8H15N5O
Ontology: 1,3,5-triazines
INCHIKEY: NFMIMWNQWAWNDW-UHFFFAOYSA-N
SMILES: CCN=C1NC(NC(O)=N1)=NC(C)C
RETENTIONTIME: 
CCS: 145.3809803
IONMODE: Negative
INSTRUMENTTYPE: LC-ESI-ITFT
INSTRUMENT: 
COLLISIONENERGY: 60
Comment: registered in MassBank
Num Peaks: 5
69.0459	282
83.0616	1000
111.0681	135
125.0835	259
154.0733	289

NAME: Atrazine-2-hydroxy; LC-ESI-ITFT; MS2; CE
PRECURSORMZ: 196.120384
PRECURSORTYPE: [M-H]-
FORMULA: C8H15N5O
Ontology: 1,3,5-triazines
INCHIKEY: NFMIMWNQWAWNDW-UHFFFAOYSA-N
SMILES: CCN=C1NC(NC(O)=N1)=NC(C)C
RETENTIONTIME: 
CCS: 145.3809803
IONMODE: Negative
INSTRUMENTTYPE: LC-ESI-ITFT
INSTRUMENT: 
COLLISIONENERGY: 75
Comment: registered in MassBank
Num Peaks: 2
69.0457	268
83.0615	1000

NAME: Atrazine-2-hydroxy; LC-ESI-ITFT; MS2; CE
PRECURSORMZ: 196.120384
PRECURSORTYPE: [M-H]-
FORMULA: C8H15N5O
Ontology: 1,3,5-triazines
INCHIKEY: NFMIMWNQWAWNDW-UHFFFAOYSA-N
SMILES: CCN=C1NC(NC(O)=N1)=NC(C)C
RETENTIONTIME: 
CCS: 145.3809803
IONMODE: Negative
INSTRUMENTTYPE: LC-ESI-ITFT
INSTRUMENT: 
COLLISIONENERGY: 90
Comment: registered in MassBank
Num Peaks: 2
69.0457	399
83.0614	1000

NAME: Atrazine-2-hydroxy; LC-ESI-ITFT; MS2; CE
PRECURSORMZ: 196.120384
PRECURSORTYPE: [M-H]-
FORMULA: C8H15N5O
Ontology: 1,3,5-triazines
INCHIKEY: NFMIMWNQWAWNDW-UHFFFAOYSA-N
SMILES: CCN=C1NC(NC(O)=N1)=NC(C)C
RETENTIONTIME: 
CCS: 145.3809803
IONMODE: Negative
INSTRUMENTTYPE: LC-ESI-ITFT
INSTRUMENT: 
COLLISIONENERGY: 30
Comment: registered in MassBank
Num Peaks: 5
111.0675	13
125.0835	22
154.0732	39
168.0891	15
196.12041	1000

NAME: Atrazine-2-hydroxy; LC-ESI-ITFT; MS2; CE
PRECURSORMZ: 196.120384
PRECURSORTYPE: [M-H]-
FORMULA: C8H15N5O
Ontology: 1,3,5-triazines
INCHIKEY: NFMIMWNQWAWNDW-UHFFFAOYSA-N
SMILES: CCN=C1NC(NC(O)=N1)=NC(C)C
RETENTIONTIME: 
CCS: 145.3809803
IONMODE: Negative
INSTRUMENTTYPE: LC-ESI-ITFT
INSTRUMENT: 
COLLISIONENERGY: 45
Comment: registered in MassBank
Num Peaks: 7
69.0457	124
83.0615	320
111.0678	76
125.0832	162
154.0733	198
168.08971	94
196.1205	1000

NAME: Atrazine-2-hydroxy; LC-ESI-ITFT; MS2; CE
PRECURSORMZ: 196.120384
PRECURSORTYPE: [M-H]-
FORMULA: C8H15N5O
Ontology: 1,3,5-triazines
INCHIKEY: NFMIMWNQWAWNDW-UHFFFAOYSA-N
SMILES: CCN=C1NC(NC(O)=N1)=NC(C)C
RETENTIONTIME: 
CCS: 145.3809803
IONMODE: Negative
INSTRUMENTTYPE: LC-ESI-ITFT
INSTRUMENT: 
COLLISIONENERGY: 90
Comment: registered in MassBank
Num Peaks: 1
83.0614	1000

NAME: Diuron-desdimethyl; LC-ESI-ITFT; MS2; CE
PRECURSORMZ: 202.978442
PRECURSORTYPE: [M-H]-
FORMULA: C7H6Cl2N2O
Ontology: Dichlorobenzenes
INCHIKEY: CYESCLHCWJKRKM-UHFFFAOYSA-N
SMILES: OC(=N)NC1=CC(Cl)=C(Cl)C=C1
RETENTIONTIME: 
CCS: 130.3432244
IONMODE: Negative
INSTRUMENTTYPE: LC-ESI-ITFT
INSTRUMENT: 
COLLISIONENERGY: 35
Comment: registered in MassBank
Num Peaks: 1
159.97279	1000

NAME: Diuron-desdimethyl; LC-ESI-ITFT; MS2; CE
PRECURSORMZ: 202.978442
PRECURSORTYPE: [M-H]-
FORMULA: C7H6Cl2N2O
Ontology: Dichlorobenzenes
INCHIKEY: CYESCLHCWJKRKM-UHFFFAOYSA-N
SMILES: OC(=N)NC1=CC(Cl)=C(Cl)C=C1
RETENTIONTIME: 
CCS: 130.3432244
IONMODE: Negative
INSTRUMENTTYPE: LC-ESI-ITFT
INSTRUMENT: 
COLLISIONENERGY: 15
Comment: registered in MassBank
Num Peaks: 2
159.9733	440
202.9794	1000

NAME: Diuron-desdimethyl; LC-ESI-ITFT; MS2; CE
PRECURSORMZ: 202.978442
PRECURSORTYPE: [M-H]-
FORMULA: C7H6Cl2N2O
Ontology: Dichlorobenzenes
INCHIKEY: CYESCLHCWJKRKM-UHFFFAOYSA-N
SMILES: OC(=N)NC1=CC(Cl)=C(Cl)C=C1
RETENTIONTIME: 
CCS: 130.3432244
IONMODE: Negative
INSTRUMENTTYPE: LC-ESI-ITFT
INSTRUMENT: 
COLLISIONENERGY: 30
Comment: registered in MassBank
Num Peaks: 1
159.97301	1000

NAME: Diuron-desdimethyl; LC-ESI-ITFT; MS2; CE
PRECURSORMZ: 202.978442
PRECURSORTYPE: [M-H]-
FORMULA: C7H6Cl2N2O
Ontology: Dichlorobenzenes
INCHIKEY: CYESCLHCWJKRKM-UHFFFAOYSA-N
SMILES: OC(=N)NC1=CC(Cl)=C(Cl)C=C1
RETENTIONTIME: 
CCS: 130.3432244
IONMODE: Negative
INSTRUMENTTYPE: LC-ESI-ITFT
INSTRUMENT: 
COLLISIONENERGY: 45
Comment: registered in MassBank
Num Peaks: 1
159.97301	1000

NAME: Diuron-desdimethyl; LC-ESI-ITFT; MS2; CE
PRECURSORMZ: 202.978442
PRECURSORTYPE: [M-H]-
FORMULA: C7H6Cl2N2O
Ontology: Dichlorobenzenes
INCHIKEY: CYESCLHCWJKRKM-UHFFFAOYSA-N
SMILES: OC(=N)NC1=CC(Cl)=C(Cl)C=C1
RETENTIONTIME: 
CCS: 130.3432244
IONMODE: Negative
INSTRUMENTTYPE: LC-ESI-ITFT
INSTRUMENT: 
COLLISIONENERGY: 60
Comment: registered in MassBank
Num Peaks: 1
159.9731	1000

NAME: Diuron-desdimethyl; LC-ESI-ITFT; MS2; CE
PRECURSORMZ: 202.978442
PRECURSORTYPE: [M-H]-
FORMULA: C7H6Cl2N2O
Ontology: Dichlorobenzenes
INCHIKEY: CYESCLHCWJKRKM-UHFFFAOYSA-N
SMILES: OC(=N)NC1=CC(Cl)=C(Cl)C=C1
RETENTIONTIME: 
CCS: 130.3432244
IONMODE: Negative
INSTRUMENTTYPE: LC-ESI-ITFT
INSTRUMENT: 
COLLISIONENERGY: 75
Comment: registered in MassBank
Num Peaks: 2
159.9724	1000
202.9791	797

NAME: Diuron-desdimethyl; LC-ESI-ITFT; MS2; CE
PRECURSORMZ: 202.978442
PRECURSORTYPE: [M-H]-
FORMULA: C7H6Cl2N2O
Ontology: Dichlorobenzenes
INCHIKEY: CYESCLHCWJKRKM-UHFFFAOYSA-N
SMILES: OC(=N)NC1=CC(Cl)=C(Cl)C=C1
RETENTIONTIME: 
CCS: 130.3432244
IONMODE: Negative
INSTRUMENTTYPE: LC-ESI-ITFT
INSTRUMENT: 
COLLISIONENERGY: 15
Comment: registered in MassBank
Num Peaks: 2
159.97279	628
202.9783	1000

NAME: Diuron-desdimethyl; LC-ESI-ITFT; MS2; CE
PRECURSORMZ: 202.978442
PRECURSORTYPE: [M-H]-
FORMULA: C7H6Cl2N2O
Ontology: Dichlorobenzenes
INCHIKEY: CYESCLHCWJKRKM-UHFFFAOYSA-N
SMILES: OC(=N)NC1=CC(Cl)=C(Cl)C=C1
RETENTIONTIME: 
CCS: 130.3432244
IONMODE: Negative
INSTRUMENTTYPE: LC-ESI-ITFT
INSTRUMENT: 
COLLISIONENERGY: 30
Comment: registered in MassBank
Num Peaks: 1
159.9729	1000

NAME: Diuron-desdimethyl; LC-ESI-ITFT; MS2; CE
PRECURSORMZ: 202.978442
PRECURSORTYPE: [M-H]-
FORMULA: C7H6Cl2N2O
Ontology: Dichlorobenzenes
INCHIKEY: CYESCLHCWJKRKM-UHFFFAOYSA-N
SMILES: OC(=N)NC1=CC(Cl)=C(Cl)C=C1
RETENTIONTIME: 
CCS: 130.3432244
IONMODE: Negative
INSTRUMENTTYPE: LC-ESI-ITFT
INSTRUMENT: 
COLLISIONENERGY: 45
Comment: registered in MassBank
Num Peaks: 1
159.97279	1000

NAME: Diuron-desdimethyl; LC-ESI-ITFT; MS2; CE
PRECURSORMZ: 202.978442
PRECURSORTYPE: [M-H]-
FORMULA: C7H6Cl2N2O
Ontology: Dichlorobenzenes
INCHIKEY: CYESCLHCWJKRKM-UHFFFAOYSA-N
SMILES: OC(=N)NC1=CC(Cl)=C(Cl)C=C1
RETENTIONTIME: 
CCS: 130.3432244
IONMODE: Negative
INSTRUMENTTYPE: LC-ESI-ITFT
INSTRUMENT: 
COLLISIONENERGY: 60
Comment: registered in MassBank
Num Peaks: 1
159.97279	1000

NAME: Diuron-desdimethyl; LC-ESI-ITFT; MS2; CE
PRECURSORMZ: 202.978442
PRECURSORTYPE: [M-H]-
FORMULA: C7H6Cl2N2O
Ontology: Dichlorobenzenes
INCHIKEY: CYESCLHCWJKRKM-UHFFFAOYSA-N
SMILES: OC(=N)NC1=CC(Cl)=C(Cl)C=C1
RETENTIONTIME: 
CCS: 130.3432244
IONMODE: Negative
INSTRUMENTTYPE: LC-ESI-ITFT
INSTRUMENT: 
COLLISIONENERGY: 75
Comment: registered in MassBank
Num Peaks: 1
159.97301	1000

NAME: Sulcotrione; LC-ESI-ITFT; MS2; CE
PRECURSORMZ: 327.009945
PRECURSORTYPE: [M-H]-
FORMULA: C14H13ClO5S
Ontology: Benzoylcyclohexane-1,3-diones
INCHIKEY: PQTBTIFWAXVEPB-UHFFFAOYSA-N
SMILES: CS(=O)(=O)C1=CC(Cl)=C(C=C1)C(=O)C1C(=O)CCCC1=O
RETENTIONTIME: 
CCS: -1
IONMODE: Negative
INSTRUMENTTYPE: LC-ESI-ITFT
INSTRUMENT: 
COLLISIONENERGY: 35
Comment: registered in MassBank
Num Peaks: 1
291.03311	1000

NAME: Sulcotrione; LC-ESI-ITFT; MS2; CE
PRECURSORMZ: 327.009945
PRECURSORTYPE: [M-H]-
FORMULA: C14H13ClO5S
Ontology: Benzoylcyclohexane-1,3-diones
INCHIKEY: PQTBTIFWAXVEPB-UHFFFAOYSA-N
SMILES: CS(=O)(=O)C1=CC(Cl)=C(C=C1)C(=O)C1C(=O)CCCC1=O
RETENTIONTIME: 
CCS: -1
IONMODE: Negative
INSTRUMENTTYPE: LC-ESI-ITFT
INSTRUMENT: 
COLLISIONENERGY: 15
Comment: registered in MassBank
Num Peaks: 2
291.03329	1000
327.0094	182

NAME: Sulcotrione; LC-ESI-ITFT; MS2; CE
PRECURSORMZ: 327.009945
PRECURSORTYPE: [M-H]-
FORMULA: C14H13ClO5S
Ontology: Benzoylcyclohexane-1,3-diones
INCHIKEY: PQTBTIFWAXVEPB-UHFFFAOYSA-N
SMILES: CS(=O)(=O)C1=CC(Cl)=C(C=C1)C(=O)C1C(=O)CCCC1=O
RETENTIONTIME: 
CCS: -1
IONMODE: Negative
INSTRUMENTTYPE: LC-ESI-ITFT
INSTRUMENT: 
COLLISIONENERGY: 30
Comment: registered in MassBank
Num Peaks: 1
291.03311	1000

NAME: Sulcotrione; LC-ESI-ITFT; MS2; CE
PRECURSORMZ: 327.009945
PRECURSORTYPE: [M-H]-
FORMULA: C14H13ClO5S
Ontology: Benzoylcyclohexane-1,3-diones
INCHIKEY: PQTBTIFWAXVEPB-UHFFFAOYSA-N
SMILES: CS(=O)(=O)C1=CC(Cl)=C(C=C1)C(=O)C1C(=O)CCCC1=O
RETENTIONTIME: 
CCS: -1
IONMODE: Negative
INSTRUMENTTYPE: LC-ESI-ITFT
INSTRUMENT: 
COLLISIONENERGY: 45
Comment: registered in MassBank
Num Peaks: 4
212.0479	114
215.0347	299
249.0231	303
291.03369	1000

NAME: Sulcotrione; LC-ESI-ITFT; MS2; CE
PRECURSORMZ: 327.009945
PRECURSORTYPE: [M-H]-
FORMULA: C14H13ClO5S
Ontology: Benzoylcyclohexane-1,3-diones
INCHIKEY: PQTBTIFWAXVEPB-UHFFFAOYSA-N
SMILES: CS(=O)(=O)C1=CC(Cl)=C(C=C1)C(=O)C1C(=O)CCCC1=O
RETENTIONTIME: 
CCS: -1
IONMODE: Negative
INSTRUMENTTYPE: LC-ESI-ITFT
INSTRUMENT: 
COLLISIONENERGY: 60
Comment: registered in MassBank
Num Peaks: 4
212.04829	191
215.0351	1000
249.02251	430
291.03409	169

NAME: Sulcotrione; LC-ESI-ITFT; MS2; CE
PRECURSORMZ: 327.009945
PRECURSORTYPE: [M-H]-
FORMULA: C14H13ClO5S
Ontology: Benzoylcyclohexane-1,3-diones
INCHIKEY: PQTBTIFWAXVEPB-UHFFFAOYSA-N
SMILES: CS(=O)(=O)C1=CC(Cl)=C(C=C1)C(=O)C1C(=O)CCCC1=O
RETENTIONTIME: 
CCS: -1
IONMODE: Negative
INSTRUMENTTYPE: LC-ESI-ITFT
INSTRUMENT: 
COLLISIONENERGY: 75
Comment: registered in MassBank
Num Peaks: 1
215.0347	1000

NAME: Sulcotrione; LC-ESI-ITFT; MS2; CE
PRECURSORMZ: 327.009945
PRECURSORTYPE: [M-H]-
FORMULA: C14H13ClO5S
Ontology: Benzoylcyclohexane-1,3-diones
INCHIKEY: PQTBTIFWAXVEPB-UHFFFAOYSA-N
SMILES: CS(=O)(=O)C1=CC(Cl)=C(C=C1)C(=O)C1C(=O)CCCC1=O
RETENTIONTIME: 
CCS: -1
IONMODE: Negative
INSTRUMENTTYPE: LC-ESI-ITFT
INSTRUMENT: 
COLLISIONENERGY: 15
Comment: registered in MassBank
Num Peaks: 2
291.0329	1000
327.00919	137

NAME: Sulcotrione; LC-ESI-ITFT; MS2; CE
PRECURSORMZ: 327.009945
PRECURSORTYPE: [M-H]-
FORMULA: C14H13ClO5S
Ontology: Benzoylcyclohexane-1,3-diones
INCHIKEY: PQTBTIFWAXVEPB-UHFFFAOYSA-N
SMILES: CS(=O)(=O)C1=CC(Cl)=C(C=C1)C(=O)C1C(=O)CCCC1=O
RETENTIONTIME: 
CCS: -1
IONMODE: Negative
INSTRUMENTTYPE: LC-ESI-ITFT
INSTRUMENT: 
COLLISIONENERGY: 30
Comment: registered in MassBank
Num Peaks: 1
291.03281	1000

NAME: Sulcotrione; LC-ESI-ITFT; MS2; CE
PRECURSORMZ: 327.009945
PRECURSORTYPE: [M-H]-
FORMULA: C14H13ClO5S
Ontology: Benzoylcyclohexane-1,3-diones
INCHIKEY: PQTBTIFWAXVEPB-UHFFFAOYSA-N
SMILES: CS(=O)(=O)C1=CC(Cl)=C(C=C1)C(=O)C1C(=O)CCCC1=O
RETENTIONTIME: 
CCS: -1
IONMODE: Negative
INSTRUMENTTYPE: LC-ESI-ITFT
INSTRUMENT: 
COLLISIONENERGY: 45
Comment: registered in MassBank
Num Peaks: 4
212.0479	101
215.03439	228
249.02271	251
291.03281	1000

NAME: Sulcotrione; LC-ESI-ITFT; MS2; CE
PRECURSORMZ: 327.009945
PRECURSORTYPE: [M-H]-
FORMULA: C14H13ClO5S
Ontology: Benzoylcyclohexane-1,3-diones
INCHIKEY: PQTBTIFWAXVEPB-UHFFFAOYSA-N
SMILES: CS(=O)(=O)C1=CC(Cl)=C(C=C1)C(=O)C1C(=O)CCCC1=O
RETENTIONTIME: 
CCS: -1
IONMODE: Negative
INSTRUMENTTYPE: LC-ESI-ITFT
INSTRUMENT: 
COLLISIONENERGY: 60
Comment: registered in MassBank
Num Peaks: 4
212.0481	314
215.03481	1000
249.02251	403
291.034	287

NAME: Sulcotrione; LC-ESI-ITFT; MS2; CE
PRECURSORMZ: 327.009945
PRECURSORTYPE: [M-H]-
FORMULA: C14H13ClO5S
Ontology: Benzoylcyclohexane-1,3-diones
INCHIKEY: PQTBTIFWAXVEPB-UHFFFAOYSA-N
SMILES: CS(=O)(=O)C1=CC(Cl)=C(C=C1)C(=O)C1C(=O)CCCC1=O
RETENTIONTIME: 
CCS: -1
IONMODE: Negative
INSTRUMENTTYPE: LC-ESI-ITFT
INSTRUMENT: 
COLLISIONENERGY: 75
Comment: registered in MassBank
Num Peaks: 1
215.03391	1000

NAME: Sulcotrione; LC-ESI-ITFT; MS2; CE
PRECURSORMZ: 327.009945
PRECURSORTYPE: [M-H]-
FORMULA: C14H13ClO5S
Ontology: Benzoylcyclohexane-1,3-diones
INCHIKEY: PQTBTIFWAXVEPB-UHFFFAOYSA-N
SMILES: CS(=O)(=O)C1=CC(Cl)=C(C=C1)C(=O)C1C(=O)CCCC1=O
RETENTIONTIME: 
CCS: -1
IONMODE: Negative
INSTRUMENTTYPE: LC-ESI-ITFT
INSTRUMENT: 
COLLISIONENERGY: 90
Comment: registered in MassBank
Num Peaks: 1
215.0349	1000

NAME: Sulcotrione; LC-ESI-ITFT; MS2; CE
PRECURSORMZ: 327.009945
PRECURSORTYPE: [M-H]-
FORMULA: C14H13ClO5S
Ontology: Benzoylcyclohexane-1,3-diones
INCHIKEY: PQTBTIFWAXVEPB-UHFFFAOYSA-N
SMILES: CS(=O)(=O)C1=CC(Cl)=C(C=C1)C(=O)C1C(=O)CCCC1=O
RETENTIONTIME: 
CCS: -1
IONMODE: Negative
INSTRUMENTTYPE: LC-ESI-ITFT
INSTRUMENT: 
COLLISIONENERGY: 35
Comment: registered in MassBank
Num Peaks: 1
291.03281	1000

NAME: Diuron; LC-ESI-ITFT; MS2; CE
PRECURSORMZ: 231.009742
PRECURSORTYPE: [M-H]-
FORMULA: C9H10Cl2N2O
Ontology: N-phenylureas
INCHIKEY: XMTQQYYKAHVGBJ-UHFFFAOYSA-N
SMILES: CN(C)C(O)=NC1=CC(Cl)=C(Cl)C=C1
RETENTIONTIME: 
CCS: 145.6207773
IONMODE: Negative
INSTRUMENTTYPE: LC-ESI-ITFT
INSTRUMENT: 
COLLISIONENERGY: 35
Comment: registered in MassBank
Num Peaks: 3
159.9726	15
185.9521	1000
231.0097	6

NAME: Diuron; LC-ESI-ITFT; MS2; CE
PRECURSORMZ: 231.009742
PRECURSORTYPE: [M-H]-
FORMULA: C9H10Cl2N2O
Ontology: N-phenylureas
INCHIKEY: XMTQQYYKAHVGBJ-UHFFFAOYSA-N
SMILES: CN(C)C(O)=NC1=CC(Cl)=C(Cl)C=C1
RETENTIONTIME: 
CCS: 145.6207773
IONMODE: Negative
INSTRUMENTTYPE: LC-ESI-ITFT
INSTRUMENT: 
COLLISIONENERGY: 15
Comment: registered in MassBank
Num Peaks: 2
185.95151	7
231.0098	1000

NAME: Diuron; LC-ESI-ITFT; MS2; CE
PRECURSORMZ: 231.009742
PRECURSORTYPE: [M-H]-
FORMULA: C9H10Cl2N2O
Ontology: N-phenylureas
INCHIKEY: XMTQQYYKAHVGBJ-UHFFFAOYSA-N
SMILES: CN(C)C(O)=NC1=CC(Cl)=C(Cl)C=C1
RETENTIONTIME: 
CCS: 145.6207773
IONMODE: Negative
INSTRUMENTTYPE: LC-ESI-ITFT
INSTRUMENT: 
COLLISIONENERGY: 30
Comment: registered in MassBank
Num Peaks: 3
159.97279	8
185.9518	134
231.0097	1000

NAME: Diuron; LC-ESI-ITFT; MS2; CE
PRECURSORMZ: 231.009742
PRECURSORTYPE: [M-H]-
FORMULA: C9H10Cl2N2O
Ontology: N-phenylureas
INCHIKEY: XMTQQYYKAHVGBJ-UHFFFAOYSA-N
SMILES: CN(C)C(O)=NC1=CC(Cl)=C(Cl)C=C1
RETENTIONTIME: 
CCS: 145.6207773
IONMODE: Negative
INSTRUMENTTYPE: LC-ESI-ITFT
INSTRUMENT: 
COLLISIONENERGY: 45
Comment: registered in MassBank
Num Peaks: 4
149.9751	89
159.9726	51
185.952	1000
231.0098	805

NAME: Diuron; LC-ESI-ITFT; MS2; CE
PRECURSORMZ: 231.009742
PRECURSORTYPE: [M-H]-
FORMULA: C9H10Cl2N2O
Ontology: N-phenylureas
INCHIKEY: XMTQQYYKAHVGBJ-UHFFFAOYSA-N
SMILES: CN(C)C(O)=NC1=CC(Cl)=C(Cl)C=C1
RETENTIONTIME: 
CCS: 145.6207773
IONMODE: Negative
INSTRUMENTTYPE: LC-ESI-ITFT
INSTRUMENT: 
COLLISIONENERGY: 60
Comment: registered in MassBank
Num Peaks: 3
149.9751	466
185.9519	1000
231.00999	168

NAME: Diuron; LC-ESI-ITFT; MS2; CE
PRECURSORMZ: 231.009742
PRECURSORTYPE: [M-H]-
FORMULA: C9H10Cl2N2O
Ontology: N-phenylureas
INCHIKEY: XMTQQYYKAHVGBJ-UHFFFAOYSA-N
SMILES: CN(C)C(O)=NC1=CC(Cl)=C(Cl)C=C1
RETENTIONTIME: 
CCS: 145.6207773
IONMODE: Negative
INSTRUMENTTYPE: LC-ESI-ITFT
INSTRUMENT: 
COLLISIONENERGY: 75
Comment: registered in MassBank
Num Peaks: 2
149.9751	1000
185.95171	543

NAME: Diuron; LC-ESI-ITFT; MS2; CE
PRECURSORMZ: 231.009742
PRECURSORTYPE: [M-H]-
FORMULA: C9H10Cl2N2O
Ontology: N-phenylureas
INCHIKEY: XMTQQYYKAHVGBJ-UHFFFAOYSA-N
SMILES: CN(C)C(O)=NC1=CC(Cl)=C(Cl)C=C1
RETENTIONTIME: 
CCS: 145.6207773
IONMODE: Negative
INSTRUMENTTYPE: LC-ESI-ITFT
INSTRUMENT: 
COLLISIONENERGY: 90
Comment: registered in MassBank
Num Peaks: 1
149.97569	1000

NAME: Diuron; LC-ESI-ITFT; MS2; CE
PRECURSORMZ: 231.009742
PRECURSORTYPE: [M-H]-
FORMULA: C9H10Cl2N2O
Ontology: N-phenylureas
INCHIKEY: XMTQQYYKAHVGBJ-UHFFFAOYSA-N
SMILES: CN(C)C(O)=NC1=CC(Cl)=C(Cl)C=C1
RETENTIONTIME: 
CCS: 145.6207773
IONMODE: Negative
INSTRUMENTTYPE: LC-ESI-ITFT
INSTRUMENT: 
COLLISIONENERGY: 15
Comment: registered in MassBank
Num Peaks: 2
185.9511	7
231.00951	1000

NAME: Diuron; LC-ESI-ITFT; MS2; CE
PRECURSORMZ: 231.009742
PRECURSORTYPE: [M-H]-
FORMULA: C9H10Cl2N2O
Ontology: N-phenylureas
INCHIKEY: XMTQQYYKAHVGBJ-UHFFFAOYSA-N
SMILES: CN(C)C(O)=NC1=CC(Cl)=C(Cl)C=C1
RETENTIONTIME: 
CCS: 145.6207773
IONMODE: Negative
INSTRUMENTTYPE: LC-ESI-ITFT
INSTRUMENT: 
COLLISIONENERGY: 30
Comment: registered in MassBank
Num Peaks: 3
159.9725	9
185.95171	125
231.00951	1000

NAME: Diuron; LC-ESI-ITFT; MS2; CE
PRECURSORMZ: 231.009742
PRECURSORTYPE: [M-H]-
FORMULA: C9H10Cl2N2O
Ontology: N-phenylureas
INCHIKEY: XMTQQYYKAHVGBJ-UHFFFAOYSA-N
SMILES: CN(C)C(O)=NC1=CC(Cl)=C(Cl)C=C1
RETENTIONTIME: 
CCS: 145.6207773
IONMODE: Negative
INSTRUMENTTYPE: LC-ESI-ITFT
INSTRUMENT: 
COLLISIONENERGY: 45
Comment: registered in MassBank
Num Peaks: 4
149.9751	58
159.97279	52
185.9518	1000
231.0094	801

NAME: Diuron; LC-ESI-ITFT; MS2; CE
PRECURSORMZ: 231.009742
PRECURSORTYPE: [M-H]-
FORMULA: C9H10Cl2N2O
Ontology: N-phenylureas
INCHIKEY: XMTQQYYKAHVGBJ-UHFFFAOYSA-N
SMILES: CN(C)C(O)=NC1=CC(Cl)=C(Cl)C=C1
RETENTIONTIME: 
CCS: 145.6207773
IONMODE: Negative
INSTRUMENTTYPE: LC-ESI-ITFT
INSTRUMENT: 
COLLISIONENERGY: 60
Comment: registered in MassBank
Num Peaks: 3
149.9752	380
185.95171	1000
231.0094	143

NAME: Diuron; LC-ESI-ITFT; MS2; CE
PRECURSORMZ: 231.009742
PRECURSORTYPE: [M-H]-
FORMULA: C9H10Cl2N2O
Ontology: N-phenylureas
INCHIKEY: XMTQQYYKAHVGBJ-UHFFFAOYSA-N
SMILES: CN(C)C(O)=NC1=CC(Cl)=C(Cl)C=C1
RETENTIONTIME: 
CCS: 145.6207773
IONMODE: Negative
INSTRUMENTTYPE: LC-ESI-ITFT
INSTRUMENT: 
COLLISIONENERGY: 75
Comment: registered in MassBank
Num Peaks: 2
149.97501	1000
185.9514	518

NAME: Diuron; LC-ESI-ITFT; MS2; CE
PRECURSORMZ: 231.009742
PRECURSORTYPE: [M-H]-
FORMULA: C9H10Cl2N2O
Ontology: N-phenylureas
INCHIKEY: XMTQQYYKAHVGBJ-UHFFFAOYSA-N
SMILES: CN(C)C(O)=NC1=CC(Cl)=C(Cl)C=C1
RETENTIONTIME: 
CCS: 145.6207773
IONMODE: Negative
INSTRUMENTTYPE: LC-ESI-ITFT
INSTRUMENT: 
COLLISIONENERGY: 90
Comment: registered in MassBank
Num Peaks: 1
149.97549	1000

NAME: Diuron; LC-ESI-ITFT; MS2; CE
PRECURSORMZ: 231.009742
PRECURSORTYPE: [M-H]-
FORMULA: C9H10Cl2N2O
Ontology: N-phenylureas
INCHIKEY: XMTQQYYKAHVGBJ-UHFFFAOYSA-N
SMILES: CN(C)C(O)=NC1=CC(Cl)=C(Cl)C=C1
RETENTIONTIME: 
CCS: 145.6207773
IONMODE: Negative
INSTRUMENTTYPE: LC-ESI-ITFT
INSTRUMENT: 
COLLISIONENERGY: 35
Comment: registered in MassBank
Num Peaks: 2
159.9725	6
185.952	1000

NAME: Diuron-desmethyl; LC-ESI-ITFT; MS2; CE
PRECURSORMZ: 216.994092
PRECURSORTYPE: [M-H]-
FORMULA: C8H8Cl2N2O
Ontology: N-phenylureas
INCHIKEY: IDQHRQQSSQDLTR-UHFFFAOYSA-N
SMILES: CN=C(O)NC1=CC(Cl)=C(Cl)C=C1
RETENTIONTIME: 
CCS: 137.7006559
IONMODE: Negative
INSTRUMENTTYPE: LC-ESI-ITFT
INSTRUMENT: 
COLLISIONENERGY: 35
Comment: registered in MassBank
Num Peaks: 1
159.97279	1000

NAME: Diuron-desmethyl; LC-ESI-ITFT; MS2; CE
PRECURSORMZ: 216.994092
PRECURSORTYPE: [M-H]-
FORMULA: C8H8Cl2N2O
Ontology: N-phenylureas
INCHIKEY: IDQHRQQSSQDLTR-UHFFFAOYSA-N
SMILES: CN=C(O)NC1=CC(Cl)=C(Cl)C=C1
RETENTIONTIME: 
CCS: 137.7006559
IONMODE: Negative
INSTRUMENTTYPE: LC-ESI-ITFT
INSTRUMENT: 
COLLISIONENERGY: 15
Comment: registered in MassBank
Num Peaks: 2
159.9726	1000
216.994	359

NAME: Diuron-desmethyl; LC-ESI-ITFT; MS2; CE
PRECURSORMZ: 216.994092
PRECURSORTYPE: [M-H]-
FORMULA: C8H8Cl2N2O
Ontology: N-phenylureas
INCHIKEY: IDQHRQQSSQDLTR-UHFFFAOYSA-N
SMILES: CN=C(O)NC1=CC(Cl)=C(Cl)C=C1
RETENTIONTIME: 
CCS: 137.7006559
IONMODE: Negative
INSTRUMENTTYPE: LC-ESI-ITFT
INSTRUMENT: 
COLLISIONENERGY: 30
Comment: registered in MassBank
Num Peaks: 2
159.9725	1000
216.99409	14

NAME: Diuron-desmethyl; LC-ESI-ITFT; MS2; CE
PRECURSORMZ: 216.994092
PRECURSORTYPE: [M-H]-
FORMULA: C8H8Cl2N2O
Ontology: N-phenylureas
INCHIKEY: IDQHRQQSSQDLTR-UHFFFAOYSA-N
SMILES: CN=C(O)NC1=CC(Cl)=C(Cl)C=C1
RETENTIONTIME: 
CCS: 137.7006559
IONMODE: Negative
INSTRUMENTTYPE: LC-ESI-ITFT
INSTRUMENT: 
COLLISIONENERGY: 45
Comment: registered in MassBank
Num Peaks: 2
123.996	13
159.9725	1000

NAME: Diuron-desmethyl; LC-ESI-ITFT; MS2; CE
PRECURSORMZ: 216.994092
PRECURSORTYPE: [M-H]-
FORMULA: C8H8Cl2N2O
Ontology: N-phenylureas
INCHIKEY: IDQHRQQSSQDLTR-UHFFFAOYSA-N
SMILES: CN=C(O)NC1=CC(Cl)=C(Cl)C=C1
RETENTIONTIME: 
CCS: 137.7006559
IONMODE: Negative
INSTRUMENTTYPE: LC-ESI-ITFT
INSTRUMENT: 
COLLISIONENERGY: 60
Comment: registered in MassBank
Num Peaks: 2
123.9959	42
159.9724	1000

NAME: Diuron-desmethyl; LC-ESI-ITFT; MS2; CE
PRECURSORMZ: 216.994092
PRECURSORTYPE: [M-H]-
FORMULA: C8H8Cl2N2O
Ontology: N-phenylureas
INCHIKEY: IDQHRQQSSQDLTR-UHFFFAOYSA-N
SMILES: CN=C(O)NC1=CC(Cl)=C(Cl)C=C1
RETENTIONTIME: 
CCS: 137.7006559
IONMODE: Negative
INSTRUMENTTYPE: LC-ESI-ITFT
INSTRUMENT: 
COLLISIONENERGY: 75
Comment: registered in MassBank
Num Peaks: 2
123.9955	115
159.9725	1000

NAME: Diuron-desmethyl; LC-ESI-ITFT; MS2; CE
PRECURSORMZ: 216.994092
PRECURSORTYPE: [M-H]-
FORMULA: C8H8Cl2N2O
Ontology: N-phenylureas
INCHIKEY: IDQHRQQSSQDLTR-UHFFFAOYSA-N
SMILES: CN=C(O)NC1=CC(Cl)=C(Cl)C=C1
RETENTIONTIME: 
CCS: 137.7006559
IONMODE: Negative
INSTRUMENTTYPE: LC-ESI-ITFT
INSTRUMENT: 
COLLISIONENERGY: 90
Comment: registered in MassBank
Num Peaks: 1
159.972	1000

NAME: Diuron-desmethyl; LC-ESI-ITFT; MS2; CE
PRECURSORMZ: 216.994092
PRECURSORTYPE: [M-H]-
FORMULA: C8H8Cl2N2O
Ontology: N-phenylureas
INCHIKEY: IDQHRQQSSQDLTR-UHFFFAOYSA-N
SMILES: CN=C(O)NC1=CC(Cl)=C(Cl)C=C1
RETENTIONTIME: 
CCS: 137.7006559
IONMODE: Negative
INSTRUMENTTYPE: LC-ESI-ITFT
INSTRUMENT: 
COLLISIONENERGY: 15
Comment: registered in MassBank
Num Peaks: 2
159.9726	1000
216.9938	296

NAME: Diuron-desmethyl; LC-ESI-ITFT; MS2; CE
PRECURSORMZ: 216.994092
PRECURSORTYPE: [M-H]-
FORMULA: C8H8Cl2N2O
Ontology: N-phenylureas
INCHIKEY: IDQHRQQSSQDLTR-UHFFFAOYSA-N
SMILES: CN=C(O)NC1=CC(Cl)=C(Cl)C=C1
RETENTIONTIME: 
CCS: 137.7006559
IONMODE: Negative
INSTRUMENTTYPE: LC-ESI-ITFT
INSTRUMENT: 
COLLISIONENERGY: 30
Comment: registered in MassBank
Num Peaks: 2
159.9726	1000
216.99361	14

NAME: Diuron-desmethyl; LC-ESI-ITFT; MS2; CE
PRECURSORMZ: 216.994092
PRECURSORTYPE: [M-H]-
FORMULA: C8H8Cl2N2O
Ontology: N-phenylureas
INCHIKEY: IDQHRQQSSQDLTR-UHFFFAOYSA-N
SMILES: CN=C(O)NC1=CC(Cl)=C(Cl)C=C1
RETENTIONTIME: 
CCS: 137.7006559
IONMODE: Negative
INSTRUMENTTYPE: LC-ESI-ITFT
INSTRUMENT: 
COLLISIONENERGY: 45
Comment: registered in MassBank
Num Peaks: 2
123.9957	9
159.9726	1000

NAME: Diuron-desmethyl; LC-ESI-ITFT; MS2; CE
PRECURSORMZ: 216.994092
PRECURSORTYPE: [M-H]-
FORMULA: C8H8Cl2N2O
Ontology: N-phenylureas
INCHIKEY: IDQHRQQSSQDLTR-UHFFFAOYSA-N
SMILES: CN=C(O)NC1=CC(Cl)=C(Cl)C=C1
RETENTIONTIME: 
CCS: 137.7006559
IONMODE: Negative
INSTRUMENTTYPE: LC-ESI-ITFT
INSTRUMENT: 
COLLISIONENERGY: 60
Comment: registered in MassBank
Num Peaks: 2
123.9958	44
159.9725	1000

NAME: Diuron-desmethyl; LC-ESI-ITFT; MS2; CE
PRECURSORMZ: 216.994092
PRECURSORTYPE: [M-H]-
FORMULA: C8H8Cl2N2O
Ontology: N-phenylureas
INCHIKEY: IDQHRQQSSQDLTR-UHFFFAOYSA-N
SMILES: CN=C(O)NC1=CC(Cl)=C(Cl)C=C1
RETENTIONTIME: 
CCS: 137.7006559
IONMODE: Negative
INSTRUMENTTYPE: LC-ESI-ITFT
INSTRUMENT: 
COLLISIONENERGY: 75
Comment: registered in MassBank
Num Peaks: 1
159.9725	1000

NAME: Diuron-desmethyl; LC-ESI-ITFT; MS2; CE
PRECURSORMZ: 216.994092
PRECURSORTYPE: [M-H]-
FORMULA: C8H8Cl2N2O
Ontology: N-phenylureas
INCHIKEY: IDQHRQQSSQDLTR-UHFFFAOYSA-N
SMILES: CN=C(O)NC1=CC(Cl)=C(Cl)C=C1
RETENTIONTIME: 
CCS: 137.7006559
IONMODE: Negative
INSTRUMENTTYPE: LC-ESI-ITFT
INSTRUMENT: 
COLLISIONENERGY: 90
Comment: registered in MassBank
Num Peaks: 1
159.9726	1000

NAME: Diuron-desmethyl; LC-ESI-ITFT; MS2; CE
PRECURSORMZ: 216.994092
PRECURSORTYPE: [M-H]-
FORMULA: C8H8Cl2N2O
Ontology: N-phenylureas
INCHIKEY: IDQHRQQSSQDLTR-UHFFFAOYSA-N
SMILES: CN=C(O)NC1=CC(Cl)=C(Cl)C=C1
RETENTIONTIME: 
CCS: 137.7006559
IONMODE: Negative
INSTRUMENTTYPE: LC-ESI-ITFT
INSTRUMENT: 
COLLISIONENERGY: 35
Comment: registered in MassBank
Num Peaks: 1
159.9727	1000

NAME: N,N-Dimethyl-N'-phenylsulfamide; LC-ESI-ITFT; MS2; CE
PRECURSORMZ: 199.054672
PRECURSORTYPE: [M-H]-
FORMULA: C8H12N2O2S
Ontology: Sulfanilides
INCHIKEY: QCDQDISRALTLNQ-UHFFFAOYSA-N
SMILES: CN(C)S(=O)(=O)NC1=CC=CC=C1
RETENTIONTIME: 
CCS: 146.5735098
IONMODE: Negative
INSTRUMENTTYPE: LC-ESI-ITFT
INSTRUMENT: 
COLLISIONENERGY: 35
Comment: registered in MassBank
Num Peaks: 4
79.9576	18
91.043	74
155.005	1000
156.01311	40

NAME: N,N-Dimethyl-N'-phenylsulfamide; LC-ESI-ITFT; MS2; CE
PRECURSORMZ: 199.054672
PRECURSORTYPE: [M-H]-
FORMULA: C8H12N2O2S
Ontology: Sulfanilides
INCHIKEY: QCDQDISRALTLNQ-UHFFFAOYSA-N
SMILES: CN(C)S(=O)(=O)NC1=CC=CC=C1
RETENTIONTIME: 
CCS: 146.5735098
IONMODE: Negative
INSTRUMENTTYPE: LC-ESI-ITFT
INSTRUMENT: 
COLLISIONENERGY: 30
Comment: registered in MassBank
Num Peaks: 2
155.00481	108
199.0547	1000

NAME: N,N-Dimethyl-N'-phenylsulfamide; LC-ESI-ITFT; MS2; CE
PRECURSORMZ: 199.054672
PRECURSORTYPE: [M-H]-
FORMULA: C8H12N2O2S
Ontology: Sulfanilides
INCHIKEY: QCDQDISRALTLNQ-UHFFFAOYSA-N
SMILES: CN(C)S(=O)(=O)NC1=CC=CC=C1
RETENTIONTIME: 
CCS: 146.5735098
IONMODE: Negative
INSTRUMENTTYPE: LC-ESI-ITFT
INSTRUMENT: 
COLLISIONENERGY: 45
Comment: registered in MassBank
Num Peaks: 3
91.0429	556
155.0042	312
199.0553	1000

NAME: N,N-Dimethyl-N'-phenylsulfamide; LC-ESI-ITFT; MS2; CE
PRECURSORMZ: 199.054672
PRECURSORTYPE: [M-H]-
FORMULA: C8H12N2O2S
Ontology: Sulfanilides
INCHIKEY: QCDQDISRALTLNQ-UHFFFAOYSA-N
SMILES: CN(C)S(=O)(=O)NC1=CC=CC=C1
RETENTIONTIME: 
CCS: 146.5735098
IONMODE: Negative
INSTRUMENTTYPE: LC-ESI-ITFT
INSTRUMENT: 
COLLISIONENERGY: 60
Comment: registered in MassBank
Num Peaks: 1
91.0428	1000

NAME: N,N-Dimethyl-N'-phenylsulfamide; LC-ESI-ITFT; MS2; CE
PRECURSORMZ: 199.054672
PRECURSORTYPE: [M-H]-
FORMULA: C8H12N2O2S
Ontology: Sulfanilides
INCHIKEY: QCDQDISRALTLNQ-UHFFFAOYSA-N
SMILES: CN(C)S(=O)(=O)NC1=CC=CC=C1
RETENTIONTIME: 
CCS: 146.5735098
IONMODE: Negative
INSTRUMENTTYPE: LC-ESI-ITFT
INSTRUMENT: 
COLLISIONENERGY: 75
Comment: registered in MassBank
Num Peaks: 1
91.0427	1000

NAME: N,N-Dimethyl-N'-phenylsulfamide; LC-ESI-ITFT; MS2; CE
PRECURSORMZ: 199.054672
PRECURSORTYPE: [M-H]-
FORMULA: C8H12N2O2S
Ontology: Sulfanilides
INCHIKEY: QCDQDISRALTLNQ-UHFFFAOYSA-N
SMILES: CN(C)S(=O)(=O)NC1=CC=CC=C1
RETENTIONTIME: 
CCS: 146.5735098
IONMODE: Negative
INSTRUMENTTYPE: LC-ESI-ITFT
INSTRUMENT: 
COLLISIONENERGY: 90
Comment: registered in MassBank
Num Peaks: 1
91.043	1000

NAME: N,N-Dimethyl-N'-phenylsulfamide; LC-ESI-ITFT; MS2; CE
PRECURSORMZ: 199.054672
PRECURSORTYPE: [M-H]-
FORMULA: C8H12N2O2S
Ontology: Sulfanilides
INCHIKEY: QCDQDISRALTLNQ-UHFFFAOYSA-N
SMILES: CN(C)S(=O)(=O)NC1=CC=CC=C1
RETENTIONTIME: 
CCS: 146.5735098
IONMODE: Negative
INSTRUMENTTYPE: LC-ESI-ITFT
INSTRUMENT: 
COLLISIONENERGY: 45
Comment: registered in MassBank
Num Peaks: 4
79.9571	374
91.0429	638
155.0047	817
199.0549	1000

NAME: N,N-Dimethyl-N'-phenylsulfamide; LC-ESI-ITFT; MS2; CE
PRECURSORMZ: 199.054672
PRECURSORTYPE: [M-H]-
FORMULA: C8H12N2O2S
Ontology: Sulfanilides
INCHIKEY: QCDQDISRALTLNQ-UHFFFAOYSA-N
SMILES: CN(C)S(=O)(=O)NC1=CC=CC=C1
RETENTIONTIME: 
CCS: 146.5735098
IONMODE: Negative
INSTRUMENTTYPE: LC-ESI-ITFT
INSTRUMENT: 
COLLISIONENERGY: 60
Comment: registered in MassBank
Num Peaks: 1
91.0428	1000

NAME: N,N-Dimethyl-N'-phenylsulfamide; LC-ESI-ITFT; MS2; CE
PRECURSORMZ: 199.054672
PRECURSORTYPE: [M-H]-
FORMULA: C8H12N2O2S
Ontology: Sulfanilides
INCHIKEY: QCDQDISRALTLNQ-UHFFFAOYSA-N
SMILES: CN(C)S(=O)(=O)NC1=CC=CC=C1
RETENTIONTIME: 
CCS: 146.5735098
IONMODE: Negative
INSTRUMENTTYPE: LC-ESI-ITFT
INSTRUMENT: 
COLLISIONENERGY: 75
Comment: registered in MassBank
Num Peaks: 1
91.0427	1000

NAME: N,N-Dimethyl-N'-phenylsulfamide; LC-ESI-ITFT; MS2; CE
PRECURSORMZ: 199.054672
PRECURSORTYPE: [M-H]-
FORMULA: C8H12N2O2S
Ontology: Sulfanilides
INCHIKEY: QCDQDISRALTLNQ-UHFFFAOYSA-N
SMILES: CN(C)S(=O)(=O)NC1=CC=CC=C1
RETENTIONTIME: 
CCS: 146.5735098
IONMODE: Negative
INSTRUMENTTYPE: LC-ESI-ITFT
INSTRUMENT: 
COLLISIONENERGY: 35
Comment: registered in MassBank
Num Peaks: 3
91.0429	56
155.00481	1000
156.01241	37

NAME: Sulfamethoxazole; LC-ESI-ITFT; MS2; CE
PRECURSORMZ: 252.044835
PRECURSORTYPE: [M-H]-
FORMULA: C10H11N3O3S
Ontology: Aminobenzenesulfonamides
INCHIKEY: JLKIGFTWXXRPMT-UHFFFAOYSA-N
SMILES: CC1=CC(NS(=O)(=O)C2=CC=C(N)C=C2)=NO1
RETENTIONTIME: 
CCS: 153.832134
IONMODE: Negative
INSTRUMENTTYPE: LC-ESI-ITFT
INSTRUMENT: 
COLLISIONENERGY: 35
Comment: registered in MassBank
Num Peaks: 2
92.0505	5
156.0127	1000

NAME: Sulfamethoxazole; LC-ESI-ITFT; MS2; CE
PRECURSORMZ: 252.044835
PRECURSORTYPE: [M-H]-
FORMULA: C10H11N3O3S
Ontology: Aminobenzenesulfonamides
INCHIKEY: JLKIGFTWXXRPMT-UHFFFAOYSA-N
SMILES: CC1=CC(NS(=O)(=O)C2=CC=C(N)C=C2)=NO1
RETENTIONTIME: 
CCS: 153.832134
IONMODE: Negative
INSTRUMENTTYPE: LC-ESI-ITFT
INSTRUMENT: 
COLLISIONENERGY: 15
Comment: registered in MassBank
Num Peaks: 2
156.0125	343
252.04469	1000

NAME: Sulfamethoxazole; LC-ESI-ITFT; MS2; CE
PRECURSORMZ: 252.044835
PRECURSORTYPE: [M-H]-
FORMULA: C10H11N3O3S
Ontology: Aminobenzenesulfonamides
INCHIKEY: JLKIGFTWXXRPMT-UHFFFAOYSA-N
SMILES: CC1=CC(NS(=O)(=O)C2=CC=C(N)C=C2)=NO1
RETENTIONTIME: 
CCS: 153.832134
IONMODE: Negative
INSTRUMENTTYPE: LC-ESI-ITFT
INSTRUMENT: 
COLLISIONENERGY: 30
Comment: registered in MassBank
Num Peaks: 2
156.0127	1000
252.04539	56

NAME: Sulfamethoxazole; LC-ESI-ITFT; MS2; CE
PRECURSORMZ: 252.044835
PRECURSORTYPE: [M-H]-
FORMULA: C10H11N3O3S
Ontology: Aminobenzenesulfonamides
INCHIKEY: JLKIGFTWXXRPMT-UHFFFAOYSA-N
SMILES: CC1=CC(NS(=O)(=O)C2=CC=C(N)C=C2)=NO1
RETENTIONTIME: 
CCS: 153.832134
IONMODE: Negative
INSTRUMENTTYPE: LC-ESI-ITFT
INSTRUMENT: 
COLLISIONENERGY: 45
Comment: registered in MassBank
Num Peaks: 2
63.9625	60
156.0126	1000

NAME: Sulfamethoxazole; LC-ESI-ITFT; MS2; CE
PRECURSORMZ: 252.044835
PRECURSORTYPE: [M-H]-
FORMULA: C10H11N3O3S
Ontology: Aminobenzenesulfonamides
INCHIKEY: JLKIGFTWXXRPMT-UHFFFAOYSA-N
SMILES: CC1=CC(NS(=O)(=O)C2=CC=C(N)C=C2)=NO1
RETENTIONTIME: 
CCS: 153.832134
IONMODE: Negative
INSTRUMENTTYPE: LC-ESI-ITFT
INSTRUMENT: 
COLLISIONENERGY: 60
Comment: registered in MassBank
Num Peaks: 3
63.9625	372
92.0506	259
156.0128	1000

NAME: Sulfamethoxazole; LC-ESI-ITFT; MS2; CE
PRECURSORMZ: 252.044835
PRECURSORTYPE: [M-H]-
FORMULA: C10H11N3O3S
Ontology: Aminobenzenesulfonamides
INCHIKEY: JLKIGFTWXXRPMT-UHFFFAOYSA-N
SMILES: CC1=CC(NS(=O)(=O)C2=CC=C(N)C=C2)=NO1
RETENTIONTIME: 
CCS: 153.832134
IONMODE: Negative
INSTRUMENTTYPE: LC-ESI-ITFT
INSTRUMENT: 
COLLISIONENERGY: 75
Comment: registered in MassBank
Num Peaks: 3
63.9625	1000
92.0505	832
156.0121	618

NAME: Sulfamethoxazole; LC-ESI-ITFT; MS2; CE
PRECURSORMZ: 252.044835
PRECURSORTYPE: [M-H]-
FORMULA: C10H11N3O3S
Ontology: Aminobenzenesulfonamides
INCHIKEY: JLKIGFTWXXRPMT-UHFFFAOYSA-N
SMILES: CC1=CC(NS(=O)(=O)C2=CC=C(N)C=C2)=NO1
RETENTIONTIME: 
CCS: 153.832134
IONMODE: Negative
INSTRUMENTTYPE: LC-ESI-ITFT
INSTRUMENT: 
COLLISIONENERGY: 15
Comment: registered in MassBank
Num Peaks: 2
156.01221	299
252.04469	1000

NAME: Sulfamethoxazole; LC-ESI-ITFT; MS2; CE
PRECURSORMZ: 252.044835
PRECURSORTYPE: [M-H]-
FORMULA: C10H11N3O3S
Ontology: Aminobenzenesulfonamides
INCHIKEY: JLKIGFTWXXRPMT-UHFFFAOYSA-N
SMILES: CC1=CC(NS(=O)(=O)C2=CC=C(N)C=C2)=NO1
RETENTIONTIME: 
CCS: 153.832134
IONMODE: Negative
INSTRUMENTTYPE: LC-ESI-ITFT
INSTRUMENT: 
COLLISIONENERGY: 30
Comment: registered in MassBank
Num Peaks: 1
156.01241	1000

NAME: Sulfamethoxazole; LC-ESI-ITFT; MS2; CE
PRECURSORMZ: 252.044835
PRECURSORTYPE: [M-H]-
FORMULA: C10H11N3O3S
Ontology: Aminobenzenesulfonamides
INCHIKEY: JLKIGFTWXXRPMT-UHFFFAOYSA-N
SMILES: CC1=CC(NS(=O)(=O)C2=CC=C(N)C=C2)=NO1
RETENTIONTIME: 
CCS: 153.832134
IONMODE: Negative
INSTRUMENTTYPE: LC-ESI-ITFT
INSTRUMENT: 
COLLISIONENERGY: 45
Comment: registered in MassBank
Num Peaks: 1
156.0126	1000

NAME: Sulfamethoxazole; LC-ESI-ITFT; MS2; CE
PRECURSORMZ: 252.044835
PRECURSORTYPE: [M-H]-
FORMULA: C10H11N3O3S
Ontology: Aminobenzenesulfonamides
INCHIKEY: JLKIGFTWXXRPMT-UHFFFAOYSA-N
SMILES: CC1=CC(NS(=O)(=O)C2=CC=C(N)C=C2)=NO1
RETENTIONTIME: 
CCS: 153.832134
IONMODE: Negative
INSTRUMENTTYPE: LC-ESI-ITFT
INSTRUMENT: 
COLLISIONENERGY: 60
Comment: registered in MassBank
Num Peaks: 2
63.9623	474
156.0125	1000

NAME: Sulfamethoxazole; LC-ESI-ITFT; MS2; CE
PRECURSORMZ: 252.044835
PRECURSORTYPE: [M-H]-
FORMULA: C10H11N3O3S
Ontology: Aminobenzenesulfonamides
INCHIKEY: JLKIGFTWXXRPMT-UHFFFAOYSA-N
SMILES: CC1=CC(NS(=O)(=O)C2=CC=C(N)C=C2)=NO1
RETENTIONTIME: 
CCS: 153.832134
IONMODE: Negative
INSTRUMENTTYPE: LC-ESI-ITFT
INSTRUMENT: 
COLLISIONENERGY: 35
Comment: registered in MassBank
Num Peaks: 1
156.01241	1000

NAME: N4-Acetylsulfamethoxazole; LC-ESI-ITFT; MS2; CE
PRECURSORMZ: 294.0554
PRECURSORTYPE: [M-H]-
FORMULA: C12H13N3O4S
Ontology: Benzenesulfonamides
INCHIKEY: GXPIUNZCALHVBA-UHFFFAOYSA-N
SMILES: CC(O)=NC1=CC=C(C=C1)S(=O)(=O)NC1=NOC(C)=C1
RETENTIONTIME: 
CCS: 164.707631
IONMODE: Negative
INSTRUMENTTYPE: LC-ESI-ITFT
INSTRUMENT: 
COLLISIONENERGY: 35
Comment: registered in MassBank
Num Peaks: 3
134.061	76
150.0558	16
198.0231	1000

NAME: N4-Acetylsulfamethoxazole; LC-ESI-ITFT; MS2; CE
PRECURSORMZ: 294.0554
PRECURSORTYPE: [M-H]-
FORMULA: C12H13N3O4S
Ontology: Benzenesulfonamides
INCHIKEY: GXPIUNZCALHVBA-UHFFFAOYSA-N
SMILES: CC(O)=NC1=CC=C(C=C1)S(=O)(=O)NC1=NOC(C)=C1
RETENTIONTIME: 
CCS: 164.707631
IONMODE: Negative
INSTRUMENTTYPE: LC-ESI-ITFT
INSTRUMENT: 
COLLISIONENERGY: 15
Comment: registered in MassBank
Num Peaks: 3
198.02319	367
205.01711	39
294.0542	1000

NAME: N4-Acetylsulfamethoxazole; LC-ESI-ITFT; MS2; CE
PRECURSORMZ: 294.0554
PRECURSORTYPE: [M-H]-
FORMULA: C12H13N3O4S
Ontology: Benzenesulfonamides
INCHIKEY: GXPIUNZCALHVBA-UHFFFAOYSA-N
SMILES: CC(O)=NC1=CC=C(C=C1)S(=O)(=O)NC1=NOC(C)=C1
RETENTIONTIME: 
CCS: 164.707631
IONMODE: Negative
INSTRUMENTTYPE: LC-ESI-ITFT
INSTRUMENT: 
COLLISIONENERGY: 30
Comment: registered in MassBank
Num Peaks: 2
134.06129	115
198.0228	1000

NAME: N4-Acetylsulfamethoxazole; LC-ESI-ITFT; MS2; CE
PRECURSORMZ: 294.0554
PRECURSORTYPE: [M-H]-
FORMULA: C12H13N3O4S
Ontology: Benzenesulfonamides
INCHIKEY: GXPIUNZCALHVBA-UHFFFAOYSA-N
SMILES: CC(O)=NC1=CC=C(C=C1)S(=O)(=O)NC1=NOC(C)=C1
RETENTIONTIME: 
CCS: 164.707631
IONMODE: Negative
INSTRUMENTTYPE: LC-ESI-ITFT
INSTRUMENT: 
COLLISIONENERGY: 45
Comment: registered in MassBank
Num Peaks: 3
92.0506	56
134.0611	656
198.0231	1000

NAME: N4-Acetylsulfamethoxazole; LC-ESI-ITFT; MS2; CE
PRECURSORMZ: 294.0554
PRECURSORTYPE: [M-H]-
FORMULA: C12H13N3O4S
Ontology: Benzenesulfonamides
INCHIKEY: GXPIUNZCALHVBA-UHFFFAOYSA-N
SMILES: CC(O)=NC1=CC=C(C=C1)S(=O)(=O)NC1=NOC(C)=C1
RETENTIONTIME: 
CCS: 164.707631
IONMODE: Negative
INSTRUMENTTYPE: LC-ESI-ITFT
INSTRUMENT: 
COLLISIONENERGY: 60
Comment: registered in MassBank
Num Peaks: 2
92.0507	111
134.06129	1000

NAME: N4-Acetylsulfamethoxazole; LC-ESI-ITFT; MS2; CE
PRECURSORMZ: 294.0554
PRECURSORTYPE: [M-H]-
FORMULA: C12H13N3O4S
Ontology: Benzenesulfonamides
INCHIKEY: GXPIUNZCALHVBA-UHFFFAOYSA-N
SMILES: CC(O)=NC1=CC=C(C=C1)S(=O)(=O)NC1=NOC(C)=C1
RETENTIONTIME: 
CCS: 164.707631
IONMODE: Negative
INSTRUMENTTYPE: LC-ESI-ITFT
INSTRUMENT: 
COLLISIONENERGY: 75
Comment: registered in MassBank
Num Peaks: 2
92.0506	169
134.0611	1000

NAME: N4-Acetylsulfamethoxazole; LC-ESI-ITFT; MS2; CE
PRECURSORMZ: 294.0554
PRECURSORTYPE: [M-H]-
FORMULA: C12H13N3O4S
Ontology: Benzenesulfonamides
INCHIKEY: GXPIUNZCALHVBA-UHFFFAOYSA-N
SMILES: CC(O)=NC1=CC=C(C=C1)S(=O)(=O)NC1=NOC(C)=C1
RETENTIONTIME: 
CCS: 164.707631
IONMODE: Negative
INSTRUMENTTYPE: LC-ESI-ITFT
INSTRUMENT: 
COLLISIONENERGY: 90
Comment: registered in MassBank
Num Peaks: 3
92.0508	1000
134.06129	919
198.03059	393

NAME: N4-Acetylsulfamethoxazole; LC-ESI-ITFT; MS2; CE
PRECURSORMZ: 294.0554
PRECURSORTYPE: [M-H]-
FORMULA: C12H13N3O4S
Ontology: Benzenesulfonamides
INCHIKEY: GXPIUNZCALHVBA-UHFFFAOYSA-N
SMILES: CC(O)=NC1=CC=C(C=C1)S(=O)(=O)NC1=NOC(C)=C1
RETENTIONTIME: 
CCS: 164.707631
IONMODE: Negative
INSTRUMENTTYPE: LC-ESI-ITFT
INSTRUMENT: 
COLLISIONENERGY: 15
Comment: registered in MassBank
Num Peaks: 2
198.02319	248
294.05511	1000

NAME: N4-Acetylsulfamethoxazole; LC-ESI-ITFT; MS2; CE
PRECURSORMZ: 294.0554
PRECURSORTYPE: [M-H]-
FORMULA: C12H13N3O4S
Ontology: Benzenesulfonamides
INCHIKEY: GXPIUNZCALHVBA-UHFFFAOYSA-N
SMILES: CC(O)=NC1=CC=C(C=C1)S(=O)(=O)NC1=NOC(C)=C1
RETENTIONTIME: 
CCS: 164.707631
IONMODE: Negative
INSTRUMENTTYPE: LC-ESI-ITFT
INSTRUMENT: 
COLLISIONENERGY: 30
Comment: registered in MassBank
Num Peaks: 4
134.0612	75
198.0231	1000
205.0153	22
294.0556	88

NAME: N4-Acetylsulfamethoxazole; LC-ESI-ITFT; MS2; CE
PRECURSORMZ: 294.0554
PRECURSORTYPE: [M-H]-
FORMULA: C12H13N3O4S
Ontology: Benzenesulfonamides
INCHIKEY: GXPIUNZCALHVBA-UHFFFAOYSA-N
SMILES: CC(O)=NC1=CC=C(C=C1)S(=O)(=O)NC1=NOC(C)=C1
RETENTIONTIME: 
CCS: 164.707631
IONMODE: Negative
INSTRUMENTTYPE: LC-ESI-ITFT
INSTRUMENT: 
COLLISIONENERGY: 45
Comment: registered in MassBank
Num Peaks: 3
134.0611	609
198.0229	1000
294.05579	52

NAME: N4-Acetylsulfamethoxazole; LC-ESI-ITFT; MS2; CE
PRECURSORMZ: 294.0554
PRECURSORTYPE: [M-H]-
FORMULA: C12H13N3O4S
Ontology: Benzenesulfonamides
INCHIKEY: GXPIUNZCALHVBA-UHFFFAOYSA-N
SMILES: CC(O)=NC1=CC=C(C=C1)S(=O)(=O)NC1=NOC(C)=C1
RETENTIONTIME: 
CCS: 164.707631
IONMODE: Negative
INSTRUMENTTYPE: LC-ESI-ITFT
INSTRUMENT: 
COLLISIONENERGY: 60
Comment: registered in MassBank
Num Peaks: 4
92.0504	119
134.061	1000
150.056	65
198.03011	66

NAME: N4-Acetylsulfamethoxazole; LC-ESI-ITFT; MS2; CE
PRECURSORMZ: 294.0554
PRECURSORTYPE: [M-H]-
FORMULA: C12H13N3O4S
Ontology: Benzenesulfonamides
INCHIKEY: GXPIUNZCALHVBA-UHFFFAOYSA-N
SMILES: CC(O)=NC1=CC=C(C=C1)S(=O)(=O)NC1=NOC(C)=C1
RETENTIONTIME: 
CCS: 164.707631
IONMODE: Negative
INSTRUMENTTYPE: LC-ESI-ITFT
INSTRUMENT: 
COLLISIONENERGY: 75
Comment: registered in MassBank
Num Peaks: 2
92.0505	227
134.061	1000

NAME: Benzisothiazolone (BIT); LC-ESI-ITFT; MS2; CE
PRECURSORMZ: 150.001908
PRECURSORTYPE: [M-H]-
FORMULA: C7H5NOS
Ontology: Benzothiazoles
INCHIKEY: DMSMPAJRVJJAGA-UHFFFAOYSA-N
SMILES: OC1=NSC2=CC=CC=C12
RETENTIONTIME: 
CCS: 122.216563
IONMODE: Negative
INSTRUMENTTYPE: LC-ESI-ITFT
INSTRUMENT: 
COLLISIONENERGY: 30
Comment: registered in MassBank
Num Peaks: 2
130.0174	225
150.00211	1000

NAME: Isoproturon-monodemethyl; LC-ESI-ITFT; MS2; CE
PRECURSORMZ: 191.118987
PRECURSORTYPE: [M-H]-
FORMULA: C11H16N2O
Ontology: N-phenylureas
INCHIKEY: DOULWWSSZVEPIN-UHFFFAOYSA-N
SMILES: CN=C(O)NC1=CC=C(C=C1)C(C)C
RETENTIONTIME: 
CCS: -1
IONMODE: Negative
INSTRUMENTTYPE: LC-ESI-ITFT
INSTRUMENT: 
COLLISIONENERGY: 35
Comment: registered in MassBank
Num Peaks: 1
134.0977	1000

NAME: Isoproturon-monodemethyl; LC-ESI-ITFT; MS2; CE
PRECURSORMZ: 191.118987
PRECURSORTYPE: [M-H]-
FORMULA: C11H16N2O
Ontology: N-phenylureas
INCHIKEY: DOULWWSSZVEPIN-UHFFFAOYSA-N
SMILES: CN=C(O)NC1=CC=C(C=C1)C(C)C
RETENTIONTIME: 
CCS: -1
IONMODE: Negative
INSTRUMENTTYPE: LC-ESI-ITFT
INSTRUMENT: 
COLLISIONENERGY: 15
Comment: registered in MassBank
Num Peaks: 1
134.09731	1000

NAME: Isoproturon-monodemethyl; LC-ESI-ITFT; MS2; CE
PRECURSORMZ: 191.118987
PRECURSORTYPE: [M-H]-
FORMULA: C11H16N2O
Ontology: N-phenylureas
INCHIKEY: DOULWWSSZVEPIN-UHFFFAOYSA-N
SMILES: CN=C(O)NC1=CC=C(C=C1)C(C)C
RETENTIONTIME: 
CCS: -1
IONMODE: Negative
INSTRUMENTTYPE: LC-ESI-ITFT
INSTRUMENT: 
COLLISIONENERGY: 30
Comment: registered in MassBank
Num Peaks: 1
134.0975	1000

NAME: Isoproturon-monodemethyl; LC-ESI-ITFT; MS2; CE
PRECURSORMZ: 191.118987
PRECURSORTYPE: [M-H]-
FORMULA: C11H16N2O
Ontology: N-phenylureas
INCHIKEY: DOULWWSSZVEPIN-UHFFFAOYSA-N
SMILES: CN=C(O)NC1=CC=C(C=C1)C(C)C
RETENTIONTIME: 
CCS: -1
IONMODE: Negative
INSTRUMENTTYPE: LC-ESI-ITFT
INSTRUMENT: 
COLLISIONENERGY: 45
Comment: registered in MassBank
Num Peaks: 1
134.0979	1000

NAME: Isoproturon-monodemethyl; LC-ESI-ITFT; MS2; CE
PRECURSORMZ: 191.118987
PRECURSORTYPE: [M-H]-
FORMULA: C11H16N2O
Ontology: N-phenylureas
INCHIKEY: DOULWWSSZVEPIN-UHFFFAOYSA-N
SMILES: CN=C(O)NC1=CC=C(C=C1)C(C)C
RETENTIONTIME: 
CCS: -1
IONMODE: Negative
INSTRUMENTTYPE: LC-ESI-ITFT
INSTRUMENT: 
COLLISIONENERGY: 60
Comment: registered in MassBank
Num Peaks: 1
134.0977	1000

NAME: Isoproturon-monodemethyl; LC-ESI-ITFT; MS2; CE
PRECURSORMZ: 191.118987
PRECURSORTYPE: [M-H]-
FORMULA: C11H16N2O
Ontology: N-phenylureas
INCHIKEY: DOULWWSSZVEPIN-UHFFFAOYSA-N
SMILES: CN=C(O)NC1=CC=C(C=C1)C(C)C
RETENTIONTIME: 
CCS: -1
IONMODE: Negative
INSTRUMENTTYPE: LC-ESI-ITFT
INSTRUMENT: 
COLLISIONENERGY: 30
Comment: registered in MassBank
Num Peaks: 1
134.0977	1000

NAME: Isoproturon-monodemethyl; LC-ESI-ITFT; MS2; CE
PRECURSORMZ: 191.118987
PRECURSORTYPE: [M-H]-
FORMULA: C11H16N2O
Ontology: N-phenylureas
INCHIKEY: DOULWWSSZVEPIN-UHFFFAOYSA-N
SMILES: CN=C(O)NC1=CC=C(C=C1)C(C)C
RETENTIONTIME: 
CCS: -1
IONMODE: Negative
INSTRUMENTTYPE: LC-ESI-ITFT
INSTRUMENT: 
COLLISIONENERGY: 45
Comment: registered in MassBank
Num Peaks: 1
134.09801	1000

NAME: Isoproturon-monodemethyl; LC-ESI-ITFT; MS2; CE
PRECURSORMZ: 191.118987
PRECURSORTYPE: [M-H]-
FORMULA: C11H16N2O
Ontology: N-phenylureas
INCHIKEY: DOULWWSSZVEPIN-UHFFFAOYSA-N
SMILES: CN=C(O)NC1=CC=C(C=C1)C(C)C
RETENTIONTIME: 
CCS: -1
IONMODE: Negative
INSTRUMENTTYPE: LC-ESI-ITFT
INSTRUMENT: 
COLLISIONENERGY: 35
Comment: registered in MassBank
Num Peaks: 1
134.0977	1000

NAME: Mecoprop; LC-ESI-ITFT; MS2; CE
PRECURSORMZ: 213.032395
PRECURSORTYPE: [M-H]-
FORMULA: C10H11ClO3
Ontology: 2-phenoxypropionic acids
INCHIKEY: WNTGYJSOUMFZEP-UHFFFAOYNA-N
SMILES: CC(OC1=CC=C(Cl)C=C1C)C(O)=O
RETENTIONTIME: 
CCS: 144.0987124
IONMODE: Negative
INSTRUMENTTYPE: LC-ESI-ITFT
INSTRUMENT: 
COLLISIONENERGY: 35
Comment: registered in MassBank
Num Peaks: 3
71.0139	43
141.01151	1000
169.04289	28

NAME: Mecoprop; LC-ESI-ITFT; MS2; CE
PRECURSORMZ: 213.032395
PRECURSORTYPE: [M-H]-
FORMULA: C10H11ClO3
Ontology: 2-phenoxypropionic acids
INCHIKEY: WNTGYJSOUMFZEP-UHFFFAOYNA-N
SMILES: CC(OC1=CC=C(Cl)C=C1C)C(O)=O
RETENTIONTIME: 
CCS: 144.0987124
IONMODE: Negative
INSTRUMENTTYPE: LC-ESI-ITFT
INSTRUMENT: 
COLLISIONENERGY: 15
Comment: registered in MassBank
Num Peaks: 3
71.0138	54
141.01131	1000
213.0325	550

NAME: Mecoprop; LC-ESI-ITFT; MS2; CE
PRECURSORMZ: 213.032395
PRECURSORTYPE: [M-H]-
FORMULA: C10H11ClO3
Ontology: 2-phenoxypropionic acids
INCHIKEY: WNTGYJSOUMFZEP-UHFFFAOYNA-N
SMILES: CC(OC1=CC=C(Cl)C=C1C)C(O)=O
RETENTIONTIME: 
CCS: 144.0987124
IONMODE: Negative
INSTRUMENTTYPE: LC-ESI-ITFT
INSTRUMENT: 
COLLISIONENERGY: 30
Comment: registered in MassBank
Num Peaks: 3
71.0138	21
141.0114	1000
213.03191	22

NAME: Mecoprop; LC-ESI-ITFT; MS2; CE
PRECURSORMZ: 213.032395
PRECURSORTYPE: [M-H]-
FORMULA: C10H11ClO3
Ontology: 2-phenoxypropionic acids
INCHIKEY: WNTGYJSOUMFZEP-UHFFFAOYNA-N
SMILES: CC(OC1=CC=C(Cl)C=C1C)C(O)=O
RETENTIONTIME: 
CCS: 144.0987124
IONMODE: Negative
INSTRUMENTTYPE: LC-ESI-ITFT
INSTRUMENT: 
COLLISIONENERGY: 45
Comment: registered in MassBank
Num Peaks: 2
71.0137	14
141.01131	1000

NAME: Mecoprop; LC-ESI-ITFT; MS2; CE
PRECURSORMZ: 213.032395
PRECURSORTYPE: [M-H]-
FORMULA: C10H11ClO3
Ontology: 2-phenoxypropionic acids
INCHIKEY: WNTGYJSOUMFZEP-UHFFFAOYNA-N
SMILES: CC(OC1=CC=C(Cl)C=C1C)C(O)=O
RETENTIONTIME: 
CCS: 144.0987124
IONMODE: Negative
INSTRUMENTTYPE: LC-ESI-ITFT
INSTRUMENT: 
COLLISIONENERGY: 60
Comment: registered in MassBank
Num Peaks: 2
71.0139	8
141.0114	1000

NAME: Mecoprop; LC-ESI-ITFT; MS2; CE
PRECURSORMZ: 213.032395
PRECURSORTYPE: [M-H]-
FORMULA: C10H11ClO3
Ontology: 2-phenoxypropionic acids
INCHIKEY: WNTGYJSOUMFZEP-UHFFFAOYNA-N
SMILES: CC(OC1=CC=C(Cl)C=C1C)C(O)=O
RETENTIONTIME: 
CCS: 144.0987124
IONMODE: Negative
INSTRUMENTTYPE: LC-ESI-ITFT
INSTRUMENT: 
COLLISIONENERGY: 75
Comment: registered in MassBank
Num Peaks: 4
71.0138	8
105.0347	11
121.0293	20
141.01109	1000

NAME: Mecoprop; LC-ESI-ITFT; MS2; CE
PRECURSORMZ: 213.032395
PRECURSORTYPE: [M-H]-
FORMULA: C10H11ClO3
Ontology: 2-phenoxypropionic acids
INCHIKEY: WNTGYJSOUMFZEP-UHFFFAOYNA-N
SMILES: CC(OC1=CC=C(Cl)C=C1C)C(O)=O
RETENTIONTIME: 
CCS: 144.0987124
IONMODE: Negative
INSTRUMENTTYPE: LC-ESI-ITFT
INSTRUMENT: 
COLLISIONENERGY: 90
Comment: registered in MassBank
Num Peaks: 3
105.0346	38
121.0297	54
141.01109	1000

NAME: Mecoprop; LC-ESI-ITFT; MS2; CE
PRECURSORMZ: 213.032395
PRECURSORTYPE: [M-H]-
FORMULA: C10H11ClO3
Ontology: 2-phenoxypropionic acids
INCHIKEY: WNTGYJSOUMFZEP-UHFFFAOYNA-N
SMILES: CC(OC1=CC=C(Cl)C=C1C)C(O)=O
RETENTIONTIME: 
CCS: 144.0987124
IONMODE: Negative
INSTRUMENTTYPE: LC-ESI-ITFT
INSTRUMENT: 
COLLISIONENERGY: 15
Comment: registered in MassBank
Num Peaks: 4
71.0138	40
141.01131	1000
169.0423	7
213.03239	533

NAME: Mecoprop; LC-ESI-ITFT; MS2; CE
PRECURSORMZ: 213.032395
PRECURSORTYPE: [M-H]-
FORMULA: C10H11ClO3
Ontology: 2-phenoxypropionic acids
INCHIKEY: WNTGYJSOUMFZEP-UHFFFAOYNA-N
SMILES: CC(OC1=CC=C(Cl)C=C1C)C(O)=O
RETENTIONTIME: 
CCS: 144.0987124
IONMODE: Negative
INSTRUMENTTYPE: LC-ESI-ITFT
INSTRUMENT: 
COLLISIONENERGY: 30
Comment: registered in MassBank
Num Peaks: 3
71.0138	17
141.01131	1000
213.0325	11

NAME: Mecoprop; LC-ESI-ITFT; MS2; CE
PRECURSORMZ: 213.032395
PRECURSORTYPE: [M-H]-
FORMULA: C10H11ClO3
Ontology: 2-phenoxypropionic acids
INCHIKEY: WNTGYJSOUMFZEP-UHFFFAOYNA-N
SMILES: CC(OC1=CC=C(Cl)C=C1C)C(O)=O
RETENTIONTIME: 
CCS: 144.0987124
IONMODE: Negative
INSTRUMENTTYPE: LC-ESI-ITFT
INSTRUMENT: 
COLLISIONENERGY: 45
Comment: registered in MassBank
Num Peaks: 2
71.0137	8
141.0112	1000

NAME: Mecoprop; LC-ESI-ITFT; MS2; CE
PRECURSORMZ: 213.032395
PRECURSORTYPE: [M-H]-
FORMULA: C10H11ClO3
Ontology: 2-phenoxypropionic acids
INCHIKEY: WNTGYJSOUMFZEP-UHFFFAOYNA-N
SMILES: CC(OC1=CC=C(Cl)C=C1C)C(O)=O
RETENTIONTIME: 
CCS: 144.0987124
IONMODE: Negative
INSTRUMENTTYPE: LC-ESI-ITFT
INSTRUMENT: 
COLLISIONENERGY: 60
Comment: registered in MassBank
Num Peaks: 1
141.0112	1000

NAME: Mecoprop; LC-ESI-ITFT; MS2; CE
PRECURSORMZ: 213.032395
PRECURSORTYPE: [M-H]-
FORMULA: C10H11ClO3
Ontology: 2-phenoxypropionic acids
INCHIKEY: WNTGYJSOUMFZEP-UHFFFAOYNA-N
SMILES: CC(OC1=CC=C(Cl)C=C1C)C(O)=O
RETENTIONTIME: 
CCS: 144.0987124
IONMODE: Negative
INSTRUMENTTYPE: LC-ESI-ITFT
INSTRUMENT: 
COLLISIONENERGY: 75
Comment: registered in MassBank
Num Peaks: 3
105.0345	5
121.0293	14
141.01131	1000

NAME: Mecoprop; LC-ESI-ITFT; MS2; CE
PRECURSORMZ: 213.032395
PRECURSORTYPE: [M-H]-
FORMULA: C10H11ClO3
Ontology: 2-phenoxypropionic acids
INCHIKEY: WNTGYJSOUMFZEP-UHFFFAOYNA-N
SMILES: CC(OC1=CC=C(Cl)C=C1C)C(O)=O
RETENTIONTIME: 
CCS: 144.0987124
IONMODE: Negative
INSTRUMENTTYPE: LC-ESI-ITFT
INSTRUMENT: 
COLLISIONENERGY: 90
Comment: registered in MassBank
Num Peaks: 3
105.0344	13
121.0298	21
141.01109	1000

NAME: Mecoprop; LC-ESI-ITFT; MS2; CE
PRECURSORMZ: 213.032395
PRECURSORTYPE: [M-H]-
FORMULA: C10H11ClO3
Ontology: 2-phenoxypropionic acids
INCHIKEY: WNTGYJSOUMFZEP-UHFFFAOYNA-N
SMILES: CC(OC1=CC=C(Cl)C=C1C)C(O)=O
RETENTIONTIME: 
CCS: 144.0987124
IONMODE: Negative
INSTRUMENTTYPE: LC-ESI-ITFT
INSTRUMENT: 
COLLISIONENERGY: 35
Comment: registered in MassBank
Num Peaks: 3
71.0138	39
141.0114	1000
169.0423	16

NAME: 3-Phenoxybenzoic acid; LC-ESI-ITFT; MS2; CE
PRECURSORMZ: 213.055718
PRECURSORTYPE: [M-H]-
FORMULA: C13H10O3
Ontology: Diphenylethers
INCHIKEY: NXTDJHZGHOFSQG-UHFFFAOYSA-N
SMILES: OC(=O)C1=CC(OC2=CC=CC=C2)=CC=C1
RETENTIONTIME: 
CCS: 158.8878239
IONMODE: Negative
INSTRUMENTTYPE: LC-ESI-ITFT
INSTRUMENT: 
COLLISIONENERGY: 35
Comment: registered in MassBank
Num Peaks: 3
93.0345	66
167.0502	5
169.0661	1000

NAME: 3-Phenoxybenzoic acid; LC-ESI-ITFT; MS2; CE
PRECURSORMZ: 213.055718
PRECURSORTYPE: [M-H]-
FORMULA: C13H10O3
Ontology: Diphenylethers
INCHIKEY: NXTDJHZGHOFSQG-UHFFFAOYSA-N
SMILES: OC(=O)C1=CC(OC2=CC=CC=C2)=CC=C1
RETENTIONTIME: 
CCS: 158.8878239
IONMODE: Negative
INSTRUMENTTYPE: LC-ESI-ITFT
INSTRUMENT: 
COLLISIONENERGY: 15
Comment: registered in MassBank
Num Peaks: 3
93.0343	29
169.06599	133
213.05569	1000

NAME: 3-Phenoxybenzoic acid; LC-ESI-ITFT; MS2; CE
PRECURSORMZ: 213.055718
PRECURSORTYPE: [M-H]-
FORMULA: C13H10O3
Ontology: Diphenylethers
INCHIKEY: NXTDJHZGHOFSQG-UHFFFAOYSA-N
SMILES: OC(=O)C1=CC(OC2=CC=CC=C2)=CC=C1
RETENTIONTIME: 
CCS: 158.8878239
IONMODE: Negative
INSTRUMENTTYPE: LC-ESI-ITFT
INSTRUMENT: 
COLLISIONENERGY: 30
Comment: registered in MassBank
Num Peaks: 3
93.0345	589
169.0659	1000
213.05569	554

NAME: 3-Phenoxybenzoic acid; LC-ESI-ITFT; MS2; CE
PRECURSORMZ: 213.055718
PRECURSORTYPE: [M-H]-
FORMULA: C13H10O3
Ontology: Diphenylethers
INCHIKEY: NXTDJHZGHOFSQG-UHFFFAOYSA-N
SMILES: OC(=O)C1=CC(OC2=CC=CC=C2)=CC=C1
RETENTIONTIME: 
CCS: 158.8878239
IONMODE: Negative
INSTRUMENTTYPE: LC-ESI-ITFT
INSTRUMENT: 
COLLISIONENERGY: 45
Comment: registered in MassBank
Num Peaks: 3
93.0345	1000
169.0658	139
213.056	16

NAME: 3-Phenoxybenzoic acid; LC-ESI-ITFT; MS2; CE
PRECURSORMZ: 213.055718
PRECURSORTYPE: [M-H]-
FORMULA: C13H10O3
Ontology: Diphenylethers
INCHIKEY: NXTDJHZGHOFSQG-UHFFFAOYSA-N
SMILES: OC(=O)C1=CC(OC2=CC=CC=C2)=CC=C1
RETENTIONTIME: 
CCS: 158.8878239
IONMODE: Negative
INSTRUMENTTYPE: LC-ESI-ITFT
INSTRUMENT: 
COLLISIONENERGY: 60
Comment: registered in MassBank
Num Peaks: 1
93.0346	1000

NAME: 3-Phenoxybenzoic acid; LC-ESI-ITFT; MS2; CE
PRECURSORMZ: 213.055718
PRECURSORTYPE: [M-H]-
FORMULA: C13H10O3
Ontology: Diphenylethers
INCHIKEY: NXTDJHZGHOFSQG-UHFFFAOYSA-N
SMILES: OC(=O)C1=CC(OC2=CC=CC=C2)=CC=C1
RETENTIONTIME: 
CCS: 158.8878239
IONMODE: Negative
INSTRUMENTTYPE: LC-ESI-ITFT
INSTRUMENT: 
COLLISIONENERGY: 75
Comment: registered in MassBank
Num Peaks: 1
93.0345	1000

NAME: 3-Phenoxybenzoic acid; LC-ESI-ITFT; MS2; CE
PRECURSORMZ: 213.055718
PRECURSORTYPE: [M-H]-
FORMULA: C13H10O3
Ontology: Diphenylethers
INCHIKEY: NXTDJHZGHOFSQG-UHFFFAOYSA-N
SMILES: OC(=O)C1=CC(OC2=CC=CC=C2)=CC=C1
RETENTIONTIME: 
CCS: 158.8878239
IONMODE: Negative
INSTRUMENTTYPE: LC-ESI-ITFT
INSTRUMENT: 
COLLISIONENERGY: 90
Comment: registered in MassBank
Num Peaks: 1
93.0345	1000

NAME: 3-Phenoxybenzoic acid; LC-ESI-ITFT; MS2; CE
PRECURSORMZ: 213.055718
PRECURSORTYPE: [M-H]-
FORMULA: C13H10O3
Ontology: Diphenylethers
INCHIKEY: NXTDJHZGHOFSQG-UHFFFAOYSA-N
SMILES: OC(=O)C1=CC(OC2=CC=CC=C2)=CC=C1
RETENTIONTIME: 
CCS: 158.8878239
IONMODE: Negative
INSTRUMENTTYPE: LC-ESI-ITFT
INSTRUMENT: 
COLLISIONENERGY: 15
Comment: registered in MassBank
Num Peaks: 3
93.0342	22
169.0658	108
213.0556	1000

NAME: 3-Phenoxybenzoic acid; LC-ESI-ITFT; MS2; CE
PRECURSORMZ: 213.055718
PRECURSORTYPE: [M-H]-
FORMULA: C13H10O3
Ontology: Diphenylethers
INCHIKEY: NXTDJHZGHOFSQG-UHFFFAOYSA-N
SMILES: OC(=O)C1=CC(OC2=CC=CC=C2)=CC=C1
RETENTIONTIME: 
CCS: 158.8878239
IONMODE: Negative
INSTRUMENTTYPE: LC-ESI-ITFT
INSTRUMENT: 
COLLISIONENERGY: 30
Comment: registered in MassBank
Num Peaks: 3
93.0344	591
169.0657	1000
213.0553	523

NAME: 3-Phenoxybenzoic acid; LC-ESI-ITFT; MS2; CE
PRECURSORMZ: 213.055718
PRECURSORTYPE: [M-H]-
FORMULA: C13H10O3
Ontology: Diphenylethers
INCHIKEY: NXTDJHZGHOFSQG-UHFFFAOYSA-N
SMILES: OC(=O)C1=CC(OC2=CC=CC=C2)=CC=C1
RETENTIONTIME: 
CCS: 158.8878239
IONMODE: Negative
INSTRUMENTTYPE: LC-ESI-ITFT
INSTRUMENT: 
COLLISIONENERGY: 45
Comment: registered in MassBank
Num Peaks: 3
93.0345	1000
169.0658	139
213.0554	17

NAME: 3-Phenoxybenzoic acid; LC-ESI-ITFT; MS2; CE
PRECURSORMZ: 213.055718
PRECURSORTYPE: [M-H]-
FORMULA: C13H10O3
Ontology: Diphenylethers
INCHIKEY: NXTDJHZGHOFSQG-UHFFFAOYSA-N
SMILES: OC(=O)C1=CC(OC2=CC=CC=C2)=CC=C1
RETENTIONTIME: 
CCS: 158.8878239
IONMODE: Negative
INSTRUMENTTYPE: LC-ESI-ITFT
INSTRUMENT: 
COLLISIONENERGY: 60
Comment: registered in MassBank
Num Peaks: 1
93.0345	1000

NAME: 3-Phenoxybenzoic acid; LC-ESI-ITFT; MS2; CE
PRECURSORMZ: 213.055718
PRECURSORTYPE: [M-H]-
FORMULA: C13H10O3
Ontology: Diphenylethers
INCHIKEY: NXTDJHZGHOFSQG-UHFFFAOYSA-N
SMILES: OC(=O)C1=CC(OC2=CC=CC=C2)=CC=C1
RETENTIONTIME: 
CCS: 158.8878239
IONMODE: Negative
INSTRUMENTTYPE: LC-ESI-ITFT
INSTRUMENT: 
COLLISIONENERGY: 75
Comment: registered in MassBank
Num Peaks: 1
93.0345	1000

NAME: 3-Phenoxybenzoic acid; LC-ESI-ITFT; MS2; CE
PRECURSORMZ: 213.055718
PRECURSORTYPE: [M-H]-
FORMULA: C13H10O3
Ontology: Diphenylethers
INCHIKEY: NXTDJHZGHOFSQG-UHFFFAOYSA-N
SMILES: OC(=O)C1=CC(OC2=CC=CC=C2)=CC=C1
RETENTIONTIME: 
CCS: 158.8878239
IONMODE: Negative
INSTRUMENTTYPE: LC-ESI-ITFT
INSTRUMENT: 
COLLISIONENERGY: 90
Comment: registered in MassBank
Num Peaks: 1
93.0345	1000

NAME: 3-Phenoxybenzoic acid; LC-ESI-ITFT; MS2; CE
PRECURSORMZ: 213.055718
PRECURSORTYPE: [M-H]-
FORMULA: C13H10O3
Ontology: Diphenylethers
INCHIKEY: NXTDJHZGHOFSQG-UHFFFAOYSA-N
SMILES: OC(=O)C1=CC(OC2=CC=CC=C2)=CC=C1
RETENTIONTIME: 
CCS: 158.8878239
IONMODE: Negative
INSTRUMENTTYPE: LC-ESI-ITFT
INSTRUMENT: 
COLLISIONENERGY: 35
Comment: registered in MassBank
Num Peaks: 2
93.0344	37
169.06599	1000

NAME: Fluconazole; LC-ESI-ITFT; MS2; CE
PRECURSORMZ: 305.096789
PRECURSORTYPE: [M-H]-
FORMULA: C13H12F2N6O
Ontology: Fluorobenzenes
INCHIKEY: RFHAOTPXVQNOHP-UHFFFAOYSA-N
SMILES: OC(CN1C=NC=N1)(CN1C=NC=N1)C1=C(F)C=C(F)C=C1
RETENTIONTIME: 
CCS: 167.1880279
IONMODE: Negative
INSTRUMENTTYPE: LC-ESI-ITFT
INSTRUMENT: 
COLLISIONENERGY: 35
Comment: registered in MassBank
Num Peaks: 1
191.069	1000

NAME: Fluconazole; LC-ESI-ITFT; MS2; CE
PRECURSORMZ: 305.096789
PRECURSORTYPE: [M-H]-
FORMULA: C13H12F2N6O
Ontology: Fluorobenzenes
INCHIKEY: RFHAOTPXVQNOHP-UHFFFAOYSA-N
SMILES: OC(CN1C=NC=N1)(CN1C=NC=N1)C1=C(F)C=C(F)C=C1
RETENTIONTIME: 
CCS: 167.1880279
IONMODE: Negative
INSTRUMENTTYPE: LC-ESI-ITFT
INSTRUMENT: 
COLLISIONENERGY: 15
Comment: registered in MassBank
Num Peaks: 6
68.0255	39
108.0205	7
122.0365	5
191.06889	1000
222.0482	9
305.09711	53

NAME: Fluconazole; LC-ESI-ITFT; MS2; CE
PRECURSORMZ: 305.096789
PRECURSORTYPE: [M-H]-
FORMULA: C13H12F2N6O
Ontology: Fluorobenzenes
INCHIKEY: RFHAOTPXVQNOHP-UHFFFAOYSA-N
SMILES: OC(CN1C=NC=N1)(CN1C=NC=N1)C1=C(F)C=C(F)C=C1
RETENTIONTIME: 
CCS: 167.1880279
IONMODE: Negative
INSTRUMENTTYPE: LC-ESI-ITFT
INSTRUMENT: 
COLLISIONENERGY: 30
Comment: registered in MassBank
Num Peaks: 5
68.0254	84
108.0202	7
122.0361	21
191.0688	1000
222.048	11

NAME: Fluconazole; LC-ESI-ITFT; MS2; CE
PRECURSORMZ: 305.096789
PRECURSORTYPE: [M-H]-
FORMULA: C13H12F2N6O
Ontology: Fluorobenzenes
INCHIKEY: RFHAOTPXVQNOHP-UHFFFAOYSA-N
SMILES: OC(CN1C=NC=N1)(CN1C=NC=N1)C1=C(F)C=C(F)C=C1
RETENTIONTIME: 
CCS: 167.1880279
IONMODE: Negative
INSTRUMENTTYPE: LC-ESI-ITFT
INSTRUMENT: 
COLLISIONENERGY: 45
Comment: registered in MassBank
Num Peaks: 8
67.0301	11
68.0255	872
94.0412	41
108.0204	88
122.0362	123
191.069	1000
202.04269	13
222.04939	14

NAME: Fluconazole; LC-ESI-ITFT; MS2; CE
PRECURSORMZ: 305.096789
PRECURSORTYPE: [M-H]-
FORMULA: C13H12F2N6O
Ontology: Fluorobenzenes
INCHIKEY: RFHAOTPXVQNOHP-UHFFFAOYSA-N
SMILES: OC(CN1C=NC=N1)(CN1C=NC=N1)C1=C(F)C=C(F)C=C1
RETENTIONTIME: 
CCS: 167.1880279
IONMODE: Negative
INSTRUMENTTYPE: LC-ESI-ITFT
INSTRUMENT: 
COLLISIONENERGY: 60
Comment: registered in MassBank
Num Peaks: 5
68.0255	1000
94.0411	48
108.0204	60
122.0361	42
191.0687	124

NAME: Fluconazole; LC-ESI-ITFT; MS2; CE
PRECURSORMZ: 305.096789
PRECURSORTYPE: [M-H]-
FORMULA: C13H12F2N6O
Ontology: Fluorobenzenes
INCHIKEY: RFHAOTPXVQNOHP-UHFFFAOYSA-N
SMILES: OC(CN1C=NC=N1)(CN1C=NC=N1)C1=C(F)C=C(F)C=C1
RETENTIONTIME: 
CCS: 167.1880279
IONMODE: Negative
INSTRUMENTTYPE: LC-ESI-ITFT
INSTRUMENT: 
COLLISIONENERGY: 75
Comment: registered in MassBank
Num Peaks: 6
68.0255	1000
93.0144	27
94.0411	37
108.0204	42
113.0211	16
122.0361	11

NAME: Fluconazole; LC-ESI-ITFT; MS2; CE
PRECURSORMZ: 305.096789
PRECURSORTYPE: [M-H]-
FORMULA: C13H12F2N6O
Ontology: Fluorobenzenes
INCHIKEY: RFHAOTPXVQNOHP-UHFFFAOYSA-N
SMILES: OC(CN1C=NC=N1)(CN1C=NC=N1)C1=C(F)C=C(F)C=C1
RETENTIONTIME: 
CCS: 167.1880279
IONMODE: Negative
INSTRUMENTTYPE: LC-ESI-ITFT
INSTRUMENT: 
COLLISIONENERGY: 90
Comment: registered in MassBank
Num Peaks: 3
68.0255	1000
93.0145	81
94.0413	30

NAME: Fluconazole; LC-ESI-ITFT; MS2; CE
PRECURSORMZ: 305.096789
PRECURSORTYPE: [M-H]-
FORMULA: C13H12F2N6O
Ontology: Fluorobenzenes
INCHIKEY: RFHAOTPXVQNOHP-UHFFFAOYSA-N
SMILES: OC(CN1C=NC=N1)(CN1C=NC=N1)C1=C(F)C=C(F)C=C1
RETENTIONTIME: 
CCS: 167.1880279
IONMODE: Negative
INSTRUMENTTYPE: LC-ESI-ITFT
INSTRUMENT: 
COLLISIONENERGY: 15
Comment: registered in MassBank
Num Peaks: 5
68.0255	30
122.0362	6
191.069	1000
222.048	7
305.0968	46

NAME: Fluconazole; LC-ESI-ITFT; MS2; CE
PRECURSORMZ: 305.096789
PRECURSORTYPE: [M-H]-
FORMULA: C13H12F2N6O
Ontology: Fluorobenzenes
INCHIKEY: RFHAOTPXVQNOHP-UHFFFAOYSA-N
SMILES: OC(CN1C=NC=N1)(CN1C=NC=N1)C1=C(F)C=C(F)C=C1
RETENTIONTIME: 
CCS: 167.1880279
IONMODE: Negative
INSTRUMENTTYPE: LC-ESI-ITFT
INSTRUMENT: 
COLLISIONENERGY: 30
Comment: registered in MassBank
Num Peaks: 5
68.0255	69
108.0203	8
122.0361	15
191.069	1000
222.04871	12

NAME: Fluconazole; LC-ESI-ITFT; MS2; CE
PRECURSORMZ: 305.096789
PRECURSORTYPE: [M-H]-
FORMULA: C13H12F2N6O
Ontology: Fluorobenzenes
INCHIKEY: RFHAOTPXVQNOHP-UHFFFAOYSA-N
SMILES: OC(CN1C=NC=N1)(CN1C=NC=N1)C1=C(F)C=C(F)C=C1
RETENTIONTIME: 
CCS: 167.1880279
IONMODE: Negative
INSTRUMENTTYPE: LC-ESI-ITFT
INSTRUMENT: 
COLLISIONENERGY: 45
Comment: registered in MassBank
Num Peaks: 8
67.0304	7
68.0255	799
94.0409	23
108.0203	47
122.036	84
191.0688	1000
202.04221	13
222.04871	9

NAME: Fluconazole; LC-ESI-ITFT; MS2; CE
PRECURSORMZ: 305.096789
PRECURSORTYPE: [M-H]-
FORMULA: C13H12F2N6O
Ontology: Fluorobenzenes
INCHIKEY: RFHAOTPXVQNOHP-UHFFFAOYSA-N
SMILES: OC(CN1C=NC=N1)(CN1C=NC=N1)C1=C(F)C=C(F)C=C1
RETENTIONTIME: 
CCS: 167.1880279
IONMODE: Negative
INSTRUMENTTYPE: LC-ESI-ITFT
INSTRUMENT: 
COLLISIONENERGY: 60
Comment: registered in MassBank
Num Peaks: 8
67.0304	6
68.0255	1000
93.0149	8
94.0411	27
108.0202	34
113.021	8
122.0359	19
191.0686	99

NAME: Fluconazole; LC-ESI-ITFT; MS2; CE
PRECURSORMZ: 305.096789
PRECURSORTYPE: [M-H]-
FORMULA: C13H12F2N6O
Ontology: Fluorobenzenes
INCHIKEY: RFHAOTPXVQNOHP-UHFFFAOYSA-N
SMILES: OC(CN1C=NC=N1)(CN1C=NC=N1)C1=C(F)C=C(F)C=C1
RETENTIONTIME: 
CCS: 167.1880279
IONMODE: Negative
INSTRUMENTTYPE: LC-ESI-ITFT
INSTRUMENT: 
COLLISIONENERGY: 75
Comment: registered in MassBank
Num Peaks: 5
68.0255	1000
93.0144	27
94.041	33
108.02	25
113.0207	11

NAME: Fluconazole; LC-ESI-ITFT; MS2; CE
PRECURSORMZ: 305.096789
PRECURSORTYPE: [M-H]-
FORMULA: C13H12F2N6O
Ontology: Fluorobenzenes
INCHIKEY: RFHAOTPXVQNOHP-UHFFFAOYSA-N
SMILES: OC(CN1C=NC=N1)(CN1C=NC=N1)C1=C(F)C=C(F)C=C1
RETENTIONTIME: 
CCS: 167.1880279
IONMODE: Negative
INSTRUMENTTYPE: LC-ESI-ITFT
INSTRUMENT: 
COLLISIONENERGY: 90
Comment: registered in MassBank
Num Peaks: 3
68.0255	1000
93.0146	28
305.0961	16

NAME: Fluconazole; LC-ESI-ITFT; MS2; CE
PRECURSORMZ: 305.096789
PRECURSORTYPE: [M-H]-
FORMULA: C13H12F2N6O
Ontology: Fluorobenzenes
INCHIKEY: RFHAOTPXVQNOHP-UHFFFAOYSA-N
SMILES: OC(CN1C=NC=N1)(CN1C=NC=N1)C1=C(F)C=C(F)C=C1
RETENTIONTIME: 
CCS: 167.1880279
IONMODE: Negative
INSTRUMENTTYPE: LC-ESI-ITFT
INSTRUMENT: 
COLLISIONENERGY: 35
Comment: registered in MassBank
Num Peaks: 1
191.06889	1000

NAME: Fenofibric acid; LC-ESI-ITFT; MS2; CE
PRECURSORMZ: 317.05861
PRECURSORTYPE: [M-H]-
FORMULA: C17H15ClO4
Ontology: Benzophenones
INCHIKEY: MQOBSOSZFYZQOK-UHFFFAOYSA-N
SMILES: CC(C)(OC1=CC=C(C=C1)C(=O)C1=CC=C(Cl)C=C1)C(O)=O
RETENTIONTIME: 
CCS: -1
IONMODE: Negative
INSTRUMENTTYPE: LC-ESI-ITFT
INSTRUMENT: 
COLLISIONENERGY: 35
Comment: registered in MassBank
Num Peaks: 1
231.022	1000

NAME: Fenofibric acid; LC-ESI-ITFT; MS2; CE
PRECURSORMZ: 317.05861
PRECURSORTYPE: [M-H]-
FORMULA: C17H15ClO4
Ontology: Benzophenones
INCHIKEY: MQOBSOSZFYZQOK-UHFFFAOYSA-N
SMILES: CC(C)(OC1=CC=C(C=C1)C(=O)C1=CC=C(Cl)C=C1)C(O)=O
RETENTIONTIME: 
CCS: -1
IONMODE: Negative
INSTRUMENTTYPE: LC-ESI-ITFT
INSTRUMENT: 
COLLISIONENERGY: 15
Comment: registered in MassBank
Num Peaks: 1
231.0215	1000

NAME: Fenofibric acid; LC-ESI-ITFT; MS2; CE
PRECURSORMZ: 317.05861
PRECURSORTYPE: [M-H]-
FORMULA: C17H15ClO4
Ontology: Benzophenones
INCHIKEY: MQOBSOSZFYZQOK-UHFFFAOYSA-N
SMILES: CC(C)(OC1=CC=C(C=C1)C(=O)C1=CC=C(Cl)C=C1)C(O)=O
RETENTIONTIME: 
CCS: -1
IONMODE: Negative
INSTRUMENTTYPE: LC-ESI-ITFT
INSTRUMENT: 
COLLISIONENERGY: 30
Comment: registered in MassBank
Num Peaks: 1
231.0219	1000

NAME: Fenofibric acid; LC-ESI-ITFT; MS2; CE
PRECURSORMZ: 317.05861
PRECURSORTYPE: [M-H]-
FORMULA: C17H15ClO4
Ontology: Benzophenones
INCHIKEY: MQOBSOSZFYZQOK-UHFFFAOYSA-N
SMILES: CC(C)(OC1=CC=C(C=C1)C(=O)C1=CC=C(Cl)C=C1)C(O)=O
RETENTIONTIME: 
CCS: -1
IONMODE: Negative
INSTRUMENTTYPE: LC-ESI-ITFT
INSTRUMENT: 
COLLISIONENERGY: 45
Comment: registered in MassBank
Num Peaks: 1
231.02161	1000

NAME: Fenofibric acid; LC-ESI-ITFT; MS2; CE
PRECURSORMZ: 317.05861
PRECURSORTYPE: [M-H]-
FORMULA: C17H15ClO4
Ontology: Benzophenones
INCHIKEY: MQOBSOSZFYZQOK-UHFFFAOYSA-N
SMILES: CC(C)(OC1=CC=C(C=C1)C(=O)C1=CC=C(Cl)C=C1)C(O)=O
RETENTIONTIME: 
CCS: -1
IONMODE: Negative
INSTRUMENTTYPE: LC-ESI-ITFT
INSTRUMENT: 
COLLISIONENERGY: 60
Comment: registered in MassBank
Num Peaks: 1
231.0213	1000

NAME: Fenofibric acid; LC-ESI-ITFT; MS2; CE
PRECURSORMZ: 317.05861
PRECURSORTYPE: [M-H]-
FORMULA: C17H15ClO4
Ontology: Benzophenones
INCHIKEY: MQOBSOSZFYZQOK-UHFFFAOYSA-N
SMILES: CC(C)(OC1=CC=C(C=C1)C(=O)C1=CC=C(Cl)C=C1)C(O)=O
RETENTIONTIME: 
CCS: -1
IONMODE: Negative
INSTRUMENTTYPE: LC-ESI-ITFT
INSTRUMENT: 
COLLISIONENERGY: 75
Comment: registered in MassBank
Num Peaks: 1
231.02251	1000

NAME: Fenofibric acid; LC-ESI-ITFT; MS2; CE
PRECURSORMZ: 317.05861
PRECURSORTYPE: [M-H]-
FORMULA: C17H15ClO4
Ontology: Benzophenones
INCHIKEY: MQOBSOSZFYZQOK-UHFFFAOYSA-N
SMILES: CC(C)(OC1=CC=C(C=C1)C(=O)C1=CC=C(Cl)C=C1)C(O)=O
RETENTIONTIME: 
CCS: -1
IONMODE: Negative
INSTRUMENTTYPE: LC-ESI-ITFT
INSTRUMENT: 
COLLISIONENERGY: 15
Comment: registered in MassBank
Num Peaks: 1
231.0217	1000

NAME: Fenofibric acid; LC-ESI-ITFT; MS2; CE
PRECURSORMZ: 317.05861
PRECURSORTYPE: [M-H]-
FORMULA: C17H15ClO4
Ontology: Benzophenones
INCHIKEY: MQOBSOSZFYZQOK-UHFFFAOYSA-N
SMILES: CC(C)(OC1=CC=C(C=C1)C(=O)C1=CC=C(Cl)C=C1)C(O)=O
RETENTIONTIME: 
CCS: -1
IONMODE: Negative
INSTRUMENTTYPE: LC-ESI-ITFT
INSTRUMENT: 
COLLISIONENERGY: 30
Comment: registered in MassBank
Num Peaks: 1
231.0215	1000

NAME: Fenofibric acid; LC-ESI-ITFT; MS2; CE
PRECURSORMZ: 317.05861
PRECURSORTYPE: [M-H]-
FORMULA: C17H15ClO4
Ontology: Benzophenones
INCHIKEY: MQOBSOSZFYZQOK-UHFFFAOYSA-N
SMILES: CC(C)(OC1=CC=C(C=C1)C(=O)C1=CC=C(Cl)C=C1)C(O)=O
RETENTIONTIME: 
CCS: -1
IONMODE: Negative
INSTRUMENTTYPE: LC-ESI-ITFT
INSTRUMENT: 
COLLISIONENERGY: 45
Comment: registered in MassBank
Num Peaks: 1
231.0215	1000

NAME: Fenofibric acid; LC-ESI-ITFT; MS2; CE
PRECURSORMZ: 317.05861
PRECURSORTYPE: [M-H]-
FORMULA: C17H15ClO4
Ontology: Benzophenones
INCHIKEY: MQOBSOSZFYZQOK-UHFFFAOYSA-N
SMILES: CC(C)(OC1=CC=C(C=C1)C(=O)C1=CC=C(Cl)C=C1)C(O)=O
RETENTIONTIME: 
CCS: -1
IONMODE: Negative
INSTRUMENTTYPE: LC-ESI-ITFT
INSTRUMENT: 
COLLISIONENERGY: 60
Comment: registered in MassBank
Num Peaks: 1
231.02139	1000

NAME: Fenofibric acid; LC-ESI-ITFT; MS2; CE
PRECURSORMZ: 317.05861
PRECURSORTYPE: [M-H]-
FORMULA: C17H15ClO4
Ontology: Benzophenones
INCHIKEY: MQOBSOSZFYZQOK-UHFFFAOYSA-N
SMILES: CC(C)(OC1=CC=C(C=C1)C(=O)C1=CC=C(Cl)C=C1)C(O)=O
RETENTIONTIME: 
CCS: -1
IONMODE: Negative
INSTRUMENTTYPE: LC-ESI-ITFT
INSTRUMENT: 
COLLISIONENERGY: 75
Comment: registered in MassBank
Num Peaks: 1
231.021	1000

NAME: Fenofibric acid; LC-ESI-ITFT; MS2; CE
PRECURSORMZ: 317.05861
PRECURSORTYPE: [M-H]-
FORMULA: C17H15ClO4
Ontology: Benzophenones
INCHIKEY: MQOBSOSZFYZQOK-UHFFFAOYSA-N
SMILES: CC(C)(OC1=CC=C(C=C1)C(=O)C1=CC=C(Cl)C=C1)C(O)=O
RETENTIONTIME: 
CCS: -1
IONMODE: Negative
INSTRUMENTTYPE: LC-ESI-ITFT
INSTRUMENT: 
COLLISIONENERGY: 90
Comment: registered in MassBank
Num Peaks: 1
231.022	1000

NAME: N,N-Dimethyl-N'-p-tolylsulphamide; LC-ESI-ITFT; MS2; CE
PRECURSORMZ: 213.070322
PRECURSORTYPE: [M-H]-
FORMULA: C9H14N2O2S
Ontology: Sulfanilides
INCHIKEY: UDCDOJQOXWCCSD-UHFFFAOYSA-N
SMILES: CN(C)S(=O)(=O)NC1=CC=C(C)C=C1
RETENTIONTIME: 
CCS: -1
IONMODE: Negative
INSTRUMENTTYPE: LC-ESI-ITFT
INSTRUMENT: 
COLLISIONENERGY: 35
Comment: registered in MassBank
Num Peaks: 1
169.02071	1000

NAME: N,N-Dimethyl-N'-p-tolylsulphamide; LC-ESI-ITFT; MS2; CE
PRECURSORMZ: 213.070322
PRECURSORTYPE: [M-H]-
FORMULA: C9H14N2O2S
Ontology: Sulfanilides
INCHIKEY: UDCDOJQOXWCCSD-UHFFFAOYSA-N
SMILES: CN(C)S(=O)(=O)NC1=CC=C(C)C=C1
RETENTIONTIME: 
CCS: -1
IONMODE: Negative
INSTRUMENTTYPE: LC-ESI-ITFT
INSTRUMENT: 
COLLISIONENERGY: 35
Comment: registered in MassBank
Num Peaks: 1
169.0206	1000

NAME: Terbutylazine-2-hydroxy; LC-ESI-ITFT; MS2; CE
PRECURSORMZ: 210.136034
PRECURSORTYPE: [M-H]-
FORMULA: C9H17N5O
Ontology: N-aliphatic s-triazines
INCHIKEY: OYTCZOJKXCTBHG-UHFFFAOYSA-N
SMILES: CCN=C1N=C(O)NC(NC(C)(C)C)=N1
RETENTIONTIME: 
CCS: 160.6783277
IONMODE: Negative
INSTRUMENTTYPE: LC-ESI-ITFT
INSTRUMENT: 
COLLISIONENERGY: 35
Comment: registered in MassBank
Num Peaks: 8
69.0459	19
81.046	7
97.0773	378
111.0678	58
139.099	68
154.0737	1000
182.10471	51
210.13609	239

NAME: Terbutylazine-2-hydroxy; LC-ESI-ITFT; MS2; CE
PRECURSORMZ: 210.136034
PRECURSORTYPE: [M-H]-
FORMULA: C9H17N5O
Ontology: N-aliphatic s-triazines
INCHIKEY: OYTCZOJKXCTBHG-UHFFFAOYSA-N
SMILES: CCN=C1N=C(O)NC(NC(C)(C)C)=N1
RETENTIONTIME: 
CCS: 160.6783277
IONMODE: Negative
INSTRUMENTTYPE: LC-ESI-ITFT
INSTRUMENT: 
COLLISIONENERGY: 15
Comment: registered in MassBank
Num Peaks: 2
154.0744	24
210.13609	1000

NAME: Terbutylazine-2-hydroxy; LC-ESI-ITFT; MS2; CE
PRECURSORMZ: 210.136034
PRECURSORTYPE: [M-H]-
FORMULA: C9H17N5O
Ontology: N-aliphatic s-triazines
INCHIKEY: OYTCZOJKXCTBHG-UHFFFAOYSA-N
SMILES: CCN=C1N=C(O)NC(NC(C)(C)C)=N1
RETENTIONTIME: 
CCS: 160.6783277
IONMODE: Negative
INSTRUMENTTYPE: LC-ESI-ITFT
INSTRUMENT: 
COLLISIONENERGY: 30
Comment: registered in MassBank
Num Peaks: 3
97.0773	30
154.0732	59
210.13609	1000

NAME: Terbutylazine-2-hydroxy; LC-ESI-ITFT; MS2; CE
PRECURSORMZ: 210.136034
PRECURSORTYPE: [M-H]-
FORMULA: C9H17N5O
Ontology: N-aliphatic s-triazines
INCHIKEY: OYTCZOJKXCTBHG-UHFFFAOYSA-N
SMILES: CCN=C1N=C(O)NC(NC(C)(C)C)=N1
RETENTIONTIME: 
CCS: 160.6783277
IONMODE: Negative
INSTRUMENTTYPE: LC-ESI-ITFT
INSTRUMENT: 
COLLISIONENERGY: 45
Comment: registered in MassBank
Num Peaks: 5
69.046	66
97.0772	573
139.099	92
154.07339	548
210.136	1000

NAME: Terbutylazine-2-hydroxy; LC-ESI-ITFT; MS2; CE
PRECURSORMZ: 210.136034
PRECURSORTYPE: [M-H]-
FORMULA: C9H17N5O
Ontology: N-aliphatic s-triazines
INCHIKEY: OYTCZOJKXCTBHG-UHFFFAOYSA-N
SMILES: CCN=C1N=C(O)NC(NC(C)(C)C)=N1
RETENTIONTIME: 
CCS: 160.6783277
IONMODE: Negative
INSTRUMENTTYPE: LC-ESI-ITFT
INSTRUMENT: 
COLLISIONENERGY: 60
Comment: registered in MassBank
Num Peaks: 3
69.0458	163
97.0772	1000
154.0735	381

NAME: Terbutylazine-2-hydroxy; LC-ESI-ITFT; MS2; CE
PRECURSORMZ: 210.136034
PRECURSORTYPE: [M-H]-
FORMULA: C9H17N5O
Ontology: N-aliphatic s-triazines
INCHIKEY: OYTCZOJKXCTBHG-UHFFFAOYSA-N
SMILES: CCN=C1N=C(O)NC(NC(C)(C)C)=N1
RETENTIONTIME: 
CCS: 160.6783277
IONMODE: Negative
INSTRUMENTTYPE: LC-ESI-ITFT
INSTRUMENT: 
COLLISIONENERGY: 75
Comment: registered in MassBank
Num Peaks: 3
69.0458	101
97.0772	1000
154.0742	109

NAME: Terbutylazine-2-hydroxy; LC-ESI-ITFT; MS2; CE
PRECURSORMZ: 210.136034
PRECURSORTYPE: [M-H]-
FORMULA: C9H17N5O
Ontology: N-aliphatic s-triazines
INCHIKEY: OYTCZOJKXCTBHG-UHFFFAOYSA-N
SMILES: CCN=C1N=C(O)NC(NC(C)(C)C)=N1
RETENTIONTIME: 
CCS: 160.6783277
IONMODE: Negative
INSTRUMENTTYPE: LC-ESI-ITFT
INSTRUMENT: 
COLLISIONENERGY: 90
Comment: registered in MassBank
Num Peaks: 1
97.0772	1000

NAME: Terbutylazine-2-hydroxy; LC-ESI-ITFT; MS2; CE
PRECURSORMZ: 210.136034
PRECURSORTYPE: [M-H]-
FORMULA: C9H17N5O
Ontology: N-aliphatic s-triazines
INCHIKEY: OYTCZOJKXCTBHG-UHFFFAOYSA-N
SMILES: CCN=C1N=C(O)NC(NC(C)(C)C)=N1
RETENTIONTIME: 
CCS: 160.6783277
IONMODE: Negative
INSTRUMENTTYPE: LC-ESI-ITFT
INSTRUMENT: 
COLLISIONENERGY: 15
Comment: registered in MassBank
Num Peaks: 2
154.07359	16
210.136	1000

NAME: Terbutylazine-2-hydroxy; LC-ESI-ITFT; MS2; CE
PRECURSORMZ: 210.136034
PRECURSORTYPE: [M-H]-
FORMULA: C9H17N5O
Ontology: N-aliphatic s-triazines
INCHIKEY: OYTCZOJKXCTBHG-UHFFFAOYSA-N
SMILES: CCN=C1N=C(O)NC(NC(C)(C)C)=N1
RETENTIONTIME: 
CCS: 160.6783277
IONMODE: Negative
INSTRUMENTTYPE: LC-ESI-ITFT
INSTRUMENT: 
COLLISIONENERGY: 30
Comment: registered in MassBank
Num Peaks: 4
97.0771	33
154.0733	72
182.1053	9
210.136	1000

NAME: Terbutylazine-2-hydroxy; LC-ESI-ITFT; MS2; CE
PRECURSORMZ: 210.136034
PRECURSORTYPE: [M-H]-
FORMULA: C9H17N5O
Ontology: N-aliphatic s-triazines
INCHIKEY: OYTCZOJKXCTBHG-UHFFFAOYSA-N
SMILES: CCN=C1N=C(O)NC(NC(C)(C)C)=N1
RETENTIONTIME: 
CCS: 160.6783277
IONMODE: Negative
INSTRUMENTTYPE: LC-ESI-ITFT
INSTRUMENT: 
COLLISIONENERGY: 45
Comment: registered in MassBank
Num Peaks: 6
97.0772	485
111.0677	45
139.09891	45
154.07339	604
182.10471	58
210.13589	1000

NAME: Terbutylazine-2-hydroxy; LC-ESI-ITFT; MS2; CE
PRECURSORMZ: 210.136034
PRECURSORTYPE: [M-H]-
FORMULA: C9H17N5O
Ontology: N-aliphatic s-triazines
INCHIKEY: OYTCZOJKXCTBHG-UHFFFAOYSA-N
SMILES: CCN=C1N=C(O)NC(NC(C)(C)C)=N1
RETENTIONTIME: 
CCS: 160.6783277
IONMODE: Negative
INSTRUMENTTYPE: LC-ESI-ITFT
INSTRUMENT: 
COLLISIONENERGY: 60
Comment: registered in MassBank
Num Peaks: 5
69.0459	108
97.0771	1000
111.0675	96
154.0732	456
210.13631	205

NAME: Terbutylazine-2-hydroxy; LC-ESI-ITFT; MS2; CE
PRECURSORMZ: 210.136034
PRECURSORTYPE: [M-H]-
FORMULA: C9H17N5O
Ontology: N-aliphatic s-triazines
INCHIKEY: OYTCZOJKXCTBHG-UHFFFAOYSA-N
SMILES: CCN=C1N=C(O)NC(NC(C)(C)C)=N1
RETENTIONTIME: 
CCS: 160.6783277
IONMODE: Negative
INSTRUMENTTYPE: LC-ESI-ITFT
INSTRUMENT: 
COLLISIONENERGY: 75
Comment: registered in MassBank
Num Peaks: 5
69.0457	165
81.0458	54
97.0771	1000
111.0677	108
154.0739	197

NAME: Terbutylazine-2-hydroxy; LC-ESI-ITFT; MS2; CE
PRECURSORMZ: 210.136034
PRECURSORTYPE: [M-H]-
FORMULA: C9H17N5O
Ontology: N-aliphatic s-triazines
INCHIKEY: OYTCZOJKXCTBHG-UHFFFAOYSA-N
SMILES: CCN=C1N=C(O)NC(NC(C)(C)C)=N1
RETENTIONTIME: 
CCS: 160.6783277
IONMODE: Negative
INSTRUMENTTYPE: LC-ESI-ITFT
INSTRUMENT: 
COLLISIONENERGY: 90
Comment: registered in MassBank
Num Peaks: 3
69.0458	150
81.0459	282
97.0771	1000

NAME: Metolachlor ESA; LC-ESI-ITFT; MS2; CE
PRECURSORMZ: 328.122417
PRECURSORTYPE: [M-H]-
FORMULA: C15H23NO5S
Ontology: Anilides
INCHIKEY: CIGKZVUEZXGYSV-UHFFFAOYNA-N
SMILES: CCC1=CC=CC(C)=C1N(C(C)COC)C(=O)CS(O)(=O)=O
RETENTIONTIME: 
CCS: 182.6887833
IONMODE: Negative
INSTRUMENTTYPE: LC-ESI-ITFT
INSTRUMENT: 
COLLISIONENERGY: 35
Comment: registered in MassBank
Num Peaks: 15
118.9684	82
119.9763	181
120.9603	1000
135.0817	89
158.0976	6
174.129	42
177.01041	22
192.034	445
206.1552	12
232.1351	17
238.0551	17
248.1658	17
256.06549	103
264.16089	22
296.09641	197

NAME: Metolachlor ESA; LC-ESI-ITFT; MS2; CE
PRECURSORMZ: 328.122417
PRECURSORTYPE: [M-H]-
FORMULA: C15H23NO5S
Ontology: Anilides
INCHIKEY: CIGKZVUEZXGYSV-UHFFFAOYNA-N
SMILES: CCC1=CC=CC(C)=C1N(C(C)COC)C(=O)CS(O)(=O)=O
RETENTIONTIME: 
CCS: 182.6887833
IONMODE: Negative
INSTRUMENTTYPE: LC-ESI-ITFT
INSTRUMENT: 
COLLISIONENERGY: 30
Comment: registered in MassBank
Num Peaks: 7
76.9705	11
79.9575	32
120.9603	45
135.0815	8
192.0334	12
256.0668	5
328.1228	1000

NAME: Metolachlor ESA; LC-ESI-ITFT; MS2; CE
PRECURSORMZ: 328.122417
PRECURSORTYPE: [M-H]-
FORMULA: C15H23NO5S
Ontology: Anilides
INCHIKEY: CIGKZVUEZXGYSV-UHFFFAOYNA-N
SMILES: CCC1=CC=CC(C)=C1N(C(C)COC)C(=O)CS(O)(=O)=O
RETENTIONTIME: 
CCS: 182.6887833
IONMODE: Negative
INSTRUMENTTYPE: LC-ESI-ITFT
INSTRUMENT: 
COLLISIONENERGY: 45
Comment: registered in MassBank
Num Peaks: 11
76.9703	142
79.9575	1000
93.9729	20
118.9684	87
119.9762	73
120.9603	532
135.0816	129
174.129	21
256.06689	26
296.0957	30
328.12259	508

NAME: Metolachlor ESA; LC-ESI-ITFT; MS2; CE
PRECURSORMZ: 328.122417
PRECURSORTYPE: [M-H]-
FORMULA: C15H23NO5S
Ontology: Anilides
INCHIKEY: CIGKZVUEZXGYSV-UHFFFAOYNA-N
SMILES: CCC1=CC=CC(C)=C1N(C(C)COC)C(=O)CS(O)(=O)=O
RETENTIONTIME: 
CCS: 182.6887833
IONMODE: Negative
INSTRUMENTTYPE: LC-ESI-ITFT
INSTRUMENT: 
COLLISIONENERGY: 60
Comment: registered in MassBank
Num Peaks: 7
76.9704	107
79.9574	1000
93.9728	18
118.9683	48
119.9761	38
120.9603	146
135.0816	110

NAME: Metolachlor ESA; LC-ESI-ITFT; MS2; CE
PRECURSORMZ: 328.122417
PRECURSORTYPE: [M-H]-
FORMULA: C15H23NO5S
Ontology: Anilides
INCHIKEY: CIGKZVUEZXGYSV-UHFFFAOYNA-N
SMILES: CCC1=CC=CC(C)=C1N(C(C)COC)C(=O)CS(O)(=O)=O
RETENTIONTIME: 
CCS: 182.6887833
IONMODE: Negative
INSTRUMENTTYPE: LC-ESI-ITFT
INSTRUMENT: 
COLLISIONENERGY: 75
Comment: registered in MassBank
Num Peaks: 7
76.9704	104
79.9575	1000
93.9732	30
119.9764	18
120.9601	52
135.0818	66
328.1225	14

NAME: Metolachlor ESA; LC-ESI-ITFT; MS2; CE
PRECURSORMZ: 328.122417
PRECURSORTYPE: [M-H]-
FORMULA: C15H23NO5S
Ontology: Anilides
INCHIKEY: CIGKZVUEZXGYSV-UHFFFAOYNA-N
SMILES: CCC1=CC=CC(C)=C1N(C(C)COC)C(=O)CS(O)(=O)=O
RETENTIONTIME: 
CCS: 182.6887833
IONMODE: Negative
INSTRUMENTTYPE: LC-ESI-ITFT
INSTRUMENT: 
COLLISIONENERGY: 90
Comment: registered in MassBank
Num Peaks: 3
76.9702	107
79.9575	1000
118.968	29

NAME: Metolachlor ESA; LC-ESI-ITFT; MS2; CE
PRECURSORMZ: 328.122417
PRECURSORTYPE: [M-H]-
FORMULA: C15H23NO5S
Ontology: Anilides
INCHIKEY: CIGKZVUEZXGYSV-UHFFFAOYNA-N
SMILES: CCC1=CC=CC(C)=C1N(C(C)COC)C(=O)CS(O)(=O)=O
RETENTIONTIME: 
CCS: 182.6887833
IONMODE: Negative
INSTRUMENTTYPE: LC-ESI-ITFT
INSTRUMENT: 
COLLISIONENERGY: 30
Comment: registered in MassBank
Num Peaks: 8
76.9703	11
79.9574	17
119.9761	6
120.9604	38
135.0815	7
192.03349	12
296.09741	5
328.12289	1000

NAME: Metolachlor ESA; LC-ESI-ITFT; MS2; CE
PRECURSORMZ: 328.122417
PRECURSORTYPE: [M-H]-
FORMULA: C15H23NO5S
Ontology: Anilides
INCHIKEY: CIGKZVUEZXGYSV-UHFFFAOYNA-N
SMILES: CCC1=CC=CC(C)=C1N(C(C)COC)C(=O)CS(O)(=O)=O
RETENTIONTIME: 
CCS: 182.6887833
IONMODE: Negative
INSTRUMENTTYPE: LC-ESI-ITFT
INSTRUMENT: 
COLLISIONENERGY: 45
Comment: registered in MassBank
Num Peaks: 10
76.9703	133
79.9574	1000
118.9684	52
119.9762	76
120.9602	372
135.0817	117
174.1288	18
192.03371	57
256.0661	30
328.1225	399

NAME: Metolachlor ESA; LC-ESI-ITFT; MS2; CE
PRECURSORMZ: 328.122417
PRECURSORTYPE: [M-H]-
FORMULA: C15H23NO5S
Ontology: Anilides
INCHIKEY: CIGKZVUEZXGYSV-UHFFFAOYNA-N
SMILES: CCC1=CC=CC(C)=C1N(C(C)COC)C(=O)CS(O)(=O)=O
RETENTIONTIME: 
CCS: 182.6887833
IONMODE: Negative
INSTRUMENTTYPE: LC-ESI-ITFT
INSTRUMENT: 
COLLISIONENERGY: 60
Comment: registered in MassBank
Num Peaks: 9
76.9704	75
79.9575	1000
93.9732	17
118.9683	46
119.976	13
120.9604	125
135.08189	75
256.06641	9
328.1232	16

NAME: Metolachlor ESA; LC-ESI-ITFT; MS2; CE
PRECURSORMZ: 328.122417
PRECURSORTYPE: [M-H]-
FORMULA: C15H23NO5S
Ontology: Anilides
INCHIKEY: CIGKZVUEZXGYSV-UHFFFAOYNA-N
SMILES: CCC1=CC=CC(C)=C1N(C(C)COC)C(=O)CS(O)(=O)=O
RETENTIONTIME: 
CCS: 182.6887833
IONMODE: Negative
INSTRUMENTTYPE: LC-ESI-ITFT
INSTRUMENT: 
COLLISIONENERGY: 75
Comment: registered in MassBank
Num Peaks: 7
76.9703	64
79.9575	1000
93.9732	23
118.9683	33
119.9763	16
120.9604	46
135.0817	66

NAME: Metolachlor ESA; LC-ESI-ITFT; MS2; CE
PRECURSORMZ: 328.122417
PRECURSORTYPE: [M-H]-
FORMULA: C15H23NO5S
Ontology: Anilides
INCHIKEY: CIGKZVUEZXGYSV-UHFFFAOYNA-N
SMILES: CCC1=CC=CC(C)=C1N(C(C)COC)C(=O)CS(O)(=O)=O
RETENTIONTIME: 
CCS: 182.6887833
IONMODE: Negative
INSTRUMENTTYPE: LC-ESI-ITFT
INSTRUMENT: 
COLLISIONENERGY: 90
Comment: registered in MassBank
Num Peaks: 3
79.9574	1000
93.9733	21
135.08121	19

NAME: Metolachlor ESA; LC-ESI-ITFT; MS2; CE
PRECURSORMZ: 328.122417
PRECURSORTYPE: [M-H]-
FORMULA: C15H23NO5S
Ontology: Anilides
INCHIKEY: CIGKZVUEZXGYSV-UHFFFAOYNA-N
SMILES: CCC1=CC=CC(C)=C1N(C(C)COC)C(=O)CS(O)(=O)=O
RETENTIONTIME: 
CCS: 182.6887833
IONMODE: Negative
INSTRUMENTTYPE: LC-ESI-ITFT
INSTRUMENT: 
COLLISIONENERGY: 35
Comment: registered in MassBank
Num Peaks: 14
118.9684	45
119.9763	124
120.9603	1000
135.0817	53
174.1288	21
177.0103	11
192.0338	404
206.1553	6
232.13499	8
238.05479	10
248.1653	6
256.065	64
264.16071	15
296.09641	128

NAME: Pantoprazole; LC-ESI-ITFT; MS2; CE
PRECURSORMZ: 382.067857
PRECURSORTYPE: [M-H]-
FORMULA: C16H15F2N3O4S
Ontology: Sulfinylbenzimidazoles
INCHIKEY: IQPSEEYGBUAQFF-UHFFFAOYNA-N
SMILES: COC1=CC=NC(CS(=O)C2=NC3=C(N2)C=C(OC(F)F)C=C3)=C1OC
RETENTIONTIME: 
CCS: 182.6525873
IONMODE: Negative
INSTRUMENTTYPE: LC-ESI-ITFT
INSTRUMENT: 
COLLISIONENERGY: 35
Comment: registered in MassBank
Num Peaks: 1
229.99651	1000

NAME: Pantoprazole; LC-ESI-ITFT; MS2; CE
PRECURSORMZ: 382.067857
PRECURSORTYPE: [M-H]-
FORMULA: C16H15F2N3O4S
Ontology: Sulfinylbenzimidazoles
INCHIKEY: IQPSEEYGBUAQFF-UHFFFAOYNA-N
SMILES: COC1=CC=NC(CS(=O)C2=NC3=C(N2)C=C(OC(F)F)C=C3)=C1OC
RETENTIONTIME: 
CCS: 182.6525873
IONMODE: Negative
INSTRUMENTTYPE: LC-ESI-ITFT
INSTRUMENT: 
COLLISIONENERGY: 15
Comment: registered in MassBank
Num Peaks: 2
229.9966	1000
382.0683	101

NAME: Pantoprazole; LC-ESI-ITFT; MS2; CE
PRECURSORMZ: 382.067857
PRECURSORTYPE: [M-H]-
FORMULA: C16H15F2N3O4S
Ontology: Sulfinylbenzimidazoles
INCHIKEY: IQPSEEYGBUAQFF-UHFFFAOYNA-N
SMILES: COC1=CC=NC(CS(=O)C2=NC3=C(N2)C=C(OC(F)F)C=C3)=C1OC
RETENTIONTIME: 
CCS: 182.6525873
IONMODE: Negative
INSTRUMENTTYPE: LC-ESI-ITFT
INSTRUMENT: 
COLLISIONENERGY: 30
Comment: registered in MassBank
Num Peaks: 1
229.9966	1000

NAME: Pantoprazole; LC-ESI-ITFT; MS2; CE
PRECURSORMZ: 382.067857
PRECURSORTYPE: [M-H]-
FORMULA: C16H15F2N3O4S
Ontology: Sulfinylbenzimidazoles
INCHIKEY: IQPSEEYGBUAQFF-UHFFFAOYNA-N
SMILES: COC1=CC=NC(CS(=O)C2=NC3=C(N2)C=C(OC(F)F)C=C3)=C1OC
RETENTIONTIME: 
CCS: 182.6525873
IONMODE: Negative
INSTRUMENTTYPE: LC-ESI-ITFT
INSTRUMENT: 
COLLISIONENERGY: 45
Comment: registered in MassBank
Num Peaks: 4
161.0157	77
178.0183	19
209.9908	50
229.9966	1000

NAME: Pantoprazole; LC-ESI-ITFT; MS2; CE
PRECURSORMZ: 382.067857
PRECURSORTYPE: [M-H]-
FORMULA: C16H15F2N3O4S
Ontology: Sulfinylbenzimidazoles
INCHIKEY: IQPSEEYGBUAQFF-UHFFFAOYNA-N
SMILES: COC1=CC=NC(CS(=O)C2=NC3=C(N2)C=C(OC(F)F)C=C3)=C1OC
RETENTIONTIME: 
CCS: 182.6525873
IONMODE: Negative
INSTRUMENTTYPE: LC-ESI-ITFT
INSTRUMENT: 
COLLISIONENERGY: 60
Comment: registered in MassBank
Num Peaks: 7
115.0298	45
161.01579	1000
161.98981	172
178.0184	78
178.9913	105
209.9906	95
229.9967	549

NAME: Pantoprazole; LC-ESI-ITFT; MS2; CE
PRECURSORMZ: 382.067857
PRECURSORTYPE: [M-H]-
FORMULA: C16H15F2N3O4S
Ontology: Sulfinylbenzimidazoles
INCHIKEY: IQPSEEYGBUAQFF-UHFFFAOYNA-N
SMILES: COC1=CC=NC(CS(=O)C2=NC3=C(N2)C=C(OC(F)F)C=C3)=C1OC
RETENTIONTIME: 
CCS: 182.6525873
IONMODE: Negative
INSTRUMENTTYPE: LC-ESI-ITFT
INSTRUMENT: 
COLLISIONENERGY: 75
Comment: registered in MassBank
Num Peaks: 7
115.0305	75
141.0101	61
147.0199	147
161.0157	1000
161.9895	148
178.01849	59
229.9968	37

NAME: Pantoprazole; LC-ESI-ITFT; MS2; CE
PRECURSORMZ: 382.067857
PRECURSORTYPE: [M-H]-
FORMULA: C16H15F2N3O4S
Ontology: Sulfinylbenzimidazoles
INCHIKEY: IQPSEEYGBUAQFF-UHFFFAOYNA-N
SMILES: COC1=CC=NC(CS(=O)C2=NC3=C(N2)C=C(OC(F)F)C=C3)=C1OC
RETENTIONTIME: 
CCS: 182.6525873
IONMODE: Negative
INSTRUMENTTYPE: LC-ESI-ITFT
INSTRUMENT: 
COLLISIONENERGY: 90
Comment: registered in MassBank
Num Peaks: 6
113.0143	83
115.0303	85
141.00951	331
147.0202	232
161.0157	1000
161.9892	154

NAME: Pantoprazole; LC-ESI-ITFT; MS2; CE
PRECURSORMZ: 382.067857
PRECURSORTYPE: [M-H]-
FORMULA: C16H15F2N3O4S
Ontology: Sulfinylbenzimidazoles
INCHIKEY: IQPSEEYGBUAQFF-UHFFFAOYNA-N
SMILES: COC1=CC=NC(CS(=O)C2=NC3=C(N2)C=C(OC(F)F)C=C3)=C1OC
RETENTIONTIME: 
CCS: 182.6525873
IONMODE: Negative
INSTRUMENTTYPE: LC-ESI-ITFT
INSTRUMENT: 
COLLISIONENERGY: 15
Comment: registered in MassBank
Num Peaks: 2
229.99651	1000
382.0668	88

NAME: Pantoprazole; LC-ESI-ITFT; MS2; CE
PRECURSORMZ: 382.067857
PRECURSORTYPE: [M-H]-
FORMULA: C16H15F2N3O4S
Ontology: Sulfinylbenzimidazoles
INCHIKEY: IQPSEEYGBUAQFF-UHFFFAOYNA-N
SMILES: COC1=CC=NC(CS(=O)C2=NC3=C(N2)C=C(OC(F)F)C=C3)=C1OC
RETENTIONTIME: 
CCS: 182.6525873
IONMODE: Negative
INSTRUMENTTYPE: LC-ESI-ITFT
INSTRUMENT: 
COLLISIONENERGY: 30
Comment: registered in MassBank
Num Peaks: 1
229.9966	1000

NAME: Pantoprazole; LC-ESI-ITFT; MS2; CE
PRECURSORMZ: 382.067857
PRECURSORTYPE: [M-H]-
FORMULA: C16H15F2N3O4S
Ontology: Sulfinylbenzimidazoles
INCHIKEY: IQPSEEYGBUAQFF-UHFFFAOYNA-N
SMILES: COC1=CC=NC(CS(=O)C2=NC3=C(N2)C=C(OC(F)F)C=C3)=C1OC
RETENTIONTIME: 
CCS: 182.6525873
IONMODE: Negative
INSTRUMENTTYPE: LC-ESI-ITFT
INSTRUMENT: 
COLLISIONENERGY: 45
Comment: registered in MassBank
Num Peaks: 4
161.01559	46
162.0231	15
209.99071	41
229.99651	1000

NAME: Pantoprazole; LC-ESI-ITFT; MS2; CE
PRECURSORMZ: 382.067857
PRECURSORTYPE: [M-H]-
FORMULA: C16H15F2N3O4S
Ontology: Sulfinylbenzimidazoles
INCHIKEY: IQPSEEYGBUAQFF-UHFFFAOYNA-N
SMILES: COC1=CC=NC(CS(=O)C2=NC3=C(N2)C=C(OC(F)F)C=C3)=C1OC
RETENTIONTIME: 
CCS: 182.6525873
IONMODE: Negative
INSTRUMENTTYPE: LC-ESI-ITFT
INSTRUMENT: 
COLLISIONENERGY: 60
Comment: registered in MassBank
Num Peaks: 8
115.0301	59
161.01559	1000
161.9893	136
162.02319	150
178.01849	79
178.99139	82
209.98959	191
229.99651	712

NAME: Pantoprazole; LC-ESI-ITFT; MS2; CE
PRECURSORMZ: 382.067857
PRECURSORTYPE: [M-H]-
FORMULA: C16H15F2N3O4S
Ontology: Sulfinylbenzimidazoles
INCHIKEY: IQPSEEYGBUAQFF-UHFFFAOYNA-N
SMILES: COC1=CC=NC(CS(=O)C2=NC3=C(N2)C=C(OC(F)F)C=C3)=C1OC
RETENTIONTIME: 
CCS: 182.6525873
IONMODE: Negative
INSTRUMENTTYPE: LC-ESI-ITFT
INSTRUMENT: 
COLLISIONENERGY: 75
Comment: registered in MassBank
Num Peaks: 6
115.0302	50
147.02029	154
161.0157	1000
161.9892	151
178.99229	85
229.99609	50

NAME: Pantoprazole; LC-ESI-ITFT; MS2; CE
PRECURSORMZ: 382.067857
PRECURSORTYPE: [M-H]-
FORMULA: C16H15F2N3O4S
Ontology: Sulfinylbenzimidazoles
INCHIKEY: IQPSEEYGBUAQFF-UHFFFAOYNA-N
SMILES: COC1=CC=NC(CS(=O)C2=NC3=C(N2)C=C(OC(F)F)C=C3)=C1OC
RETENTIONTIME: 
CCS: 182.6525873
IONMODE: Negative
INSTRUMENTTYPE: LC-ESI-ITFT
INSTRUMENT: 
COLLISIONENERGY: 90
Comment: registered in MassBank
Num Peaks: 5
113.0143	128
141.00929	332
147.0201	161
161.0157	1000
161.9893	270

NAME: Pantoprazole; LC-ESI-ITFT; MS2; CE
PRECURSORMZ: 382.067857
PRECURSORTYPE: [M-H]-
FORMULA: C16H15F2N3O4S
Ontology: Sulfinylbenzimidazoles
INCHIKEY: IQPSEEYGBUAQFF-UHFFFAOYNA-N
SMILES: COC1=CC=NC(CS(=O)C2=NC3=C(N2)C=C(OC(F)F)C=C3)=C1OC
RETENTIONTIME: 
CCS: 182.6525873
IONMODE: Negative
INSTRUMENTTYPE: LC-ESI-ITFT
INSTRUMENT: 
COLLISIONENERGY: 35
Comment: registered in MassBank
Num Peaks: 1
229.99631	1000

NAME: Sulfanilic acid; LC-ESI-ITFT; MS2; CE
PRECURSORMZ: 172.007387
PRECURSORTYPE: [M-H]-
FORMULA: C6H7NO3S
Ontology: Benzenesulfonic acids and derivatives
INCHIKEY: HVBSAKJJOYLTQU-UHFFFAOYSA-N
SMILES: NC1=CC=C(C=C1)S(O)(=O)=O
RETENTIONTIME: 
CCS: 130.3572327
IONMODE: Negative
INSTRUMENTTYPE: LC-ESI-ITFT
INSTRUMENT: 
COLLISIONENERGY: 35
Comment: registered in MassBank
Num Peaks: 3
79.9573	193
108.0454	704
172.00729	1000

NAME: Sulfanilic acid; LC-ESI-ITFT; MS2; CE
PRECURSORMZ: 172.007387
PRECURSORTYPE: [M-H]-
FORMULA: C6H7NO3S
Ontology: Benzenesulfonic acids and derivatives
INCHIKEY: HVBSAKJJOYLTQU-UHFFFAOYSA-N
SMILES: NC1=CC=C(C=C1)S(O)(=O)=O
RETENTIONTIME: 
CCS: 130.3572327
IONMODE: Negative
INSTRUMENTTYPE: LC-ESI-ITFT
INSTRUMENT: 
COLLISIONENERGY: 45
Comment: registered in MassBank
Num Peaks: 3
79.957	23
108.045	25
172.0071	1000

NAME: Sulfanilic acid; LC-ESI-ITFT; MS2; CE
PRECURSORMZ: 172.007387
PRECURSORTYPE: [M-H]-
FORMULA: C6H7NO3S
Ontology: Benzenesulfonic acids and derivatives
INCHIKEY: HVBSAKJJOYLTQU-UHFFFAOYSA-N
SMILES: NC1=CC=C(C=C1)S(O)(=O)=O
RETENTIONTIME: 
CCS: 130.3572327
IONMODE: Negative
INSTRUMENTTYPE: LC-ESI-ITFT
INSTRUMENT: 
COLLISIONENERGY: 60
Comment: registered in MassBank
Num Peaks: 3
79.9573	214
108.0453	124
172.007	1000

NAME: Sulfanilic acid; LC-ESI-ITFT; MS2; CE
PRECURSORMZ: 172.007387
PRECURSORTYPE: [M-H]-
FORMULA: C6H7NO3S
Ontology: Benzenesulfonic acids and derivatives
INCHIKEY: HVBSAKJJOYLTQU-UHFFFAOYSA-N
SMILES: NC1=CC=C(C=C1)S(O)(=O)=O
RETENTIONTIME: 
CCS: 130.3572327
IONMODE: Negative
INSTRUMENTTYPE: LC-ESI-ITFT
INSTRUMENT: 
COLLISIONENERGY: 75
Comment: registered in MassBank
Num Peaks: 4
79.9572	867
107.0374	32
108.0453	274
172.0071	1000

NAME: Sulfanilic acid; LC-ESI-ITFT; MS2; CE
PRECURSORMZ: 172.007387
PRECURSORTYPE: [M-H]-
FORMULA: C6H7NO3S
Ontology: Benzenesulfonic acids and derivatives
INCHIKEY: HVBSAKJJOYLTQU-UHFFFAOYSA-N
SMILES: NC1=CC=C(C=C1)S(O)(=O)=O
RETENTIONTIME: 
CCS: 130.3572327
IONMODE: Negative
INSTRUMENTTYPE: LC-ESI-ITFT
INSTRUMENT: 
COLLISIONENERGY: 90
Comment: registered in MassBank
Num Peaks: 4
79.9574	1000
107.0377	68
108.0453	96
172.0072	204

NAME: Sulfanilic acid; LC-ESI-ITFT; MS2; CE
PRECURSORMZ: 172.007387
PRECURSORTYPE: [M-H]-
FORMULA: C6H7NO3S
Ontology: Benzenesulfonic acids and derivatives
INCHIKEY: HVBSAKJJOYLTQU-UHFFFAOYSA-N
SMILES: NC1=CC=C(C=C1)S(O)(=O)=O
RETENTIONTIME: 
CCS: 130.3572327
IONMODE: Negative
INSTRUMENTTYPE: LC-ESI-ITFT
INSTRUMENT: 
COLLISIONENERGY: 45
Comment: registered in MassBank
Num Peaks: 3
79.9573	23
108.0453	31
172.00729	1000

NAME: Sulfanilic acid; LC-ESI-ITFT; MS2; CE
PRECURSORMZ: 172.007387
PRECURSORTYPE: [M-H]-
FORMULA: C6H7NO3S
Ontology: Benzenesulfonic acids and derivatives
INCHIKEY: HVBSAKJJOYLTQU-UHFFFAOYSA-N
SMILES: NC1=CC=C(C=C1)S(O)(=O)=O
RETENTIONTIME: 
CCS: 130.3572327
IONMODE: Negative
INSTRUMENTTYPE: LC-ESI-ITFT
INSTRUMENT: 
COLLISIONENERGY: 60
Comment: registered in MassBank
Num Peaks: 3
79.9573	194
108.0453	96
172.0071	1000

NAME: Sulfanilic acid; LC-ESI-ITFT; MS2; CE
PRECURSORMZ: 172.007387
PRECURSORTYPE: [M-H]-
FORMULA: C6H7NO3S
Ontology: Benzenesulfonic acids and derivatives
INCHIKEY: HVBSAKJJOYLTQU-UHFFFAOYSA-N
SMILES: NC1=CC=C(C=C1)S(O)(=O)=O
RETENTIONTIME: 
CCS: 130.3572327
IONMODE: Negative
INSTRUMENTTYPE: LC-ESI-ITFT
INSTRUMENT: 
COLLISIONENERGY: 75
Comment: registered in MassBank
Num Peaks: 4
79.9574	916
107.0375	37
108.0454	254
172.0072	1000

NAME: Sulfanilic acid; LC-ESI-ITFT; MS2; CE
PRECURSORMZ: 172.007387
PRECURSORTYPE: [M-H]-
FORMULA: C6H7NO3S
Ontology: Benzenesulfonic acids and derivatives
INCHIKEY: HVBSAKJJOYLTQU-UHFFFAOYSA-N
SMILES: NC1=CC=C(C=C1)S(O)(=O)=O
RETENTIONTIME: 
CCS: 130.3572327
IONMODE: Negative
INSTRUMENTTYPE: LC-ESI-ITFT
INSTRUMENT: 
COLLISIONENERGY: 90
Comment: registered in MassBank
Num Peaks: 4
79.9574	1000
107.0376	48
108.0454	112
172.00771	267

NAME: 2-Naphthalenesulfonic acid; LC-ESI-ITFT; MS2; CE
PRECURSORMZ: 207.012138
PRECURSORTYPE: [M-H]-
FORMULA: C10H8O3S
Ontology: 2-naphthalene sulfonates
INCHIKEY: KVBGVZZKJNLNJU-UHFFFAOYSA-N
SMILES: OS(=O)(=O)C1=CC2=CC=CC=C2C=C1
RETENTIONTIME: 
CCS: 139.7144932
IONMODE: Negative
INSTRUMENTTYPE: LC-ESI-ITFT
INSTRUMENT: 
COLLISIONENERGY: 35
Comment: registered in MassBank
Num Peaks: 3
79.9575	12
143.0504	1000
207.01199	396

NAME: 2-Naphthalenesulfonic acid; LC-ESI-ITFT; MS2; CE
PRECURSORMZ: 207.012138
PRECURSORTYPE: [M-H]-
FORMULA: C10H8O3S
Ontology: 2-naphthalene sulfonates
INCHIKEY: KVBGVZZKJNLNJU-UHFFFAOYSA-N
SMILES: OS(=O)(=O)C1=CC2=CC=CC=C2C=C1
RETENTIONTIME: 
CCS: 139.7144932
IONMODE: Negative
INSTRUMENTTYPE: LC-ESI-ITFT
INSTRUMENT: 
COLLISIONENERGY: 45
Comment: registered in MassBank
Num Peaks: 3
79.9572	13
143.05029	121
207.01199	1000

NAME: 2-Naphthalenesulfonic acid; LC-ESI-ITFT; MS2; CE
PRECURSORMZ: 207.012138
PRECURSORTYPE: [M-H]-
FORMULA: C10H8O3S
Ontology: 2-naphthalene sulfonates
INCHIKEY: KVBGVZZKJNLNJU-UHFFFAOYSA-N
SMILES: OS(=O)(=O)C1=CC2=CC=CC=C2C=C1
RETENTIONTIME: 
CCS: 139.7144932
IONMODE: Negative
INSTRUMENTTYPE: LC-ESI-ITFT
INSTRUMENT: 
COLLISIONENERGY: 60
Comment: registered in MassBank
Num Peaks: 3
79.9573	204
143.05	889
207.0116	1000

NAME: 2-Naphthalenesulfonic acid; LC-ESI-ITFT; MS2; CE
PRECURSORMZ: 207.012138
PRECURSORTYPE: [M-H]-
FORMULA: C10H8O3S
Ontology: 2-naphthalene sulfonates
INCHIKEY: KVBGVZZKJNLNJU-UHFFFAOYSA-N
SMILES: OS(=O)(=O)C1=CC2=CC=CC=C2C=C1
RETENTIONTIME: 
CCS: 139.7144932
IONMODE: Negative
INSTRUMENTTYPE: LC-ESI-ITFT
INSTRUMENT: 
COLLISIONENERGY: 75
Comment: registered in MassBank
Num Peaks: 4
79.9574	353
115.0553	25
143.05029	1000
207.01221	285

NAME: 2-Naphthalenesulfonic acid; LC-ESI-ITFT; MS2; CE
PRECURSORMZ: 207.012138
PRECURSORTYPE: [M-H]-
FORMULA: C10H8O3S
Ontology: 2-naphthalene sulfonates
INCHIKEY: KVBGVZZKJNLNJU-UHFFFAOYSA-N
SMILES: OS(=O)(=O)C1=CC2=CC=CC=C2C=C1
RETENTIONTIME: 
CCS: 139.7144932
IONMODE: Negative
INSTRUMENTTYPE: LC-ESI-ITFT
INSTRUMENT: 
COLLISIONENERGY: 90
Comment: registered in MassBank
Num Peaks: 3
79.9573	681
115.0558	121
143.05009	1000

NAME: 2-Naphthalenesulfonic acid; LC-ESI-ITFT; MS2; CE
PRECURSORMZ: 207.012138
PRECURSORTYPE: [M-H]-
FORMULA: C10H8O3S
Ontology: 2-naphthalene sulfonates
INCHIKEY: KVBGVZZKJNLNJU-UHFFFAOYSA-N
SMILES: OS(=O)(=O)C1=CC2=CC=CC=C2C=C1
RETENTIONTIME: 
CCS: 139.7144932
IONMODE: Negative
INSTRUMENTTYPE: LC-ESI-ITFT
INSTRUMENT: 
COLLISIONENERGY: 45
Comment: registered in MassBank
Num Peaks: 3
79.9575	7
143.0502	117
207.01221	1000

NAME: 2-Naphthalenesulfonic acid; LC-ESI-ITFT; MS2; CE
PRECURSORMZ: 207.012138
PRECURSORTYPE: [M-H]-
FORMULA: C10H8O3S
Ontology: 2-naphthalene sulfonates
INCHIKEY: KVBGVZZKJNLNJU-UHFFFAOYSA-N
SMILES: OS(=O)(=O)C1=CC2=CC=CC=C2C=C1
RETENTIONTIME: 
CCS: 139.7144932
IONMODE: Negative
INSTRUMENTTYPE: LC-ESI-ITFT
INSTRUMENT: 
COLLISIONENERGY: 60
Comment: registered in MassBank
Num Peaks: 3
79.9574	150
143.0502	751
207.0121	1000

NAME: 2-Naphthalenesulfonic acid; LC-ESI-ITFT; MS2; CE
PRECURSORMZ: 207.012138
PRECURSORTYPE: [M-H]-
FORMULA: C10H8O3S
Ontology: 2-naphthalene sulfonates
INCHIKEY: KVBGVZZKJNLNJU-UHFFFAOYSA-N
SMILES: OS(=O)(=O)C1=CC2=CC=CC=C2C=C1
RETENTIONTIME: 
CCS: 139.7144932
IONMODE: Negative
INSTRUMENTTYPE: LC-ESI-ITFT
INSTRUMENT: 
COLLISIONENERGY: 75
Comment: registered in MassBank
Num Peaks: 3
79.9574	389
143.05009	1000
207.0116	266

NAME: 2-Naphthalenesulfonic acid; LC-ESI-ITFT; MS2; CE
PRECURSORMZ: 207.012138
PRECURSORTYPE: [M-H]-
FORMULA: C10H8O3S
Ontology: 2-naphthalene sulfonates
INCHIKEY: KVBGVZZKJNLNJU-UHFFFAOYSA-N
SMILES: OS(=O)(=O)C1=CC2=CC=CC=C2C=C1
RETENTIONTIME: 
CCS: 139.7144932
IONMODE: Negative
INSTRUMENTTYPE: LC-ESI-ITFT
INSTRUMENT: 
COLLISIONENERGY: 90
Comment: registered in MassBank
Num Peaks: 4
79.9573	666
115.0553	144
143.0502	1000
207.01131	85

NAME: 2,7-Naphthalenedisulfonic acid; LC-ESI-ITFT; MS2; CE
PRECURSORMZ: 286.968953
PRECURSORTYPE: [M-H]-
FORMULA: C10H8O6S2
Ontology: 2-naphthalene sulfonates
INCHIKEY: VILFVXYKHXVYAB-UHFFFAOYSA-N
SMILES: OS(=O)(=O)C1=CC2=CC(=CC=C2C=C1)S(O)(=O)=O
RETENTIONTIME: 
CCS: 170.5519103
IONMODE: Negative
INSTRUMENTTYPE: LC-ESI-ITFT
INSTRUMENT: 
COLLISIONENERGY: 35
Comment: registered in MassBank
Num Peaks: 1
207.01199	1000

NAME: 2,7-Naphthalenedisulfonic acid; LC-ESI-ITFT; MS2; CE
PRECURSORMZ: 286.968953
PRECURSORTYPE: [M-H]-
FORMULA: C10H8O6S2
Ontology: 2-naphthalene sulfonates
INCHIKEY: VILFVXYKHXVYAB-UHFFFAOYSA-N
SMILES: OS(=O)(=O)C1=CC2=CC(=CC=C2C=C1)S(O)(=O)=O
RETENTIONTIME: 
CCS: 170.5519103
IONMODE: Negative
INSTRUMENTTYPE: LC-ESI-ITFT
INSTRUMENT: 
COLLISIONENERGY: 60
Comment: registered in MassBank
Num Peaks: 1
207.0118	1000

NAME: Oseltamivir carboxylate; LC-ESI-ITFT; MS2; CE
PRECURSORMZ: 283.166331
PRECURSORTYPE: [M-H]-
FORMULA: C14H24N2O4
Ontology: Gamma amino acids and derivatives
INCHIKEY: NENPYTRHICXVCS-YNEHKIRRSA-N
SMILES: CCC(CC)O[C@@H]1C=C(C[C@H](N)[C@H]1N=C(C)O)C(O)=O
RETENTIONTIME: 
CCS: 179.1438936
IONMODE: Negative
INSTRUMENTTYPE: LC-ESI-ITFT
INSTRUMENT: 
COLLISIONENERGY: 35
Comment: registered in MassBank
Num Peaks: 10
92.0506	126
134.061	36
136.0406	446
137.02431	54
149.0721	125
151.0878	792
178.05099	65
195.0778	1000
207.1026	147
224.1293	604

NAME: Oseltamivir carboxylate; LC-ESI-ITFT; MS2; CE
PRECURSORMZ: 283.166331
PRECURSORTYPE: [M-H]-
FORMULA: C14H24N2O4
Ontology: Gamma amino acids and derivatives
INCHIKEY: NENPYTRHICXVCS-YNEHKIRRSA-N
SMILES: CCC(CC)O[C@@H]1C=C(C[C@H](N)[C@H]1N=C(C)O)C(O)=O
RETENTIONTIME: 
CCS: 179.1438936
IONMODE: Negative
INSTRUMENTTYPE: LC-ESI-ITFT
INSTRUMENT: 
COLLISIONENERGY: 15
Comment: registered in MassBank
Num Peaks: 6
136.04041	103
151.0882	127
195.0777	442
207.1024	62
224.1295	269
283.16629	1000

NAME: Oseltamivir carboxylate; LC-ESI-ITFT; MS2; CE
PRECURSORMZ: 283.166331
PRECURSORTYPE: [M-H]-
FORMULA: C14H24N2O4
Ontology: Gamma amino acids and derivatives
INCHIKEY: NENPYTRHICXVCS-YNEHKIRRSA-N
SMILES: CCC(CC)O[C@@H]1C=C(C[C@H](N)[C@H]1N=C(C)O)C(O)=O
RETENTIONTIME: 
CCS: 179.1438936
IONMODE: Negative
INSTRUMENTTYPE: LC-ESI-ITFT
INSTRUMENT: 
COLLISIONENERGY: 30
Comment: registered in MassBank
Num Peaks: 8
92.0505	305
136.04041	1000
137.0248	126
151.0876	933
195.07739	953
207.1031	474
224.12891	319
283.16739	381

NAME: Oseltamivir carboxylate; LC-ESI-ITFT; MS2; CE
PRECURSORMZ: 283.166331
PRECURSORTYPE: [M-H]-
FORMULA: C14H24N2O4
Ontology: Gamma amino acids and derivatives
INCHIKEY: NENPYTRHICXVCS-YNEHKIRRSA-N
SMILES: CCC(CC)O[C@@H]1C=C(C[C@H](N)[C@H]1N=C(C)O)C(O)=O
RETENTIONTIME: 
CCS: 179.1438936
IONMODE: Negative
INSTRUMENTTYPE: LC-ESI-ITFT
INSTRUMENT: 
COLLISIONENERGY: 45
Comment: registered in MassBank
Num Peaks: 4
92.0503	763
134.0612	308
136.0403	1000
151.08749	387

NAME: Oseltamivir carboxylate; LC-ESI-ITFT; MS2; CE
PRECURSORMZ: 283.166331
PRECURSORTYPE: [M-H]-
FORMULA: C14H24N2O4
Ontology: Gamma amino acids and derivatives
INCHIKEY: NENPYTRHICXVCS-YNEHKIRRSA-N
SMILES: CCC(CC)O[C@@H]1C=C(C[C@H](N)[C@H]1N=C(C)O)C(O)=O
RETENTIONTIME: 
CCS: 179.1438936
IONMODE: Negative
INSTRUMENTTYPE: LC-ESI-ITFT
INSTRUMENT: 
COLLISIONENERGY: 60
Comment: registered in MassBank
Num Peaks: 1
92.0502	1000

NAME: Oseltamivir carboxylate; LC-ESI-ITFT; MS2; CE
PRECURSORMZ: 283.166331
PRECURSORTYPE: [M-H]-
FORMULA: C14H24N2O4
Ontology: Gamma amino acids and derivatives
INCHIKEY: NENPYTRHICXVCS-YNEHKIRRSA-N
SMILES: CCC(CC)O[C@@H]1C=C(C[C@H](N)[C@H]1N=C(C)O)C(O)=O
RETENTIONTIME: 
CCS: 179.1438936
IONMODE: Negative
INSTRUMENTTYPE: LC-ESI-ITFT
INSTRUMENT: 
COLLISIONENERGY: 75
Comment: registered in MassBank
Num Peaks: 2
92.0507	1000
151.0882	531

NAME: Oseltamivir carboxylate; LC-ESI-ITFT; MS2; CE
PRECURSORMZ: 283.166331
PRECURSORTYPE: [M-H]-
FORMULA: C14H24N2O4
Ontology: Gamma amino acids and derivatives
INCHIKEY: NENPYTRHICXVCS-YNEHKIRRSA-N
SMILES: CCC(CC)O[C@@H]1C=C(C[C@H](N)[C@H]1N=C(C)O)C(O)=O
RETENTIONTIME: 
CCS: 179.1438936
IONMODE: Negative
INSTRUMENTTYPE: LC-ESI-ITFT
INSTRUMENT: 
COLLISIONENERGY: 90
Comment: registered in MassBank
Num Peaks: 1
195.07761	1000

NAME: Oseltamivir carboxylate; LC-ESI-ITFT; MS2; CE
PRECURSORMZ: 283.166331
PRECURSORTYPE: [M-H]-
FORMULA: C14H24N2O4
Ontology: Gamma amino acids and derivatives
INCHIKEY: NENPYTRHICXVCS-YNEHKIRRSA-N
SMILES: CCC(CC)O[C@@H]1C=C(C[C@H](N)[C@H]1N=C(C)O)C(O)=O
RETENTIONTIME: 
CCS: 179.1438936
IONMODE: Negative
INSTRUMENTTYPE: LC-ESI-ITFT
INSTRUMENT: 
COLLISIONENERGY: 15
Comment: registered in MassBank
Num Peaks: 6
136.0407	90
149.07201	41
195.07739	385
207.10229	49
224.1291	197
283.1658	1000

NAME: Oseltamivir carboxylate; LC-ESI-ITFT; MS2; CE
PRECURSORMZ: 283.166331
PRECURSORTYPE: [M-H]-
FORMULA: C14H24N2O4
Ontology: Gamma amino acids and derivatives
INCHIKEY: NENPYTRHICXVCS-YNEHKIRRSA-N
SMILES: CCC(CC)O[C@@H]1C=C(C[C@H](N)[C@H]1N=C(C)O)C(O)=O
RETENTIONTIME: 
CCS: 179.1438936
IONMODE: Negative
INSTRUMENTTYPE: LC-ESI-ITFT
INSTRUMENT: 
COLLISIONENERGY: 30
Comment: registered in MassBank
Num Peaks: 8
92.0505	234
136.0405	852
137.0246	121
151.08771	709
178.0504	99
195.0777	1000
207.10271	265
224.12939	222

NAME: Oseltamivir carboxylate; LC-ESI-ITFT; MS2; CE
PRECURSORMZ: 283.166331
PRECURSORTYPE: [M-H]-
FORMULA: C14H24N2O4
Ontology: Gamma amino acids and derivatives
INCHIKEY: NENPYTRHICXVCS-YNEHKIRRSA-N
SMILES: CCC(CC)O[C@@H]1C=C(C[C@H](N)[C@H]1N=C(C)O)C(O)=O
RETENTIONTIME: 
CCS: 179.1438936
IONMODE: Negative
INSTRUMENTTYPE: LC-ESI-ITFT
INSTRUMENT: 
COLLISIONENERGY: 45
Comment: registered in MassBank
Num Peaks: 6
92.0505	935
134.0611	592
136.04041	1000
178.0507	218
195.07809	326
207.1026	388

NAME: Oseltamivir carboxylate; LC-ESI-ITFT; MS2; CE
PRECURSORMZ: 283.166331
PRECURSORTYPE: [M-H]-
FORMULA: C14H24N2O4
Ontology: Gamma amino acids and derivatives
INCHIKEY: NENPYTRHICXVCS-YNEHKIRRSA-N
SMILES: CCC(CC)O[C@@H]1C=C(C[C@H](N)[C@H]1N=C(C)O)C(O)=O
RETENTIONTIME: 
CCS: 179.1438936
IONMODE: Negative
INSTRUMENTTYPE: LC-ESI-ITFT
INSTRUMENT: 
COLLISIONENERGY: 60
Comment: registered in MassBank
Num Peaks: 3
92.0506	1000
136.04041	268
151.0881	266

NAME: Oseltamivir carboxylate; LC-ESI-ITFT; MS2; CE
PRECURSORMZ: 283.166331
PRECURSORTYPE: [M-H]-
FORMULA: C14H24N2O4
Ontology: Gamma amino acids and derivatives
INCHIKEY: NENPYTRHICXVCS-YNEHKIRRSA-N
SMILES: CCC(CC)O[C@@H]1C=C(C[C@H](N)[C@H]1N=C(C)O)C(O)=O
RETENTIONTIME: 
CCS: 179.1438936
IONMODE: Negative
INSTRUMENTTYPE: LC-ESI-ITFT
INSTRUMENT: 
COLLISIONENERGY: 75
Comment: registered in MassBank
Num Peaks: 3
92.0505	1000
134.06059	233
195.07719	214

NAME: Oseltamivir carboxylate; LC-ESI-ITFT; MS2; CE
PRECURSORMZ: 283.166331
PRECURSORTYPE: [M-H]-
FORMULA: C14H24N2O4
Ontology: Gamma amino acids and derivatives
INCHIKEY: NENPYTRHICXVCS-YNEHKIRRSA-N
SMILES: CCC(CC)O[C@@H]1C=C(C[C@H](N)[C@H]1N=C(C)O)C(O)=O
RETENTIONTIME: 
CCS: 179.1438936
IONMODE: Negative
INSTRUMENTTYPE: LC-ESI-ITFT
INSTRUMENT: 
COLLISIONENERGY: 90
Comment: registered in MassBank
Num Peaks: 2
92.0506	1000
195.0779	337

NAME: Flufenacet ESA; LC-ESI-ITFT; MS2; CE
PRECURSORMZ: 274.05548
PRECURSORTYPE: [M-H]-
FORMULA: C11H14FNO4S
Ontology: Anilides
INCHIKEY: SZCMHDLOUVZYST-UHFFFAOYSA-N
SMILES: CC(C)N(C(=O)CS(O)(=O)=O)C1=CC=C(F)C=C1
RETENTIONTIME: 
CCS: -1
IONMODE: Negative
INSTRUMENTTYPE: LC-ESI-ITFT
INSTRUMENT: 
COLLISIONENERGY: 35
Comment: registered in MassBank
Num Peaks: 9
76.9704	11
79.9575	13
111.0256	13
119.9763	18
120.9604	1000
152.08839	91
162.02341	27
210.0939	37
232.0089	155

NAME: Flufenacet ESA; LC-ESI-ITFT; MS2; CE
PRECURSORMZ: 274.05548
PRECURSORTYPE: [M-H]-
FORMULA: C11H14FNO4S
Ontology: Anilides
INCHIKEY: SZCMHDLOUVZYST-UHFFFAOYSA-N
SMILES: CC(C)N(C(=O)CS(O)(=O)=O)C1=CC=C(F)C=C1
RETENTIONTIME: 
CCS: -1
IONMODE: Negative
INSTRUMENTTYPE: LC-ESI-ITFT
INSTRUMENT: 
COLLISIONENERGY: 30
Comment: registered in MassBank
Num Peaks: 2
120.9603	63
274.05569	1000

NAME: Flufenacet ESA; LC-ESI-ITFT; MS2; CE
PRECURSORMZ: 274.05548
PRECURSORTYPE: [M-H]-
FORMULA: C11H14FNO4S
Ontology: Anilides
INCHIKEY: SZCMHDLOUVZYST-UHFFFAOYSA-N
SMILES: CC(C)N(C(=O)CS(O)(=O)=O)C1=CC=C(F)C=C1
RETENTIONTIME: 
CCS: -1
IONMODE: Negative
INSTRUMENTTYPE: LC-ESI-ITFT
INSTRUMENT: 
COLLISIONENERGY: 45
Comment: registered in MassBank
Num Peaks: 8
76.9703	284
79.9574	846
111.025	39
120.9603	1000
152.0883	129
168.04739	35
232.00819	72
274.05591	742

NAME: Flufenacet ESA; LC-ESI-ITFT; MS2; CE
PRECURSORMZ: 274.05548
PRECURSORTYPE: [M-H]-
FORMULA: C11H14FNO4S
Ontology: Anilides
INCHIKEY: SZCMHDLOUVZYST-UHFFFAOYSA-N
SMILES: CC(C)N(C(=O)CS(O)(=O)=O)C1=CC=C(F)C=C1
RETENTIONTIME: 
CCS: -1
IONMODE: Negative
INSTRUMENTTYPE: LC-ESI-ITFT
INSTRUMENT: 
COLLISIONENERGY: 60
Comment: registered in MassBank
Num Peaks: 5
76.9704	315
79.9575	1000
120.9604	372
152.08881	109
274.05621	55

NAME: Flufenacet ESA; LC-ESI-ITFT; MS2; CE
PRECURSORMZ: 274.05548
PRECURSORTYPE: [M-H]-
FORMULA: C11H14FNO4S
Ontology: Anilides
INCHIKEY: SZCMHDLOUVZYST-UHFFFAOYSA-N
SMILES: CC(C)N(C(=O)CS(O)(=O)=O)C1=CC=C(F)C=C1
RETENTIONTIME: 
CCS: -1
IONMODE: Negative
INSTRUMENTTYPE: LC-ESI-ITFT
INSTRUMENT: 
COLLISIONENERGY: 75
Comment: registered in MassBank
Num Peaks: 6
76.9703	296
79.9574	1000
93.9732	20
111.0254	19
120.9602	142
136.05701	54

NAME: Flufenacet ESA; LC-ESI-ITFT; MS2; CE
PRECURSORMZ: 274.05548
PRECURSORTYPE: [M-H]-
FORMULA: C11H14FNO4S
Ontology: Anilides
INCHIKEY: SZCMHDLOUVZYST-UHFFFAOYSA-N
SMILES: CC(C)N(C(=O)CS(O)(=O)=O)C1=CC=C(F)C=C1
RETENTIONTIME: 
CCS: -1
IONMODE: Negative
INSTRUMENTTYPE: LC-ESI-ITFT
INSTRUMENT: 
COLLISIONENERGY: 90
Comment: registered in MassBank
Num Peaks: 2
76.9704	192
79.9574	1000

NAME: Flufenacet ESA; LC-ESI-ITFT; MS2; CE
PRECURSORMZ: 274.05548
PRECURSORTYPE: [M-H]-
FORMULA: C11H14FNO4S
Ontology: Anilides
INCHIKEY: SZCMHDLOUVZYST-UHFFFAOYSA-N
SMILES: CC(C)N(C(=O)CS(O)(=O)=O)C1=CC=C(F)C=C1
RETENTIONTIME: 
CCS: -1
IONMODE: Negative
INSTRUMENTTYPE: LC-ESI-ITFT
INSTRUMENT: 
COLLISIONENERGY: 30
Comment: registered in MassBank
Num Peaks: 6
76.9702	11
79.9573	15
120.96	62
152.0876	6
232.0087	6
274.05569	1000

NAME: Flufenacet ESA; LC-ESI-ITFT; MS2; CE
PRECURSORMZ: 274.05548
PRECURSORTYPE: [M-H]-
FORMULA: C11H14FNO4S
Ontology: Anilides
INCHIKEY: SZCMHDLOUVZYST-UHFFFAOYSA-N
SMILES: CC(C)N(C(=O)CS(O)(=O)=O)C1=CC=C(F)C=C1
RETENTIONTIME: 
CCS: -1
IONMODE: Negative
INSTRUMENTTYPE: LC-ESI-ITFT
INSTRUMENT: 
COLLISIONENERGY: 45
Comment: registered in MassBank
Num Peaks: 7
76.9703	277
79.9574	952
111.0254	43
120.9603	1000
152.0881	165
232.0085	55
274.0556	705

NAME: Flufenacet ESA; LC-ESI-ITFT; MS2; CE
PRECURSORMZ: 274.05548
PRECURSORTYPE: [M-H]-
FORMULA: C11H14FNO4S
Ontology: Anilides
INCHIKEY: SZCMHDLOUVZYST-UHFFFAOYSA-N
SMILES: CC(C)N(C(=O)CS(O)(=O)=O)C1=CC=C(F)C=C1
RETENTIONTIME: 
CCS: -1
IONMODE: Negative
INSTRUMENTTYPE: LC-ESI-ITFT
INSTRUMENT: 
COLLISIONENERGY: 60
Comment: registered in MassBank
Num Peaks: 8
76.9703	246
79.9574	1000
93.973	12
111.0249	27
120.9602	347
136.0567	27
152.0883	70
274.0567	17

NAME: Flufenacet ESA; LC-ESI-ITFT; MS2; CE
PRECURSORMZ: 274.05548
PRECURSORTYPE: [M-H]-
FORMULA: C11H14FNO4S
Ontology: Anilides
INCHIKEY: SZCMHDLOUVZYST-UHFFFAOYSA-N
SMILES: CC(C)N(C(=O)CS(O)(=O)=O)C1=CC=C(F)C=C1
RETENTIONTIME: 
CCS: -1
IONMODE: Negative
INSTRUMENTTYPE: LC-ESI-ITFT
INSTRUMENT: 
COLLISIONENERGY: 75
Comment: registered in MassBank
Num Peaks: 7
76.9703	240
79.9574	1000
93.9728	18
111.0251	20
120.96	113
136.0571	46
152.0881	20

NAME: Flufenacet ESA; LC-ESI-ITFT; MS2; CE
PRECURSORMZ: 274.05548
PRECURSORTYPE: [M-H]-
FORMULA: C11H14FNO4S
Ontology: Anilides
INCHIKEY: SZCMHDLOUVZYST-UHFFFAOYSA-N
SMILES: CC(C)N(C(=O)CS(O)(=O)=O)C1=CC=C(F)C=C1
RETENTIONTIME: 
CCS: -1
IONMODE: Negative
INSTRUMENTTYPE: LC-ESI-ITFT
INSTRUMENT: 
COLLISIONENERGY: 90
Comment: registered in MassBank
Num Peaks: 6
76.9704	119
79.9574	1000
93.9729	14
120.9601	13
136.0563	19
274.0553	12

NAME: Flufenacet ESA; LC-ESI-ITFT; MS2; CE
PRECURSORMZ: 274.05548
PRECURSORTYPE: [M-H]-
FORMULA: C11H14FNO4S
Ontology: Anilides
INCHIKEY: SZCMHDLOUVZYST-UHFFFAOYSA-N
SMILES: CC(C)N(C(=O)CS(O)(=O)=O)C1=CC=C(F)C=C1
RETENTIONTIME: 
CCS: -1
IONMODE: Negative
INSTRUMENTTYPE: LC-ESI-ITFT
INSTRUMENT: 
COLLISIONENERGY: 35
Comment: registered in MassBank
Num Peaks: 6
119.9762	6
120.9603	1000
152.0883	63
162.0231	17
210.0939	21
232.00861	109

NAME: Flufenacet OXA; LC-ESI-ITFT; MS2; CE
PRECURSORMZ: 224.072845
PRECURSORTYPE: [M-H]-
FORMULA: C11H12FNO3
Ontology: Alpha amino acids and derivatives
INCHIKEY: FFKNXXCOXIZLJD-UHFFFAOYSA-N
SMILES: CC(C)N(C(=O)C(O)=O)C1=CC=C(F)C=C1
RETENTIONTIME: 
CCS: -1
IONMODE: Negative
INSTRUMENTTYPE: LC-ESI-ITFT
INSTRUMENT: 
COLLISIONENERGY: 35
Comment: registered in MassBank
Num Peaks: 1
152.0887	1000

NAME: Flufenacet OXA; LC-ESI-ITFT; MS2; CE
PRECURSORMZ: 224.072845
PRECURSORTYPE: [M-H]-
FORMULA: C11H12FNO3
Ontology: Alpha amino acids and derivatives
INCHIKEY: FFKNXXCOXIZLJD-UHFFFAOYSA-N
SMILES: CC(C)N(C(=O)C(O)=O)C1=CC=C(F)C=C1
RETENTIONTIME: 
CCS: -1
IONMODE: Negative
INSTRUMENTTYPE: LC-ESI-ITFT
INSTRUMENT: 
COLLISIONENERGY: 15
Comment: registered in MassBank
Num Peaks: 5
95.0307	6
136.0573	45
150.0728	7
152.0885	1000
224.073	16

NAME: Flufenacet OXA; LC-ESI-ITFT; MS2; CE
PRECURSORMZ: 224.072845
PRECURSORTYPE: [M-H]-
FORMULA: C11H12FNO3
Ontology: Alpha amino acids and derivatives
INCHIKEY: FFKNXXCOXIZLJD-UHFFFAOYSA-N
SMILES: CC(C)N(C(=O)C(O)=O)C1=CC=C(F)C=C1
RETENTIONTIME: 
CCS: -1
IONMODE: Negative
INSTRUMENTTYPE: LC-ESI-ITFT
INSTRUMENT: 
COLLISIONENERGY: 30
Comment: registered in MassBank
Num Peaks: 5
95.0301	5
110.0414	14
136.0571	74
150.073	13
152.08859	1000

NAME: Flufenacet OXA; LC-ESI-ITFT; MS2; CE
PRECURSORMZ: 224.072845
PRECURSORTYPE: [M-H]-
FORMULA: C11H12FNO3
Ontology: Alpha amino acids and derivatives
INCHIKEY: FFKNXXCOXIZLJD-UHFFFAOYSA-N
SMILES: CC(C)N(C(=O)C(O)=O)C1=CC=C(F)C=C1
RETENTIONTIME: 
CCS: -1
IONMODE: Negative
INSTRUMENTTYPE: LC-ESI-ITFT
INSTRUMENT: 
COLLISIONENERGY: 45
Comment: registered in MassBank
Num Peaks: 6
95.0305	55
110.0414	72
134.04131	28
136.0571	540
150.0728	64
152.0885	1000

NAME: Flufenacet OXA; LC-ESI-ITFT; MS2; CE
PRECURSORMZ: 224.072845
PRECURSORTYPE: [M-H]-
FORMULA: C11H12FNO3
Ontology: Alpha amino acids and derivatives
INCHIKEY: FFKNXXCOXIZLJD-UHFFFAOYSA-N
SMILES: CC(C)N(C(=O)C(O)=O)C1=CC=C(F)C=C1
RETENTIONTIME: 
CCS: -1
IONMODE: Negative
INSTRUMENTTYPE: LC-ESI-ITFT
INSTRUMENT: 
COLLISIONENERGY: 60
Comment: registered in MassBank
Num Peaks: 10
75.024	9
95.0305	179
110.0415	116
116.0508	7
134.0414	93
136.0571	1000
148.05701	9
150.07269	98
152.0519	36
152.0885	300

NAME: Flufenacet OXA; LC-ESI-ITFT; MS2; CE
PRECURSORMZ: 224.072845
PRECURSORTYPE: [M-H]-
FORMULA: C11H12FNO3
Ontology: Alpha amino acids and derivatives
INCHIKEY: FFKNXXCOXIZLJD-UHFFFAOYSA-N
SMILES: CC(C)N(C(=O)C(O)=O)C1=CC=C(F)C=C1
RETENTIONTIME: 
CCS: -1
IONMODE: Negative
INSTRUMENTTYPE: LC-ESI-ITFT
INSTRUMENT: 
COLLISIONENERGY: 75
Comment: registered in MassBank
Num Peaks: 9
75.0243	20
95.0305	336
110.0414	221
134.0414	231
136.0571	1000
148.05721	26
150.07269	60
152.0513	16
152.08839	46

NAME: Flufenacet OXA; LC-ESI-ITFT; MS2; CE
PRECURSORMZ: 224.072845
PRECURSORTYPE: [M-H]-
FORMULA: C11H12FNO3
Ontology: Alpha amino acids and derivatives
INCHIKEY: FFKNXXCOXIZLJD-UHFFFAOYSA-N
SMILES: CC(C)N(C(=O)C(O)=O)C1=CC=C(F)C=C1
RETENTIONTIME: 
CCS: -1
IONMODE: Negative
INSTRUMENTTYPE: LC-ESI-ITFT
INSTRUMENT: 
COLLISIONENERGY: 90
Comment: registered in MassBank
Num Peaks: 6
75.024	42
95.0305	578
110.0413	637
116.051	68
134.0414	704
136.05701	1000

NAME: Flufenacet OXA; LC-ESI-ITFT; MS2; CE
PRECURSORMZ: 224.072845
PRECURSORTYPE: [M-H]-
FORMULA: C11H12FNO3
Ontology: Alpha amino acids and derivatives
INCHIKEY: FFKNXXCOXIZLJD-UHFFFAOYSA-N
SMILES: CC(C)N(C(=O)C(O)=O)C1=CC=C(F)C=C1
RETENTIONTIME: 
CCS: -1
IONMODE: Negative
INSTRUMENTTYPE: LC-ESI-ITFT
INSTRUMENT: 
COLLISIONENERGY: 15
Comment: registered in MassBank
Num Peaks: 5
110.0413	6
136.05701	38
150.07269	8
152.08859	1000
224.0733	11

NAME: Flufenacet OXA; LC-ESI-ITFT; MS2; CE
PRECURSORMZ: 224.072845
PRECURSORTYPE: [M-H]-
FORMULA: C11H12FNO3
Ontology: Alpha amino acids and derivatives
INCHIKEY: FFKNXXCOXIZLJD-UHFFFAOYSA-N
SMILES: CC(C)N(C(=O)C(O)=O)C1=CC=C(F)C=C1
RETENTIONTIME: 
CCS: -1
IONMODE: Negative
INSTRUMENTTYPE: LC-ESI-ITFT
INSTRUMENT: 
COLLISIONENERGY: 30
Comment: registered in MassBank
Num Peaks: 4
110.0415	10
136.05721	73
150.0728	11
152.0887	1000

NAME: Flufenacet OXA; LC-ESI-ITFT; MS2; CE
PRECURSORMZ: 224.072845
PRECURSORTYPE: [M-H]-
FORMULA: C11H12FNO3
Ontology: Alpha amino acids and derivatives
INCHIKEY: FFKNXXCOXIZLJD-UHFFFAOYSA-N
SMILES: CC(C)N(C(=O)C(O)=O)C1=CC=C(F)C=C1
RETENTIONTIME: 
CCS: -1
IONMODE: Negative
INSTRUMENTTYPE: LC-ESI-ITFT
INSTRUMENT: 
COLLISIONENERGY: 45
Comment: registered in MassBank
Num Peaks: 6
95.0303	43
110.0414	53
134.0417	23
136.05721	538
150.0728	59
152.0885	1000

NAME: Flufenacet OXA; LC-ESI-ITFT; MS2; CE
PRECURSORMZ: 224.072845
PRECURSORTYPE: [M-H]-
FORMULA: C11H12FNO3
Ontology: Alpha amino acids and derivatives
INCHIKEY: FFKNXXCOXIZLJD-UHFFFAOYSA-N
SMILES: CC(C)N(C(=O)C(O)=O)C1=CC=C(F)C=C1
RETENTIONTIME: 
CCS: -1
IONMODE: Negative
INSTRUMENTTYPE: LC-ESI-ITFT
INSTRUMENT: 
COLLISIONENERGY: 60
Comment: registered in MassBank
Num Peaks: 7
95.0305	145
110.0414	85
134.04131	61
136.05721	1000
150.07269	69
152.0519	31
152.08839	278

NAME: Flufenacet OXA; LC-ESI-ITFT; MS2; CE
PRECURSORMZ: 224.072845
PRECURSORTYPE: [M-H]-
FORMULA: C11H12FNO3
Ontology: Alpha amino acids and derivatives
INCHIKEY: FFKNXXCOXIZLJD-UHFFFAOYSA-N
SMILES: CC(C)N(C(=O)C(O)=O)C1=CC=C(F)C=C1
RETENTIONTIME: 
CCS: -1
IONMODE: Negative
INSTRUMENTTYPE: LC-ESI-ITFT
INSTRUMENT: 
COLLISIONENERGY: 75
Comment: registered in MassBank
Num Peaks: 8
95.0303	218
110.0413	175
116.0503	14
134.0414	217
136.0571	1000
148.05701	22
150.073	62
152.0883	53

NAME: Flufenacet OXA; LC-ESI-ITFT; MS2; CE
PRECURSORMZ: 224.072845
PRECURSORTYPE: [M-H]-
FORMULA: C11H12FNO3
Ontology: Alpha amino acids and derivatives
INCHIKEY: FFKNXXCOXIZLJD-UHFFFAOYSA-N
SMILES: CC(C)N(C(=O)C(O)=O)C1=CC=C(F)C=C1
RETENTIONTIME: 
CCS: -1
IONMODE: Negative
INSTRUMENTTYPE: LC-ESI-ITFT
INSTRUMENT: 
COLLISIONENERGY: 90
Comment: registered in MassBank
Num Peaks: 7
95.0305	374
110.0412	382
116.0508	37
134.0412	620
136.05701	1000
150.073	48
152.088	26

NAME: Flufenacet OXA; LC-ESI-ITFT; MS2; CE
PRECURSORMZ: 224.072845
PRECURSORTYPE: [M-H]-
FORMULA: C11H12FNO3
Ontology: Alpha amino acids and derivatives
INCHIKEY: FFKNXXCOXIZLJD-UHFFFAOYSA-N
SMILES: CC(C)N(C(=O)C(O)=O)C1=CC=C(F)C=C1
RETENTIONTIME: 
CCS: -1
IONMODE: Negative
INSTRUMENTTYPE: LC-ESI-ITFT
INSTRUMENT: 
COLLISIONENERGY: 35
Comment: registered in MassBank
Num Peaks: 1
152.0887	1000

NAME: Propachlor ESA; LC-ESI-ITFT; MS2; CE
PRECURSORMZ: 256.064902
PRECURSORTYPE: [M-H]-
FORMULA: C11H15NO4S
Ontology: Anilides
INCHIKEY: BFSZJLBDHMMCAH-UHFFFAOYSA-N
SMILES: CC(C)N(C(=O)CS(O)(=O)=O)C1=CC=CC=C1
RETENTIONTIME: 
CCS: -1
IONMODE: Negative
INSTRUMENTTYPE: LC-ESI-ITFT
INSTRUMENT: 
COLLISIONENERGY: 35
Comment: registered in MassBank
Num Peaks: 9
76.9704	60
79.9575	42
93.0348	7
119.9764	31
120.9605	1000
134.0979	46
162.0235	69
192.1035	26
214.0186	119

NAME: Propachlor ESA; LC-ESI-ITFT; MS2; CE
PRECURSORMZ: 256.064902
PRECURSORTYPE: [M-H]-
FORMULA: C11H15NO4S
Ontology: Anilides
INCHIKEY: BFSZJLBDHMMCAH-UHFFFAOYSA-N
SMILES: CC(C)N(C(=O)CS(O)(=O)=O)C1=CC=CC=C1
RETENTIONTIME: 
CCS: -1
IONMODE: Negative
INSTRUMENTTYPE: LC-ESI-ITFT
INSTRUMENT: 
COLLISIONENERGY: 30
Comment: registered in MassBank
Num Peaks: 5
76.9704	16
79.9574	29
120.9606	61
214.01849	5
256.0657	1000

NAME: Propachlor ESA; LC-ESI-ITFT; MS2; CE
PRECURSORMZ: 256.064902
PRECURSORTYPE: [M-H]-
FORMULA: C11H15NO4S
Ontology: Anilides
INCHIKEY: BFSZJLBDHMMCAH-UHFFFAOYSA-N
SMILES: CC(C)N(C(=O)CS(O)(=O)=O)C1=CC=CC=C1
RETENTIONTIME: 
CCS: -1
IONMODE: Negative
INSTRUMENTTYPE: LC-ESI-ITFT
INSTRUMENT: 
COLLISIONENERGY: 45
Comment: registered in MassBank
Num Peaks: 9
76.9704	230
79.9575	1000
93.0346	31
119.9767	39
120.9604	856
134.09801	81
162.02361	23
214.0181	55
256.06549	827

NAME: Propachlor ESA; LC-ESI-ITFT; MS2; CE
PRECURSORMZ: 256.064902
PRECURSORTYPE: [M-H]-
FORMULA: C11H15NO4S
Ontology: Anilides
INCHIKEY: BFSZJLBDHMMCAH-UHFFFAOYSA-N
SMILES: CC(C)N(C(=O)CS(O)(=O)=O)C1=CC=CC=C1
RETENTIONTIME: 
CCS: -1
IONMODE: Negative
INSTRUMENTTYPE: LC-ESI-ITFT
INSTRUMENT: 
COLLISIONENERGY: 60
Comment: registered in MassBank
Num Peaks: 8
76.9704	211
79.9575	1000
93.0348	24
93.9727	12
119.9763	14
120.9604	305
134.09779	58
256.0639	23

NAME: Propachlor ESA; LC-ESI-ITFT; MS2; CE
PRECURSORMZ: 256.064902
PRECURSORTYPE: [M-H]-
FORMULA: C11H15NO4S
Ontology: Anilides
INCHIKEY: BFSZJLBDHMMCAH-UHFFFAOYSA-N
SMILES: CC(C)N(C(=O)CS(O)(=O)=O)C1=CC=CC=C1
RETENTIONTIME: 
CCS: -1
IONMODE: Negative
INSTRUMENTTYPE: LC-ESI-ITFT
INSTRUMENT: 
COLLISIONENERGY: 75
Comment: registered in MassBank
Num Peaks: 5
76.9704	197
79.9575	1000
93.9732	15
120.9603	96
134.0976	22

NAME: Propachlor ESA; LC-ESI-ITFT; MS2; CE
PRECURSORMZ: 256.064902
PRECURSORTYPE: [M-H]-
FORMULA: C11H15NO4S
Ontology: Anilides
INCHIKEY: BFSZJLBDHMMCAH-UHFFFAOYSA-N
SMILES: CC(C)N(C(=O)CS(O)(=O)=O)C1=CC=CC=C1
RETENTIONTIME: 
CCS: -1
IONMODE: Negative
INSTRUMENTTYPE: LC-ESI-ITFT
INSTRUMENT: 
COLLISIONENERGY: 90
Comment: registered in MassBank
Num Peaks: 2
76.9705	169
79.9575	1000

NAME: Propachlor ESA; LC-ESI-ITFT; MS2; CE
PRECURSORMZ: 256.064902
PRECURSORTYPE: [M-H]-
FORMULA: C11H15NO4S
Ontology: Anilides
INCHIKEY: BFSZJLBDHMMCAH-UHFFFAOYSA-N
SMILES: CC(C)N(C(=O)CS(O)(=O)=O)C1=CC=CC=C1
RETENTIONTIME: 
CCS: -1
IONMODE: Negative
INSTRUMENTTYPE: LC-ESI-ITFT
INSTRUMENT: 
COLLISIONENERGY: 30
Comment: registered in MassBank
Num Peaks: 5
76.9703	11
79.9574	16
120.9603	57
214.0179	7
256.06549	1000

NAME: Propachlor ESA; LC-ESI-ITFT; MS2; CE
PRECURSORMZ: 256.064902
PRECURSORTYPE: [M-H]-
FORMULA: C11H15NO4S
Ontology: Anilides
INCHIKEY: BFSZJLBDHMMCAH-UHFFFAOYSA-N
SMILES: CC(C)N(C(=O)CS(O)(=O)=O)C1=CC=CC=C1
RETENTIONTIME: 
CCS: -1
IONMODE: Negative
INSTRUMENTTYPE: LC-ESI-ITFT
INSTRUMENT: 
COLLISIONENERGY: 45
Comment: registered in MassBank
Num Peaks: 7
76.9703	246
79.9575	1000
93.0346	32
120.9602	731
134.0974	79
214.01801	68
256.0654	804

NAME: Propachlor ESA; LC-ESI-ITFT; MS2; CE
PRECURSORMZ: 256.064902
PRECURSORTYPE: [M-H]-
FORMULA: C11H15NO4S
Ontology: Anilides
INCHIKEY: BFSZJLBDHMMCAH-UHFFFAOYSA-N
SMILES: CC(C)N(C(=O)CS(O)(=O)=O)C1=CC=CC=C1
RETENTIONTIME: 
CCS: -1
IONMODE: Negative
INSTRUMENTTYPE: LC-ESI-ITFT
INSTRUMENT: 
COLLISIONENERGY: 60
Comment: registered in MassBank
Num Peaks: 4
76.9704	202
79.9574	1000
120.9602	282
256.065	46

NAME: Propachlor ESA; LC-ESI-ITFT; MS2; CE
PRECURSORMZ: 256.064902
PRECURSORTYPE: [M-H]-
FORMULA: C11H15NO4S
Ontology: Anilides
INCHIKEY: BFSZJLBDHMMCAH-UHFFFAOYSA-N
SMILES: CC(C)N(C(=O)CS(O)(=O)=O)C1=CC=CC=C1
RETENTIONTIME: 
CCS: -1
IONMODE: Negative
INSTRUMENTTYPE: LC-ESI-ITFT
INSTRUMENT: 
COLLISIONENERGY: 75
Comment: registered in MassBank
Num Peaks: 3
76.9704	201
79.9575	1000
120.9601	98

NAME: Propachlor ESA; LC-ESI-ITFT; MS2; CE
PRECURSORMZ: 256.064902
PRECURSORTYPE: [M-H]-
FORMULA: C11H15NO4S
Ontology: Anilides
INCHIKEY: BFSZJLBDHMMCAH-UHFFFAOYSA-N
SMILES: CC(C)N(C(=O)CS(O)(=O)=O)C1=CC=CC=C1
RETENTIONTIME: 
CCS: -1
IONMODE: Negative
INSTRUMENTTYPE: LC-ESI-ITFT
INSTRUMENT: 
COLLISIONENERGY: 90
Comment: registered in MassBank
Num Peaks: 2
76.9705	125
79.9575	1000

NAME: Propachlor ESA; LC-ESI-ITFT; MS2; CE
PRECURSORMZ: 256.064902
PRECURSORTYPE: [M-H]-
FORMULA: C11H15NO4S
Ontology: Anilides
INCHIKEY: BFSZJLBDHMMCAH-UHFFFAOYSA-N
SMILES: CC(C)N(C(=O)CS(O)(=O)=O)C1=CC=CC=C1
RETENTIONTIME: 
CCS: -1
IONMODE: Negative
INSTRUMENTTYPE: LC-ESI-ITFT
INSTRUMENT: 
COLLISIONENERGY: 35
Comment: registered in MassBank
Num Peaks: 8
76.9704	28
79.9576	14
119.9762	12
120.9605	1000
134.0976	18
162.02341	41
192.1031	11
214.0183	69

NAME: Simazine-2-hydroxy; LC-ESI-ITFT; MS2; CE
PRECURSORMZ: 182.104734
PRECURSORTYPE: [M-H]-
FORMULA: C7H13N5O
Ontology: N-aliphatic s-triazines
INCHIKEY: YQIXRXMOJFQVBV-UHFFFAOYSA-N
SMILES: CCN=C1NC(O)=NC(N1)=NCC
RETENTIONTIME: 
CCS: 149.3558167
IONMODE: Negative
INSTRUMENTTYPE: LC-ESI-ITFT
INSTRUMENT: 
COLLISIONENERGY: 35
Comment: registered in MassBank
Num Peaks: 4
69.0458	268
111.0679	1000
154.0735	668
182.1048	602

NAME: Simazine-2-hydroxy; LC-ESI-ITFT; MS2; CE
PRECURSORMZ: 182.104734
PRECURSORTYPE: [M-H]-
FORMULA: C7H13N5O
Ontology: N-aliphatic s-triazines
INCHIKEY: YQIXRXMOJFQVBV-UHFFFAOYSA-N
SMILES: CCN=C1NC(O)=NC(N1)=NCC
RETENTIONTIME: 
CCS: 149.3558167
IONMODE: Negative
INSTRUMENTTYPE: LC-ESI-ITFT
INSTRUMENT: 
COLLISIONENERGY: 30
Comment: registered in MassBank
Num Peaks: 4
69.0457	29
111.0675	37
154.0732	65
182.10429	1000

NAME: Simazine-2-hydroxy; LC-ESI-ITFT; MS2; CE
PRECURSORMZ: 182.104734
PRECURSORTYPE: [M-H]-
FORMULA: C7H13N5O
Ontology: N-aliphatic s-triazines
INCHIKEY: YQIXRXMOJFQVBV-UHFFFAOYSA-N
SMILES: CCN=C1NC(O)=NC(N1)=NCC
RETENTIONTIME: 
CCS: 149.3558167
IONMODE: Negative
INSTRUMENTTYPE: LC-ESI-ITFT
INSTRUMENT: 
COLLISIONENERGY: 45
Comment: registered in MassBank
Num Peaks: 4
69.0459	399
111.0676	455
154.07359	408
182.10471	1000

NAME: Simazine-2-hydroxy; LC-ESI-ITFT; MS2; CE
PRECURSORMZ: 182.104734
PRECURSORTYPE: [M-H]-
FORMULA: C7H13N5O
Ontology: N-aliphatic s-triazines
INCHIKEY: YQIXRXMOJFQVBV-UHFFFAOYSA-N
SMILES: CCN=C1NC(O)=NC(N1)=NCC
RETENTIONTIME: 
CCS: 149.3558167
IONMODE: Negative
INSTRUMENTTYPE: LC-ESI-ITFT
INSTRUMENT: 
COLLISIONENERGY: 60
Comment: registered in MassBank
Num Peaks: 4
69.0458	1000
111.0677	348
154.0737	273
182.105	204

NAME: Simazine-2-hydroxy; LC-ESI-ITFT; MS2; CE
PRECURSORMZ: 182.104734
PRECURSORTYPE: [M-H]-
FORMULA: C7H13N5O
Ontology: N-aliphatic s-triazines
INCHIKEY: YQIXRXMOJFQVBV-UHFFFAOYSA-N
SMILES: CCN=C1NC(O)=NC(N1)=NCC
RETENTIONTIME: 
CCS: 149.3558167
IONMODE: Negative
INSTRUMENTTYPE: LC-ESI-ITFT
INSTRUMENT: 
COLLISIONENERGY: 75
Comment: registered in MassBank
Num Peaks: 3
69.0457	1000
111.068	106
182.1041	136

NAME: Simazine-2-hydroxy; LC-ESI-ITFT; MS2; CE
PRECURSORMZ: 182.104734
PRECURSORTYPE: [M-H]-
FORMULA: C7H13N5O
Ontology: N-aliphatic s-triazines
INCHIKEY: YQIXRXMOJFQVBV-UHFFFAOYSA-N
SMILES: CCN=C1NC(O)=NC(N1)=NCC
RETENTIONTIME: 
CCS: 149.3558167
IONMODE: Negative
INSTRUMENTTYPE: LC-ESI-ITFT
INSTRUMENT: 
COLLISIONENERGY: 90
Comment: registered in MassBank
Num Peaks: 1
69.0459	1000

NAME: Simazine-2-hydroxy; LC-ESI-ITFT; MS2; CE
PRECURSORMZ: 182.104734
PRECURSORTYPE: [M-H]-
FORMULA: C7H13N5O
Ontology: N-aliphatic s-triazines
INCHIKEY: YQIXRXMOJFQVBV-UHFFFAOYSA-N
SMILES: CCN=C1NC(O)=NC(N1)=NCC
RETENTIONTIME: 
CCS: 149.3558167
IONMODE: Negative
INSTRUMENTTYPE: LC-ESI-ITFT
INSTRUMENT: 
COLLISIONENERGY: 15
Comment: registered in MassBank
Num Peaks: 2
154.0731	5
182.10471	1000

NAME: Simazine-2-hydroxy; LC-ESI-ITFT; MS2; CE
PRECURSORMZ: 182.104734
PRECURSORTYPE: [M-H]-
FORMULA: C7H13N5O
Ontology: N-aliphatic s-triazines
INCHIKEY: YQIXRXMOJFQVBV-UHFFFAOYSA-N
SMILES: CCN=C1NC(O)=NC(N1)=NCC
RETENTIONTIME: 
CCS: 149.3558167
IONMODE: Negative
INSTRUMENTTYPE: LC-ESI-ITFT
INSTRUMENT: 
COLLISIONENERGY: 30
Comment: registered in MassBank
Num Peaks: 4
69.0457	25
111.0677	52
154.0732	52
182.1046	1000

NAME: Simazine-2-hydroxy; LC-ESI-ITFT; MS2; CE
PRECURSORMZ: 182.104734
PRECURSORTYPE: [M-H]-
FORMULA: C7H13N5O
Ontology: N-aliphatic s-triazines
INCHIKEY: YQIXRXMOJFQVBV-UHFFFAOYSA-N
SMILES: CCN=C1NC(O)=NC(N1)=NCC
RETENTIONTIME: 
CCS: 149.3558167
IONMODE: Negative
INSTRUMENTTYPE: LC-ESI-ITFT
INSTRUMENT: 
COLLISIONENERGY: 45
Comment: registered in MassBank
Num Peaks: 4
69.0458	394
111.0676	425
154.0733	409
182.10451	1000

NAME: Simazine-2-hydroxy; LC-ESI-ITFT; MS2; CE
PRECURSORMZ: 182.104734
PRECURSORTYPE: [M-H]-
FORMULA: C7H13N5O
Ontology: N-aliphatic s-triazines
INCHIKEY: YQIXRXMOJFQVBV-UHFFFAOYSA-N
SMILES: CCN=C1NC(O)=NC(N1)=NCC
RETENTIONTIME: 
CCS: 149.3558167
IONMODE: Negative
INSTRUMENTTYPE: LC-ESI-ITFT
INSTRUMENT: 
COLLISIONENERGY: 60
Comment: registered in MassBank
Num Peaks: 3
69.0457	1000
111.0677	473
154.07339	363

NAME: Simazine-2-hydroxy; LC-ESI-ITFT; MS2; CE
PRECURSORMZ: 182.104734
PRECURSORTYPE: [M-H]-
FORMULA: C7H13N5O
Ontology: N-aliphatic s-triazines
INCHIKEY: YQIXRXMOJFQVBV-UHFFFAOYSA-N
SMILES: CCN=C1NC(O)=NC(N1)=NCC
RETENTIONTIME: 
CCS: 149.3558167
IONMODE: Negative
INSTRUMENTTYPE: LC-ESI-ITFT
INSTRUMENT: 
COLLISIONENERGY: 75
Comment: registered in MassBank
Num Peaks: 3
69.0458	1000
111.0675	143
154.07291	116

NAME: Simazine-2-hydroxy; LC-ESI-ITFT; MS2; CE
PRECURSORMZ: 182.104734
PRECURSORTYPE: [M-H]-
FORMULA: C7H13N5O
Ontology: N-aliphatic s-triazines
INCHIKEY: YQIXRXMOJFQVBV-UHFFFAOYSA-N
SMILES: CCN=C1NC(O)=NC(N1)=NCC
RETENTIONTIME: 
CCS: 149.3558167
IONMODE: Negative
INSTRUMENTTYPE: LC-ESI-ITFT
INSTRUMENT: 
COLLISIONENERGY: 90
Comment: registered in MassBank
Num Peaks: 1
69.0458	1000

NAME: Terbutylazine-desethyl-2-hydroxy; LC-ESI-ITFT; MS2; CE
PRECURSORMZ: 182.104734
PRECURSORTYPE: [M-H]-
FORMULA: C7H13N5O
Ontology: Triazinones
INCHIKEY: NUISVCFZNCYUIM-UHFFFAOYSA-N
SMILES: CC(C)(C)NC1=NC(=N)N=C(O)N1
RETENTIONTIME: 
CCS: 145.9892167
IONMODE: Negative
INSTRUMENTTYPE: LC-ESI-ITFT
INSTRUMENT: 
COLLISIONENERGY: 35
Comment: registered in MassBank
Num Peaks: 6
83.0363	49
84.0204	137
97.0772	302
126.0423	926
139.0992	1000
182.10471	333

NAME: Terbutylazine-desethyl-2-hydroxy; LC-ESI-ITFT; MS2; CE
PRECURSORMZ: 182.104734
PRECURSORTYPE: [M-H]-
FORMULA: C7H13N5O
Ontology: Triazinones
INCHIKEY: NUISVCFZNCYUIM-UHFFFAOYSA-N
SMILES: CC(C)(C)NC1=NC(=N)N=C(O)N1
RETENTIONTIME: 
CCS: 145.9892167
IONMODE: Negative
INSTRUMENTTYPE: LC-ESI-ITFT
INSTRUMENT: 
COLLISIONENERGY: 30
Comment: registered in MassBank
Num Peaks: 4
97.077	17
126.0422	39
139.0983	46
182.1048	1000

NAME: Terbutylazine-desethyl-2-hydroxy; LC-ESI-ITFT; MS2; CE
PRECURSORMZ: 182.104734
PRECURSORTYPE: [M-H]-
FORMULA: C7H13N5O
Ontology: Triazinones
INCHIKEY: NUISVCFZNCYUIM-UHFFFAOYSA-N
SMILES: CC(C)(C)NC1=NC(=N)N=C(O)N1
RETENTIONTIME: 
CCS: 145.9892167
IONMODE: Negative
INSTRUMENTTYPE: LC-ESI-ITFT
INSTRUMENT: 
COLLISIONENERGY: 45
Comment: registered in MassBank
Num Peaks: 5
83.0363	32
97.077	272
126.0419	237
139.0988	311
182.10451	1000

NAME: Terbutylazine-desethyl-2-hydroxy; LC-ESI-ITFT; MS2; CE
PRECURSORMZ: 182.104734
PRECURSORTYPE: [M-H]-
FORMULA: C7H13N5O
Ontology: Triazinones
INCHIKEY: NUISVCFZNCYUIM-UHFFFAOYSA-N
SMILES: CC(C)(C)NC1=NC(=N)N=C(O)N1
RETENTIONTIME: 
CCS: 145.9892167
IONMODE: Negative
INSTRUMENTTYPE: LC-ESI-ITFT
INSTRUMENT: 
COLLISIONENERGY: 60
Comment: registered in MassBank
Num Peaks: 5
83.0363	90
84.0203	118
97.0772	1000
126.0423	421
139.0988	236

NAME: Terbutylazine-desethyl-2-hydroxy; LC-ESI-ITFT; MS2; CE
PRECURSORMZ: 182.104734
PRECURSORTYPE: [M-H]-
FORMULA: C7H13N5O
Ontology: Triazinones
INCHIKEY: NUISVCFZNCYUIM-UHFFFAOYSA-N
SMILES: CC(C)(C)NC1=NC(=N)N=C(O)N1
RETENTIONTIME: 
CCS: 145.9892167
IONMODE: Negative
INSTRUMENTTYPE: LC-ESI-ITFT
INSTRUMENT: 
COLLISIONENERGY: 75
Comment: registered in MassBank
Num Peaks: 3
83.0362	192
97.0771	1000
139.09959	61

NAME: Terbutylazine-desethyl-2-hydroxy; LC-ESI-ITFT; MS2; CE
PRECURSORMZ: 182.104734
PRECURSORTYPE: [M-H]-
FORMULA: C7H13N5O
Ontology: Triazinones
INCHIKEY: NUISVCFZNCYUIM-UHFFFAOYSA-N
SMILES: CC(C)(C)NC1=NC(=N)N=C(O)N1
RETENTIONTIME: 
CCS: 145.9892167
IONMODE: Negative
INSTRUMENTTYPE: LC-ESI-ITFT
INSTRUMENT: 
COLLISIONENERGY: 90
Comment: registered in MassBank
Num Peaks: 3
81.0459	141
83.0361	124
97.077	1000

NAME: Terbutylazine-desethyl-2-hydroxy; LC-ESI-ITFT; MS2; CE
PRECURSORMZ: 182.104734
PRECURSORTYPE: [M-H]-
FORMULA: C7H13N5O
Ontology: Triazinones
INCHIKEY: NUISVCFZNCYUIM-UHFFFAOYSA-N
SMILES: CC(C)(C)NC1=NC(=N)N=C(O)N1
RETENTIONTIME: 
CCS: 145.9892167
IONMODE: Negative
INSTRUMENTTYPE: LC-ESI-ITFT
INSTRUMENT: 
COLLISIONENERGY: 15
Comment: registered in MassBank
Num Peaks: 2
126.0427	8
182.1046	1000

NAME: Terbutylazine-desethyl-2-hydroxy; LC-ESI-ITFT; MS2; CE
PRECURSORMZ: 182.104734
PRECURSORTYPE: [M-H]-
FORMULA: C7H13N5O
Ontology: Triazinones
INCHIKEY: NUISVCFZNCYUIM-UHFFFAOYSA-N
SMILES: CC(C)(C)NC1=NC(=N)N=C(O)N1
RETENTIONTIME: 
CCS: 145.9892167
IONMODE: Negative
INSTRUMENTTYPE: LC-ESI-ITFT
INSTRUMENT: 
COLLISIONENERGY: 30
Comment: registered in MassBank
Num Peaks: 4
97.0769	25
126.0421	43
139.09911	60
182.10471	1000

NAME: Terbutylazine-desethyl-2-hydroxy; LC-ESI-ITFT; MS2; CE
PRECURSORMZ: 182.104734
PRECURSORTYPE: [M-H]-
FORMULA: C7H13N5O
Ontology: Triazinones
INCHIKEY: NUISVCFZNCYUIM-UHFFFAOYSA-N
SMILES: CC(C)(C)NC1=NC(=N)N=C(O)N1
RETENTIONTIME: 
CCS: 145.9892167
IONMODE: Negative
INSTRUMENTTYPE: LC-ESI-ITFT
INSTRUMENT: 
COLLISIONENERGY: 45
Comment: registered in MassBank
Num Peaks: 5
84.0203	64
97.0771	334
126.0421	268
139.0988	324
182.10471	1000

NAME: Terbutylazine-desethyl-2-hydroxy; LC-ESI-ITFT; MS2; CE
PRECURSORMZ: 182.104734
PRECURSORTYPE: [M-H]-
FORMULA: C7H13N5O
Ontology: Triazinones
INCHIKEY: NUISVCFZNCYUIM-UHFFFAOYSA-N
SMILES: CC(C)(C)NC1=NC(=N)N=C(O)N1
RETENTIONTIME: 
CCS: 145.9892167
IONMODE: Negative
INSTRUMENTTYPE: LC-ESI-ITFT
INSTRUMENT: 
COLLISIONENERGY: 60
Comment: registered in MassBank
Num Peaks: 4
84.0205	69
97.0771	1000
126.0421	455
139.0988	200

NAME: Terbutylazine-desethyl-2-hydroxy; LC-ESI-ITFT; MS2; CE
PRECURSORMZ: 182.104734
PRECURSORTYPE: [M-H]-
FORMULA: C7H13N5O
Ontology: Triazinones
INCHIKEY: NUISVCFZNCYUIM-UHFFFAOYSA-N
SMILES: CC(C)(C)NC1=NC(=N)N=C(O)N1
RETENTIONTIME: 
CCS: 145.9892167
IONMODE: Negative
INSTRUMENTTYPE: LC-ESI-ITFT
INSTRUMENT: 
COLLISIONENERGY: 75
Comment: registered in MassBank
Num Peaks: 3
81.046	80
97.0771	1000
126.042	135

NAME: 4-Trifluoromethylphenol; LC-ESI-ITFT; MS2; CE
PRECURSORMZ: 161.021973
PRECURSORTYPE: [M-H]-
FORMULA: C7H5F3O
Ontology: Trifluoromethylbenzenes
INCHIKEY: BAYGVMXZJBFEMB-UHFFFAOYSA-N
SMILES: OC1=CC=C(C=C1)C(F)(F)F
RETENTIONTIME: 
CCS: 120.0795883
IONMODE: Negative
INSTRUMENTTYPE: LC-ESI-ITFT
INSTRUMENT: 
COLLISIONENERGY: 35
Comment: registered in MassBank
Num Peaks: 2
141.01559	89
161.0222	1000

NAME: 4-Trifluoromethylphenol; LC-ESI-ITFT; MS2; CE
PRECURSORMZ: 161.021973
PRECURSORTYPE: [M-H]-
FORMULA: C7H5F3O
Ontology: Trifluoromethylbenzenes
INCHIKEY: BAYGVMXZJBFEMB-UHFFFAOYSA-N
SMILES: OC1=CC=C(C=C1)C(F)(F)F
RETENTIONTIME: 
CCS: 120.0795883
IONMODE: Negative
INSTRUMENTTYPE: LC-ESI-ITFT
INSTRUMENT: 
COLLISIONENERGY: 45
Comment: registered in MassBank
Num Peaks: 2
141.0157	39
161.0218	1000

NAME: 4-Trifluoromethylphenol; LC-ESI-ITFT; MS2; CE
PRECURSORMZ: 161.021973
PRECURSORTYPE: [M-H]-
FORMULA: C7H5F3O
Ontology: Trifluoromethylbenzenes
INCHIKEY: BAYGVMXZJBFEMB-UHFFFAOYSA-N
SMILES: OC1=CC=C(C=C1)C(F)(F)F
RETENTIONTIME: 
CCS: 120.0795883
IONMODE: Negative
INSTRUMENTTYPE: LC-ESI-ITFT
INSTRUMENT: 
COLLISIONENERGY: 60
Comment: registered in MassBank
Num Peaks: 4
121.0092	126
139.02071	20
141.0155	147
161.0217	1000

NAME: 4-Trifluoromethylphenol; LC-ESI-ITFT; MS2; CE
PRECURSORMZ: 161.021973
PRECURSORTYPE: [M-H]-
FORMULA: C7H5F3O
Ontology: Trifluoromethylbenzenes
INCHIKEY: BAYGVMXZJBFEMB-UHFFFAOYSA-N
SMILES: OC1=CC=C(C=C1)C(F)(F)F
RETENTIONTIME: 
CCS: 120.0795883
IONMODE: Negative
INSTRUMENTTYPE: LC-ESI-ITFT
INSTRUMENT: 
COLLISIONENERGY: 75
Comment: registered in MassBank
Num Peaks: 6
73.0082	93
93.0142	62
121.0094	810
139.02	56
141.0157	366
161.02251	1000

NAME: 4-Trifluoromethylphenol; LC-ESI-ITFT; MS2; CE
PRECURSORMZ: 161.021973
PRECURSORTYPE: [M-H]-
FORMULA: C7H5F3O
Ontology: Trifluoromethylbenzenes
INCHIKEY: BAYGVMXZJBFEMB-UHFFFAOYSA-N
SMILES: OC1=CC=C(C=C1)C(F)(F)F
RETENTIONTIME: 
CCS: 120.0795883
IONMODE: Negative
INSTRUMENTTYPE: LC-ESI-ITFT
INSTRUMENT: 
COLLISIONENERGY: 90
Comment: registered in MassBank
Num Peaks: 4
73.0084	200
93.0145	75
121.0095	1000
141.0159	195

NAME: 4-Trifluoromethylphenol; LC-ESI-ITFT; MS2; CE
PRECURSORMZ: 161.021973
PRECURSORTYPE: [M-H]-
FORMULA: C7H5F3O
Ontology: Trifluoromethylbenzenes
INCHIKEY: BAYGVMXZJBFEMB-UHFFFAOYSA-N
SMILES: OC1=CC=C(C=C1)C(F)(F)F
RETENTIONTIME: 
CCS: 120.0795883
IONMODE: Negative
INSTRUMENTTYPE: LC-ESI-ITFT
INSTRUMENT: 
COLLISIONENERGY: 45
Comment: registered in MassBank
Num Peaks: 4
121.0093	8
139.0201	6
141.01559	26
161.0219	1000

NAME: 4-Trifluoromethylphenol; LC-ESI-ITFT; MS2; CE
PRECURSORMZ: 161.021973
PRECURSORTYPE: [M-H]-
FORMULA: C7H5F3O
Ontology: Trifluoromethylbenzenes
INCHIKEY: BAYGVMXZJBFEMB-UHFFFAOYSA-N
SMILES: OC1=CC=C(C=C1)C(F)(F)F
RETENTIONTIME: 
CCS: 120.0795883
IONMODE: Negative
INSTRUMENTTYPE: LC-ESI-ITFT
INSTRUMENT: 
COLLISIONENERGY: 60
Comment: registered in MassBank
Num Peaks: 4
121.0094	145
139.0199	37
141.01559	191
161.0217	1000

NAME: 4-Trifluoromethylphenol; LC-ESI-ITFT; MS2; CE
PRECURSORMZ: 161.021973
PRECURSORTYPE: [M-H]-
FORMULA: C7H5F3O
Ontology: Trifluoromethylbenzenes
INCHIKEY: BAYGVMXZJBFEMB-UHFFFAOYSA-N
SMILES: OC1=CC=C(C=C1)C(F)(F)F
RETENTIONTIME: 
CCS: 120.0795883
IONMODE: Negative
INSTRUMENTTYPE: LC-ESI-ITFT
INSTRUMENT: 
COLLISIONENERGY: 75
Comment: registered in MassBank
Num Peaks: 5
73.0085	54
121.0094	922
139.0195	53
141.0157	391
161.022	1000

NAME: 4-Trifluoromethylphenol; LC-ESI-ITFT; MS2; CE
PRECURSORMZ: 161.021973
PRECURSORTYPE: [M-H]-
FORMULA: C7H5F3O
Ontology: Trifluoromethylbenzenes
INCHIKEY: BAYGVMXZJBFEMB-UHFFFAOYSA-N
SMILES: OC1=CC=C(C=C1)C(F)(F)F
RETENTIONTIME: 
CCS: 120.0795883
IONMODE: Negative
INSTRUMENTTYPE: LC-ESI-ITFT
INSTRUMENT: 
COLLISIONENERGY: 90
Comment: registered in MassBank
Num Peaks: 5
73.0083	217
93.0143	81
121.0093	1000
141.0155	193
161.0224	284

NAME: Atenolol acid; LC-ESI-ITFT; MS2; CE
PRECURSORMZ: 266.139782
PRECURSORTYPE: [M-H]-
FORMULA: C14H21NO4
Ontology: Phenol ethers
INCHIKEY: PUQIRTNPJRFRCZ-UHFFFAOYNA-N
SMILES: CC(C)NCC(O)COC1=CC=C(CC(O)=O)C=C1
RETENTIONTIME: 
CCS: -1
IONMODE: Negative
INSTRUMENTTYPE: LC-ESI-ITFT
INSTRUMENT: 
COLLISIONENERGY: 35
Comment: registered in MassBank
Num Peaks: 3
107.0504	986
121.0661	129
222.1499	1000

NAME: Atenolol acid; LC-ESI-ITFT; MS2; CE
PRECURSORMZ: 266.139782
PRECURSORTYPE: [M-H]-
FORMULA: C14H21NO4
Ontology: Phenol ethers
INCHIKEY: PUQIRTNPJRFRCZ-UHFFFAOYNA-N
SMILES: CC(C)NCC(O)COC1=CC=C(CC(O)=O)C=C1
RETENTIONTIME: 
CCS: -1
IONMODE: Negative
INSTRUMENTTYPE: LC-ESI-ITFT
INSTRUMENT: 
COLLISIONENERGY: 30
Comment: registered in MassBank
Num Peaks: 1
222.1498	1000

NAME: Chloridazone-desphenyl; LC-ESI-ITFT; MS2; CE
PRECURSORMZ: 143.997013
PRECURSORTYPE: [M-H]-
FORMULA: C4H4ClN3O
Ontology: Aminopyridazines
INCHIKEY: FEWPCPCEGBPTAL-UHFFFAOYSA-N
SMILES: NC1=CN=NC(O)=C1Cl
RETENTIONTIME: 
CCS: -1
IONMODE: Negative
INSTRUMENTTYPE: LC-ESI-ITFT
INSTRUMENT: 
COLLISIONENERGY: 45
Comment: registered in MassBank
Num Peaks: 2
108.0207	56
143.9969	1000

NAME: Chloridazone-desphenyl; LC-ESI-ITFT; MS2; CE
PRECURSORMZ: 143.997013
PRECURSORTYPE: [M-H]-
FORMULA: C4H4ClN3O
Ontology: Aminopyridazines
INCHIKEY: FEWPCPCEGBPTAL-UHFFFAOYSA-N
SMILES: NC1=CN=NC(O)=C1Cl
RETENTIONTIME: 
CCS: -1
IONMODE: Negative
INSTRUMENTTYPE: LC-ESI-ITFT
INSTRUMENT: 
COLLISIONENERGY: 45
Comment: registered in MassBank
Num Peaks: 2
108.02	60
143.9969	1000

NAME: Ritalinic acid; LC-ESI-ITFT; MS2; CE
PRECURSORMZ: 218.118652
PRECURSORTYPE: [M-H]-
FORMULA: C13H17NO2
Ontology: Aralkylamines
INCHIKEY: INGSNVSERUZOAK-UHFFFAOYNA-N
SMILES: OC(=O)C(C1CCCCN1)C1=CC=CC=C1
RETENTIONTIME: 
CCS: 158.4080863
IONMODE: Negative
INSTRUMENTTYPE: LC-ESI-ITFT
INSTRUMENT: 
COLLISIONENERGY: 35
Comment: registered in MassBank
Num Peaks: 1
174.12891	1000

NAME: Ritalinic acid; LC-ESI-ITFT; MS2; CE
PRECURSORMZ: 218.118652
PRECURSORTYPE: [M-H]-
FORMULA: C13H17NO2
Ontology: Aralkylamines
INCHIKEY: INGSNVSERUZOAK-UHFFFAOYNA-N
SMILES: OC(=O)C(C1CCCCN1)C1=CC=CC=C1
RETENTIONTIME: 
CCS: 158.4080863
IONMODE: Negative
INSTRUMENTTYPE: LC-ESI-ITFT
INSTRUMENT: 
COLLISIONENERGY: 15
Comment: registered in MassBank
Num Peaks: 1
174.1295	1000

NAME: Ritalinic acid; LC-ESI-ITFT; MS2; CE
PRECURSORMZ: 218.118652
PRECURSORTYPE: [M-H]-
FORMULA: C13H17NO2
Ontology: Aralkylamines
INCHIKEY: INGSNVSERUZOAK-UHFFFAOYNA-N
SMILES: OC(=O)C(C1CCCCN1)C1=CC=CC=C1
RETENTIONTIME: 
CCS: 158.4080863
IONMODE: Negative
INSTRUMENTTYPE: LC-ESI-ITFT
INSTRUMENT: 
COLLISIONENERGY: 30
Comment: registered in MassBank
Num Peaks: 1
174.1283	1000

NAME: Ritalinic acid; LC-ESI-ITFT; MS2; CE
PRECURSORMZ: 218.118652
PRECURSORTYPE: [M-H]-
FORMULA: C13H17NO2
Ontology: Aralkylamines
INCHIKEY: INGSNVSERUZOAK-UHFFFAOYNA-N
SMILES: OC(=O)C(C1CCCCN1)C1=CC=CC=C1
RETENTIONTIME: 
CCS: 158.4080863
IONMODE: Negative
INSTRUMENTTYPE: LC-ESI-ITFT
INSTRUMENT: 
COLLISIONENERGY: 15
Comment: registered in MassBank
Num Peaks: 1
174.12891	1000

NAME: Ritalinic acid; LC-ESI-ITFT; MS2; CE
PRECURSORMZ: 218.118652
PRECURSORTYPE: [M-H]-
FORMULA: C13H17NO2
Ontology: Aralkylamines
INCHIKEY: INGSNVSERUZOAK-UHFFFAOYNA-N
SMILES: OC(=O)C(C1CCCCN1)C1=CC=CC=C1
RETENTIONTIME: 
CCS: 158.4080863
IONMODE: Negative
INSTRUMENTTYPE: LC-ESI-ITFT
INSTRUMENT: 
COLLISIONENERGY: 30
Comment: registered in MassBank
Num Peaks: 1
174.12849	1000

NAME: Sucralose; LC-ESI-ITFT; MS2; CE
PRECURSORMZ: 395.007274
PRECURSORTYPE: [M-H]-
FORMULA: C12H19Cl3O8
Ontology: C-glycosyl compounds
INCHIKEY: BAQAVOSOZGMPRM-QBMZZYIRSA-N
SMILES: OC[C@H]1O[C@H](O[C@]2(CCl)O[C@H](CCl)[C@@H](O)[C@@H]2O)[C@H](O)[C@@H](O)[C@H]1Cl
RETENTIONTIME: 
CCS: 178.0619732
IONMODE: Negative
INSTRUMENTTYPE: LC-ESI-ITFT
INSTRUMENT: 
COLLISIONENERGY: 35
Comment: registered in MassBank
Num Peaks: 1
359.03	1000

NAME: Sucralose; LC-ESI-ITFT; MS2; CE
PRECURSORMZ: 395.007274
PRECURSORTYPE: [M-H]-
FORMULA: C12H19Cl3O8
Ontology: C-glycosyl compounds
INCHIKEY: BAQAVOSOZGMPRM-QBMZZYIRSA-N
SMILES: OC[C@H]1O[C@H](O[C@]2(CCl)O[C@H](CCl)[C@@H](O)[C@@H]2O)[C@H](O)[C@@H](O)[C@H]1Cl
RETENTIONTIME: 
CCS: 178.0619732
IONMODE: Negative
INSTRUMENTTYPE: LC-ESI-ITFT
INSTRUMENT: 
COLLISIONENERGY: 35
Comment: registered in MassBank
Num Peaks: 1
359.03009	1000

NAME: Metazachlor ESA; LC-ESI-ITFT; MS2; CE
PRECURSORMZ: 322.0867
PRECURSORTYPE: [M-H]-
FORMULA: C14H17N3O4S
Ontology: Anilides
INCHIKEY: IPVCSECPEVHQOV-UHFFFAOYSA-N
SMILES: CC1=CC=CC(C)=C1N(CN1C=CC=N1)C(=O)CS(O)(=O)=O
RETENTIONTIME: 
CCS: -1
IONMODE: Negative
INSTRUMENTTYPE: LC-ESI-ITFT
INSTRUMENT: 
COLLISIONENERGY: 35
Comment: registered in MassBank
Num Peaks: 8
76.9704	11
119.9766	6
120.0818	8
120.9604	1000
130.06641	41
148.0771	270
188.998	8
242.04961	443

NAME: Metazachlor ESA; LC-ESI-ITFT; MS2; CE
PRECURSORMZ: 322.0867
PRECURSORTYPE: [M-H]-
FORMULA: C14H17N3O4S
Ontology: Anilides
INCHIKEY: IPVCSECPEVHQOV-UHFFFAOYSA-N
SMILES: CC1=CC=CC(C)=C1N(CN1C=CC=N1)C(=O)CS(O)(=O)=O
RETENTIONTIME: 
CCS: -1
IONMODE: Negative
INSTRUMENTTYPE: LC-ESI-ITFT
INSTRUMENT: 
COLLISIONENERGY: 30
Comment: registered in MassBank
Num Peaks: 7
67.0299	13
76.9704	31
79.9578	6
120.9604	157
148.077	84
242.04961	43
322.0871	1000

NAME: Metazachlor ESA; LC-ESI-ITFT; MS2; CE
PRECURSORMZ: 322.0867
PRECURSORTYPE: [M-H]-
FORMULA: C14H17N3O4S
Ontology: Anilides
INCHIKEY: IPVCSECPEVHQOV-UHFFFAOYSA-N
SMILES: CC1=CC=CC(C)=C1N(CN1C=CC=N1)C(=O)CS(O)(=O)=O
RETENTIONTIME: 
CCS: -1
IONMODE: Negative
INSTRUMENTTYPE: LC-ESI-ITFT
INSTRUMENT: 
COLLISIONENERGY: 45
Comment: registered in MassBank
Num Peaks: 9
67.0303	161
76.9704	288
79.9574	215
94.981	35
120.9604	1000
130.06641	110
148.0771	953
242.04961	223
322.0874	219

NAME: Metazachlor ESA; LC-ESI-ITFT; MS2; CE
PRECURSORMZ: 322.0867
PRECURSORTYPE: [M-H]-
FORMULA: C14H17N3O4S
Ontology: Anilides
INCHIKEY: IPVCSECPEVHQOV-UHFFFAOYSA-N
SMILES: CC1=CC=CC(C)=C1N(CN1C=CC=N1)C(=O)CS(O)(=O)=O
RETENTIONTIME: 
CCS: -1
IONMODE: Negative
INSTRUMENTTYPE: LC-ESI-ITFT
INSTRUMENT: 
COLLISIONENERGY: 60
Comment: registered in MassBank
Num Peaks: 10
67.0302	324
76.9703	667
79.9574	636
93.9733	60
94.9809	95
120.0821	315
120.9603	1000
130.06641	516
148.0771	967
242.04871	49

NAME: Metazachlor ESA; LC-ESI-ITFT; MS2; CE
PRECURSORMZ: 322.0867
PRECURSORTYPE: [M-H]-
FORMULA: C14H17N3O4S
Ontology: Anilides
INCHIKEY: IPVCSECPEVHQOV-UHFFFAOYSA-N
SMILES: CC1=CC=CC(C)=C1N(CN1C=CC=N1)C(=O)CS(O)(=O)=O
RETENTIONTIME: 
CCS: -1
IONMODE: Negative
INSTRUMENTTYPE: LC-ESI-ITFT
INSTRUMENT: 
COLLISIONENERGY: 75
Comment: registered in MassBank
Num Peaks: 8
67.0303	559
76.9704	960
79.9575	1000
93.9732	119
120.0821	556
120.9604	572
130.0665	831
148.0771	412

NAME: Metazachlor ESA; LC-ESI-ITFT; MS2; CE
PRECURSORMZ: 322.0867
PRECURSORTYPE: [M-H]-
FORMULA: C14H17N3O4S
Ontology: Anilides
INCHIKEY: IPVCSECPEVHQOV-UHFFFAOYSA-N
SMILES: CC1=CC=CC(C)=C1N(CN1C=CC=N1)C(=O)CS(O)(=O)=O
RETENTIONTIME: 
CCS: -1
IONMODE: Negative
INSTRUMENTTYPE: LC-ESI-ITFT
INSTRUMENT: 
COLLISIONENERGY: 90
Comment: registered in MassBank
Num Peaks: 7
67.0302	609
76.9703	850
79.9574	1000
93.973	162
120.0822	262
120.9606	118
130.0665	676

NAME: Metazachlor ESA; LC-ESI-ITFT; MS2; CE
PRECURSORMZ: 322.0867
PRECURSORTYPE: [M-H]-
FORMULA: C14H17N3O4S
Ontology: Anilides
INCHIKEY: IPVCSECPEVHQOV-UHFFFAOYSA-N
SMILES: CC1=CC=CC(C)=C1N(CN1C=CC=N1)C(=O)CS(O)(=O)=O
RETENTIONTIME: 
CCS: -1
IONMODE: Negative
INSTRUMENTTYPE: LC-ESI-ITFT
INSTRUMENT: 
COLLISIONENERGY: 30
Comment: registered in MassBank
Num Peaks: 5
76.9703	32
120.9602	137
148.077	74
242.0493	35
322.08679	1000

NAME: Metazachlor ESA; LC-ESI-ITFT; MS2; CE
PRECURSORMZ: 322.0867
PRECURSORTYPE: [M-H]-
FORMULA: C14H17N3O4S
Ontology: Anilides
INCHIKEY: IPVCSECPEVHQOV-UHFFFAOYSA-N
SMILES: CC1=CC=CC(C)=C1N(CN1C=CC=N1)C(=O)CS(O)(=O)=O
RETENTIONTIME: 
CCS: -1
IONMODE: Negative
INSTRUMENTTYPE: LC-ESI-ITFT
INSTRUMENT: 
COLLISIONENERGY: 45
Comment: registered in MassBank
Num Peaks: 9
67.0302	169
76.9703	271
79.9574	183
120.0819	35
120.9602	1000
130.06641	101
148.077	924
242.0491	231
322.08661	237

NAME: Metazachlor ESA; LC-ESI-ITFT; MS2; CE
PRECURSORMZ: 322.0867
PRECURSORTYPE: [M-H]-
FORMULA: C14H17N3O4S
Ontology: Anilides
INCHIKEY: IPVCSECPEVHQOV-UHFFFAOYSA-N
SMILES: CC1=CC=CC(C)=C1N(CN1C=CC=N1)C(=O)CS(O)(=O)=O
RETENTIONTIME: 
CCS: -1
IONMODE: Negative
INSTRUMENTTYPE: LC-ESI-ITFT
INSTRUMENT: 
COLLISIONENERGY: 60
Comment: registered in MassBank
Num Peaks: 8
67.0303	321
76.9703	597
79.9574	589
94.9812	113
120.0819	243
120.9602	892
130.06641	377
148.077	1000

NAME: Metazachlor ESA; LC-ESI-ITFT; MS2; CE
PRECURSORMZ: 322.0867
PRECURSORTYPE: [M-H]-
FORMULA: C14H17N3O4S
Ontology: Anilides
INCHIKEY: IPVCSECPEVHQOV-UHFFFAOYSA-N
SMILES: CC1=CC=CC(C)=C1N(CN1C=CC=N1)C(=O)CS(O)(=O)=O
RETENTIONTIME: 
CCS: -1
IONMODE: Negative
INSTRUMENTTYPE: LC-ESI-ITFT
INSTRUMENT: 
COLLISIONENERGY: 75
Comment: registered in MassBank
Num Peaks: 8
67.0302	418
76.9704	690
79.9575	1000
93.973	139
120.0821	485
120.9606	375
130.0663	848
148.0768	334

NAME: Metazachlor ESA; LC-ESI-ITFT; MS2; CE
PRECURSORMZ: 322.0867
PRECURSORTYPE: [M-H]-
FORMULA: C14H17N3O4S
Ontology: Anilides
INCHIKEY: IPVCSECPEVHQOV-UHFFFAOYSA-N
SMILES: CC1=CC=CC(C)=C1N(CN1C=CC=N1)C(=O)CS(O)(=O)=O
RETENTIONTIME: 
CCS: -1
IONMODE: Negative
INSTRUMENTTYPE: LC-ESI-ITFT
INSTRUMENT: 
COLLISIONENERGY: 90
Comment: registered in MassBank
Num Peaks: 5
67.0303	506
76.9704	1000
79.9574	844
120.0814	230
130.0668	626

NAME: Metazachlor ESA; LC-ESI-ITFT; MS2; CE
PRECURSORMZ: 322.0867
PRECURSORTYPE: [M-H]-
FORMULA: C14H17N3O4S
Ontology: Anilides
INCHIKEY: IPVCSECPEVHQOV-UHFFFAOYSA-N
SMILES: CC1=CC=CC(C)=C1N(CN1C=CC=N1)C(=O)CS(O)(=O)=O
RETENTIONTIME: 
CCS: -1
IONMODE: Negative
INSTRUMENTTYPE: LC-ESI-ITFT
INSTRUMENT: 
COLLISIONENERGY: 35
Comment: registered in MassBank
Num Peaks: 6
76.9706	6
120.9603	1000
130.06641	18
148.0769	205
188.9982	8
242.04939	366

NAME: Metazachlor OXA; LC-ESI-ITFT; MS2; CE
PRECURSORMZ: 272.104065
PRECURSORTYPE: [M-H]-
FORMULA: C14H15N3O3
Ontology: Alpha amino acids and derivatives
INCHIKEY: PHMHHVKFXZNTKU-UHFFFAOYSA-N
SMILES: CC1=CC=CC(C)=C1N(CN1C=CC=N1)C(=O)C(O)=O
RETENTIONTIME: 
CCS: -1
IONMODE: Negative
INSTRUMENTTYPE: LC-ESI-ITFT
INSTRUMENT: 
COLLISIONENERGY: 15
Comment: registered in MassBank
Num Peaks: 2
67.0303	1000
272.1041	22

NAME: Metazachlor OXA; LC-ESI-ITFT; MS2; CE
PRECURSORMZ: 272.104065
PRECURSORTYPE: [M-H]-
FORMULA: C14H15N3O3
Ontology: Alpha amino acids and derivatives
INCHIKEY: PHMHHVKFXZNTKU-UHFFFAOYSA-N
SMILES: CC1=CC=CC(C)=C1N(CN1C=CC=N1)C(=O)C(O)=O
RETENTIONTIME: 
CCS: -1
IONMODE: Negative
INSTRUMENTTYPE: LC-ESI-ITFT
INSTRUMENT: 
COLLISIONENERGY: 30
Comment: registered in MassBank
Num Peaks: 1
67.0303	1000

NAME: Metazachlor OXA; LC-ESI-ITFT; MS2; CE
PRECURSORMZ: 272.104065
PRECURSORTYPE: [M-H]-
FORMULA: C14H15N3O3
Ontology: Alpha amino acids and derivatives
INCHIKEY: PHMHHVKFXZNTKU-UHFFFAOYSA-N
SMILES: CC1=CC=CC(C)=C1N(CN1C=CC=N1)C(=O)C(O)=O
RETENTIONTIME: 
CCS: -1
IONMODE: Negative
INSTRUMENTTYPE: LC-ESI-ITFT
INSTRUMENT: 
COLLISIONENERGY: 45
Comment: registered in MassBank
Num Peaks: 1
67.0303	1000

NAME: Metazachlor OXA; LC-ESI-ITFT; MS2; CE
PRECURSORMZ: 272.104065
PRECURSORTYPE: [M-H]-
FORMULA: C14H15N3O3
Ontology: Alpha amino acids and derivatives
INCHIKEY: PHMHHVKFXZNTKU-UHFFFAOYSA-N
SMILES: CC1=CC=CC(C)=C1N(CN1C=CC=N1)C(=O)C(O)=O
RETENTIONTIME: 
CCS: -1
IONMODE: Negative
INSTRUMENTTYPE: LC-ESI-ITFT
INSTRUMENT: 
COLLISIONENERGY: 60
Comment: registered in MassBank
Num Peaks: 1
67.0302	1000

NAME: Metazachlor OXA; LC-ESI-ITFT; MS2; CE
PRECURSORMZ: 272.104065
PRECURSORTYPE: [M-H]-
FORMULA: C14H15N3O3
Ontology: Alpha amino acids and derivatives
INCHIKEY: PHMHHVKFXZNTKU-UHFFFAOYSA-N
SMILES: CC1=CC=CC(C)=C1N(CN1C=CC=N1)C(=O)C(O)=O
RETENTIONTIME: 
CCS: -1
IONMODE: Negative
INSTRUMENTTYPE: LC-ESI-ITFT
INSTRUMENT: 
COLLISIONENERGY: 75
Comment: registered in MassBank
Num Peaks: 1
67.0303	1000

NAME: Metazachlor OXA; LC-ESI-ITFT; MS2; CE
PRECURSORMZ: 272.104065
PRECURSORTYPE: [M-H]-
FORMULA: C14H15N3O3
Ontology: Alpha amino acids and derivatives
INCHIKEY: PHMHHVKFXZNTKU-UHFFFAOYSA-N
SMILES: CC1=CC=CC(C)=C1N(CN1C=CC=N1)C(=O)C(O)=O
RETENTIONTIME: 
CCS: -1
IONMODE: Negative
INSTRUMENTTYPE: LC-ESI-ITFT
INSTRUMENT: 
COLLISIONENERGY: 90
Comment: registered in MassBank
Num Peaks: 1
67.0303	1000

NAME: Metazachlor OXA; LC-ESI-ITFT; MS2; CE
PRECURSORMZ: 272.104065
PRECURSORTYPE: [M-H]-
FORMULA: C14H15N3O3
Ontology: Alpha amino acids and derivatives
INCHIKEY: PHMHHVKFXZNTKU-UHFFFAOYSA-N
SMILES: CC1=CC=CC(C)=C1N(CN1C=CC=N1)C(=O)C(O)=O
RETENTIONTIME: 
CCS: -1
IONMODE: Negative
INSTRUMENTTYPE: LC-ESI-ITFT
INSTRUMENT: 
COLLISIONENERGY: 15
Comment: registered in MassBank
Num Peaks: 2
67.0303	1000
272.1044	21

NAME: Metazachlor OXA; LC-ESI-ITFT; MS2; CE
PRECURSORMZ: 272.104065
PRECURSORTYPE: [M-H]-
FORMULA: C14H15N3O3
Ontology: Alpha amino acids and derivatives
INCHIKEY: PHMHHVKFXZNTKU-UHFFFAOYSA-N
SMILES: CC1=CC=CC(C)=C1N(CN1C=CC=N1)C(=O)C(O)=O
RETENTIONTIME: 
CCS: -1
IONMODE: Negative
INSTRUMENTTYPE: LC-ESI-ITFT
INSTRUMENT: 
COLLISIONENERGY: 30
Comment: registered in MassBank
Num Peaks: 1
67.0303	1000

NAME: Metazachlor OXA; LC-ESI-ITFT; MS2; CE
PRECURSORMZ: 272.104065
PRECURSORTYPE: [M-H]-
FORMULA: C14H15N3O3
Ontology: Alpha amino acids and derivatives
INCHIKEY: PHMHHVKFXZNTKU-UHFFFAOYSA-N
SMILES: CC1=CC=CC(C)=C1N(CN1C=CC=N1)C(=O)C(O)=O
RETENTIONTIME: 
CCS: -1
IONMODE: Negative
INSTRUMENTTYPE: LC-ESI-ITFT
INSTRUMENT: 
COLLISIONENERGY: 45
Comment: registered in MassBank
Num Peaks: 1
67.0303	1000

NAME: Metazachlor OXA; LC-ESI-ITFT; MS2; CE
PRECURSORMZ: 272.104065
PRECURSORTYPE: [M-H]-
FORMULA: C14H15N3O3
Ontology: Alpha amino acids and derivatives
INCHIKEY: PHMHHVKFXZNTKU-UHFFFAOYSA-N
SMILES: CC1=CC=CC(C)=C1N(CN1C=CC=N1)C(=O)C(O)=O
RETENTIONTIME: 
CCS: -1
IONMODE: Negative
INSTRUMENTTYPE: LC-ESI-ITFT
INSTRUMENT: 
COLLISIONENERGY: 60
Comment: registered in MassBank
Num Peaks: 1
67.0303	1000

NAME: Metazachlor OXA; LC-ESI-ITFT; MS2; CE
PRECURSORMZ: 272.104065
PRECURSORTYPE: [M-H]-
FORMULA: C14H15N3O3
Ontology: Alpha amino acids and derivatives
INCHIKEY: PHMHHVKFXZNTKU-UHFFFAOYSA-N
SMILES: CC1=CC=CC(C)=C1N(CN1C=CC=N1)C(=O)C(O)=O
RETENTIONTIME: 
CCS: -1
IONMODE: Negative
INSTRUMENTTYPE: LC-ESI-ITFT
INSTRUMENT: 
COLLISIONENERGY: 75
Comment: registered in MassBank
Num Peaks: 1
67.0303	1000

NAME: Metazachlor OXA; LC-ESI-ITFT; MS2; CE
PRECURSORMZ: 272.104065
PRECURSORTYPE: [M-H]-
FORMULA: C14H15N3O3
Ontology: Alpha amino acids and derivatives
INCHIKEY: PHMHHVKFXZNTKU-UHFFFAOYSA-N
SMILES: CC1=CC=CC(C)=C1N(CN1C=CC=N1)C(=O)C(O)=O
RETENTIONTIME: 
CCS: -1
IONMODE: Negative
INSTRUMENTTYPE: LC-ESI-ITFT
INSTRUMENT: 
COLLISIONENERGY: 90
Comment: registered in MassBank
Num Peaks: 1
67.0303	1000

NAME: 3,5-Dibromo-4-hydroxybenzoic acid; LC-ESI-ITFT; MS2; CE
PRECURSORMZ: 292.845443
PRECURSORTYPE: [M-H]-
FORMULA: C7H4Br2O3
Ontology: Hydroxybenzoic acid derivatives
INCHIKEY: PHWAJJWKNLWZGJ-UHFFFAOYSA-N
SMILES: OC(=O)C1=CC(Br)=C(O)C(Br)=C1
RETENTIONTIME: 
CCS: 141.0142176
IONMODE: Negative
INSTRUMENTTYPE: LC-ESI-ITFT
INSTRUMENT: 
COLLISIONENERGY: 35
Comment: registered in MassBank
Num Peaks: 1
248.8555	1000

NAME: 3,5-Dibromo-4-hydroxybenzoic acid; LC-ESI-ITFT; MS2; CE
PRECURSORMZ: 292.845443
PRECURSORTYPE: [M-H]-
FORMULA: C7H4Br2O3
Ontology: Hydroxybenzoic acid derivatives
INCHIKEY: PHWAJJWKNLWZGJ-UHFFFAOYSA-N
SMILES: OC(=O)C1=CC(Br)=C(O)C(Br)=C1
RETENTIONTIME: 
CCS: 141.0142176
IONMODE: Negative
INSTRUMENTTYPE: LC-ESI-ITFT
INSTRUMENT: 
COLLISIONENERGY: 15
Comment: registered in MassBank
Num Peaks: 2
248.8558	17
292.84509	1000

NAME: 3,5-Dibromo-4-hydroxybenzoic acid; LC-ESI-ITFT; MS2; CE
PRECURSORMZ: 292.845443
PRECURSORTYPE: [M-H]-
FORMULA: C7H4Br2O3
Ontology: Hydroxybenzoic acid derivatives
INCHIKEY: PHWAJJWKNLWZGJ-UHFFFAOYSA-N
SMILES: OC(=O)C1=CC(Br)=C(O)C(Br)=C1
RETENTIONTIME: 
CCS: 141.0142176
IONMODE: Negative
INSTRUMENTTYPE: LC-ESI-ITFT
INSTRUMENT: 
COLLISIONENERGY: 30
Comment: registered in MassBank
Num Peaks: 3
78.9189	79
248.8555	616
292.84521	1000

NAME: 3,5-Dibromo-4-hydroxybenzoic acid; LC-ESI-ITFT; MS2; CE
PRECURSORMZ: 292.845443
PRECURSORTYPE: [M-H]-
FORMULA: C7H4Br2O3
Ontology: Hydroxybenzoic acid derivatives
INCHIKEY: PHWAJJWKNLWZGJ-UHFFFAOYSA-N
SMILES: OC(=O)C1=CC(Br)=C(O)C(Br)=C1
RETENTIONTIME: 
CCS: 141.0142176
IONMODE: Negative
INSTRUMENTTYPE: LC-ESI-ITFT
INSTRUMENT: 
COLLISIONENERGY: 45
Comment: registered in MassBank
Num Peaks: 3
78.9187	627
248.85519	1000
292.845	231

NAME: 3,5-Dibromo-4-hydroxybenzoic acid; LC-ESI-ITFT; MS2; CE
PRECURSORMZ: 292.845443
PRECURSORTYPE: [M-H]-
FORMULA: C7H4Br2O3
Ontology: Hydroxybenzoic acid derivatives
INCHIKEY: PHWAJJWKNLWZGJ-UHFFFAOYSA-N
SMILES: OC(=O)C1=CC(Br)=C(O)C(Br)=C1
RETENTIONTIME: 
CCS: 141.0142176
IONMODE: Negative
INSTRUMENTTYPE: LC-ESI-ITFT
INSTRUMENT: 
COLLISIONENERGY: 60
Comment: registered in MassBank
Num Peaks: 2
78.9189	1000
248.8557	328

NAME: 3,5-Dibromo-4-hydroxybenzoic acid; LC-ESI-ITFT; MS2; CE
PRECURSORMZ: 292.845443
PRECURSORTYPE: [M-H]-
FORMULA: C7H4Br2O3
Ontology: Hydroxybenzoic acid derivatives
INCHIKEY: PHWAJJWKNLWZGJ-UHFFFAOYSA-N
SMILES: OC(=O)C1=CC(Br)=C(O)C(Br)=C1
RETENTIONTIME: 
CCS: 141.0142176
IONMODE: Negative
INSTRUMENTTYPE: LC-ESI-ITFT
INSTRUMENT: 
COLLISIONENERGY: 75
Comment: registered in MassBank
Num Peaks: 2
78.9188	1000
248.8562	52

NAME: 3,5-Dibromo-4-hydroxybenzoic acid; LC-ESI-ITFT; MS2; CE
PRECURSORMZ: 292.845443
PRECURSORTYPE: [M-H]-
FORMULA: C7H4Br2O3
Ontology: Hydroxybenzoic acid derivatives
INCHIKEY: PHWAJJWKNLWZGJ-UHFFFAOYSA-N
SMILES: OC(=O)C1=CC(Br)=C(O)C(Br)=C1
RETENTIONTIME: 
CCS: 141.0142176
IONMODE: Negative
INSTRUMENTTYPE: LC-ESI-ITFT
INSTRUMENT: 
COLLISIONENERGY: 90
Comment: registered in MassBank
Num Peaks: 1
78.9188	1000

NAME: 3,5-Dibromo-4-hydroxybenzoic acid; LC-ESI-ITFT; MS2; CE
PRECURSORMZ: 292.845443
PRECURSORTYPE: [M-H]-
FORMULA: C7H4Br2O3
Ontology: Hydroxybenzoic acid derivatives
INCHIKEY: PHWAJJWKNLWZGJ-UHFFFAOYSA-N
SMILES: OC(=O)C1=CC(Br)=C(O)C(Br)=C1
RETENTIONTIME: 
CCS: 141.0142176
IONMODE: Negative
INSTRUMENTTYPE: LC-ESI-ITFT
INSTRUMENT: 
COLLISIONENERGY: 15
Comment: registered in MassBank
Num Peaks: 2
248.85651	16
292.845	1000

NAME: 3,5-Dibromo-4-hydroxybenzoic acid; LC-ESI-ITFT; MS2; CE
PRECURSORMZ: 292.845443
PRECURSORTYPE: [M-H]-
FORMULA: C7H4Br2O3
Ontology: Hydroxybenzoic acid derivatives
INCHIKEY: PHWAJJWKNLWZGJ-UHFFFAOYSA-N
SMILES: OC(=O)C1=CC(Br)=C(O)C(Br)=C1
RETENTIONTIME: 
CCS: 141.0142176
IONMODE: Negative
INSTRUMENTTYPE: LC-ESI-ITFT
INSTRUMENT: 
COLLISIONENERGY: 30
Comment: registered in MassBank
Num Peaks: 3
78.9188	102
248.85519	619
292.845	1000

NAME: 3,5-Dibromo-4-hydroxybenzoic acid; LC-ESI-ITFT; MS2; CE
PRECURSORMZ: 292.845443
PRECURSORTYPE: [M-H]-
FORMULA: C7H4Br2O3
Ontology: Hydroxybenzoic acid derivatives
INCHIKEY: PHWAJJWKNLWZGJ-UHFFFAOYSA-N
SMILES: OC(=O)C1=CC(Br)=C(O)C(Br)=C1
RETENTIONTIME: 
CCS: 141.0142176
IONMODE: Negative
INSTRUMENTTYPE: LC-ESI-ITFT
INSTRUMENT: 
COLLISIONENERGY: 45
Comment: registered in MassBank
Num Peaks: 4
78.9188	430
189.8264	20
248.85539	1000
292.84491	205

NAME: 3,5-Dibromo-4-hydroxybenzoic acid; LC-ESI-ITFT; MS2; CE
PRECURSORMZ: 292.845443
PRECURSORTYPE: [M-H]-
FORMULA: C7H4Br2O3
Ontology: Hydroxybenzoic acid derivatives
INCHIKEY: PHWAJJWKNLWZGJ-UHFFFAOYSA-N
SMILES: OC(=O)C1=CC(Br)=C(O)C(Br)=C1
RETENTIONTIME: 
CCS: 141.0142176
IONMODE: Negative
INSTRUMENTTYPE: LC-ESI-ITFT
INSTRUMENT: 
COLLISIONENERGY: 60
Comment: registered in MassBank
Num Peaks: 2
78.9188	1000
248.85539	421

NAME: 3,5-Dibromo-4-hydroxybenzoic acid; LC-ESI-ITFT; MS2; CE
PRECURSORMZ: 292.845443
PRECURSORTYPE: [M-H]-
FORMULA: C7H4Br2O3
Ontology: Hydroxybenzoic acid derivatives
INCHIKEY: PHWAJJWKNLWZGJ-UHFFFAOYSA-N
SMILES: OC(=O)C1=CC(Br)=C(O)C(Br)=C1
RETENTIONTIME: 
CCS: 141.0142176
IONMODE: Negative
INSTRUMENTTYPE: LC-ESI-ITFT
INSTRUMENT: 
COLLISIONENERGY: 75
Comment: registered in MassBank
Num Peaks: 3
78.9188	1000
189.82719	46
248.85519	82

NAME: 3,5-Dibromo-4-hydroxybenzoic acid; LC-ESI-ITFT; MS2; CE
PRECURSORMZ: 292.845443
PRECURSORTYPE: [M-H]-
FORMULA: C7H4Br2O3
Ontology: Hydroxybenzoic acid derivatives
INCHIKEY: PHWAJJWKNLWZGJ-UHFFFAOYSA-N
SMILES: OC(=O)C1=CC(Br)=C(O)C(Br)=C1
RETENTIONTIME: 
CCS: 141.0142176
IONMODE: Negative
INSTRUMENTTYPE: LC-ESI-ITFT
INSTRUMENT: 
COLLISIONENERGY: 90
Comment: registered in MassBank
Num Peaks: 1
78.9189	1000

NAME: 3,5-Dibromo-4-hydroxybenzoic acid; LC-ESI-ITFT; MS2; CE
PRECURSORMZ: 292.845443
PRECURSORTYPE: [M-H]-
FORMULA: C7H4Br2O3
Ontology: Hydroxybenzoic acid derivatives
INCHIKEY: PHWAJJWKNLWZGJ-UHFFFAOYSA-N
SMILES: OC(=O)C1=CC(Br)=C(O)C(Br)=C1
RETENTIONTIME: 
CCS: 141.0142176
IONMODE: Negative
INSTRUMENTTYPE: LC-ESI-ITFT
INSTRUMENT: 
COLLISIONENERGY: 35
Comment: registered in MassBank
Num Peaks: 1
248.8553	1000

NAME: Dimethachlor ESA; LC-ESI-ITFT; MS2; CE
PRECURSORMZ: 300.091117
PRECURSORTYPE: [M-H]-
FORMULA: C13H19NO5S
Ontology: Anilides
INCHIKEY: RVSCDWJKJDBFRS-UHFFFAOYSA-N
SMILES: COCCN(C(=O)CS(O)(=O)=O)C1=C(C)C=CC=C1C
RETENTIONTIME: 
CCS: -1
IONMODE: Negative
INSTRUMENTTYPE: LC-ESI-ITFT
INSTRUMENT: 
COLLISIONENERGY: 35
Comment: registered in MassBank
Num Peaks: 13
76.9702	13
119.9764	7
120.96	1000
130.0658	8
144.0815	10
146.0974	95
162.99429	11
178.01801	63
178.1236	23
186.0925	5
204.10271	35
236.12869	7
268.0647	65

NAME: Dimethachlor ESA; LC-ESI-ITFT; MS2; CE
PRECURSORMZ: 300.091117
PRECURSORTYPE: [M-H]-
FORMULA: C13H19NO5S
Ontology: Anilides
INCHIKEY: RVSCDWJKJDBFRS-UHFFFAOYSA-N
SMILES: COCCN(C(=O)CS(O)(=O)=O)C1=C(C)C=CC=C1C
RETENTIONTIME: 
CCS: -1
IONMODE: Negative
INSTRUMENTTYPE: LC-ESI-ITFT
INSTRUMENT: 
COLLISIONENERGY: 30
Comment: registered in MassBank
Num Peaks: 5
76.97	16
79.9571	39
120.96	63
146.0979	6
300.09079	1000

NAME: Dimethachlor ESA; LC-ESI-ITFT; MS2; CE
PRECURSORMZ: 300.091117
PRECURSORTYPE: [M-H]-
FORMULA: C13H19NO5S
Ontology: Anilides
INCHIKEY: RVSCDWJKJDBFRS-UHFFFAOYSA-N
SMILES: COCCN(C(=O)CS(O)(=O)=O)C1=C(C)C=CC=C1C
RETENTIONTIME: 
CCS: -1
IONMODE: Negative
INSTRUMENTTYPE: LC-ESI-ITFT
INSTRUMENT: 
COLLISIONENERGY: 45
Comment: registered in MassBank
Num Peaks: 9
76.9702	153
79.9573	1000
120.96	499
121.0658	36
130.0665	17
146.0975	60
178.0182	31
178.1236	39
300.091	546

NAME: Dimethachlor ESA; LC-ESI-ITFT; MS2; CE
PRECURSORMZ: 300.091117
PRECURSORTYPE: [M-H]-
FORMULA: C13H19NO5S
Ontology: Anilides
INCHIKEY: RVSCDWJKJDBFRS-UHFFFAOYSA-N
SMILES: COCCN(C(=O)CS(O)(=O)=O)C1=C(C)C=CC=C1C
RETENTIONTIME: 
CCS: -1
IONMODE: Negative
INSTRUMENTTYPE: LC-ESI-ITFT
INSTRUMENT: 
COLLISIONENERGY: 60
Comment: registered in MassBank
Num Peaks: 8
76.9702	123
79.9573	1000
119.9762	22
120.96	211
121.0658	30
130.06641	20
144.08231	16
146.0975	25

NAME: Dimethachlor ESA; LC-ESI-ITFT; MS2; CE
PRECURSORMZ: 300.091117
PRECURSORTYPE: [M-H]-
FORMULA: C13H19NO5S
Ontology: Anilides
INCHIKEY: RVSCDWJKJDBFRS-UHFFFAOYSA-N
SMILES: COCCN(C(=O)CS(O)(=O)=O)C1=C(C)C=CC=C1C
RETENTIONTIME: 
CCS: -1
IONMODE: Negative
INSTRUMENTTYPE: LC-ESI-ITFT
INSTRUMENT: 
COLLISIONENERGY: 75
Comment: registered in MassBank
Num Peaks: 7
76.9702	100
79.9573	1000
119.9759	19
120.9602	48
121.0656	27
130.0661	23
144.082	13

NAME: Dimethachlor ESA; LC-ESI-ITFT; MS2; CE
PRECURSORMZ: 300.091117
PRECURSORTYPE: [M-H]-
FORMULA: C13H19NO5S
Ontology: Anilides
INCHIKEY: RVSCDWJKJDBFRS-UHFFFAOYSA-N
SMILES: COCCN(C(=O)CS(O)(=O)=O)C1=C(C)C=CC=C1C
RETENTIONTIME: 
CCS: -1
IONMODE: Negative
INSTRUMENTTYPE: LC-ESI-ITFT
INSTRUMENT: 
COLLISIONENERGY: 90
Comment: registered in MassBank
Num Peaks: 3
76.9703	92
79.9573	1000
121.0662	18

NAME: Dimethachlor ESA; LC-ESI-ITFT; MS2; CE
PRECURSORMZ: 300.091117
PRECURSORTYPE: [M-H]-
FORMULA: C13H19NO5S
Ontology: Anilides
INCHIKEY: RVSCDWJKJDBFRS-UHFFFAOYSA-N
SMILES: COCCN(C(=O)CS(O)(=O)=O)C1=C(C)C=CC=C1C
RETENTIONTIME: 
CCS: -1
IONMODE: Negative
INSTRUMENTTYPE: LC-ESI-ITFT
INSTRUMENT: 
COLLISIONENERGY: 30
Comment: registered in MassBank
Num Peaks: 4
76.9701	11
79.9572	26
120.96	45
300.091	1000

NAME: Dimethachlor ESA; LC-ESI-ITFT; MS2; CE
PRECURSORMZ: 300.091117
PRECURSORTYPE: [M-H]-
FORMULA: C13H19NO5S
Ontology: Anilides
INCHIKEY: RVSCDWJKJDBFRS-UHFFFAOYSA-N
SMILES: COCCN(C(=O)CS(O)(=O)=O)C1=C(C)C=CC=C1C
RETENTIONTIME: 
CCS: -1
IONMODE: Negative
INSTRUMENTTYPE: LC-ESI-ITFT
INSTRUMENT: 
COLLISIONENERGY: 45
Comment: registered in MassBank
Num Peaks: 10
76.9701	123
79.9573	1000
120.9599	395
121.0657	23
130.0659	22
144.0826	13
146.0974	57
178.0172	17
178.1234	34
300.09061	434

NAME: Dimethachlor ESA; LC-ESI-ITFT; MS2; CE
PRECURSORMZ: 300.091117
PRECURSORTYPE: [M-H]-
FORMULA: C13H19NO5S
Ontology: Anilides
INCHIKEY: RVSCDWJKJDBFRS-UHFFFAOYSA-N
SMILES: COCCN(C(=O)CS(O)(=O)=O)C1=C(C)C=CC=C1C
RETENTIONTIME: 
CCS: -1
IONMODE: Negative
INSTRUMENTTYPE: LC-ESI-ITFT
INSTRUMENT: 
COLLISIONENERGY: 60
Comment: registered in MassBank
Num Peaks: 8
76.9701	94
79.9573	1000
119.976	15
120.96	133
121.0659	26
130.06619	13
146.0975	21
300.09	10

NAME: Dimethachlor ESA; LC-ESI-ITFT; MS2; CE
PRECURSORMZ: 300.091117
PRECURSORTYPE: [M-H]-
FORMULA: C13H19NO5S
Ontology: Anilides
INCHIKEY: RVSCDWJKJDBFRS-UHFFFAOYSA-N
SMILES: COCCN(C(=O)CS(O)(=O)=O)C1=C(C)C=CC=C1C
RETENTIONTIME: 
CCS: -1
IONMODE: Negative
INSTRUMENTTYPE: LC-ESI-ITFT
INSTRUMENT: 
COLLISIONENERGY: 75
Comment: registered in MassBank
Num Peaks: 3
76.9702	97
79.9573	1000
120.9599	43

NAME: Dimethachlor ESA; LC-ESI-ITFT; MS2; CE
PRECURSORMZ: 300.091117
PRECURSORTYPE: [M-H]-
FORMULA: C13H19NO5S
Ontology: Anilides
INCHIKEY: RVSCDWJKJDBFRS-UHFFFAOYSA-N
SMILES: COCCN(C(=O)CS(O)(=O)=O)C1=C(C)C=CC=C1C
RETENTIONTIME: 
CCS: -1
IONMODE: Negative
INSTRUMENTTYPE: LC-ESI-ITFT
INSTRUMENT: 
COLLISIONENERGY: 90
Comment: registered in MassBank
Num Peaks: 2
76.9701	54
79.9573	1000

NAME: Dimethachlor ESA; LC-ESI-ITFT; MS2; CE
PRECURSORMZ: 300.091117
PRECURSORTYPE: [M-H]-
FORMULA: C13H19NO5S
Ontology: Anilides
INCHIKEY: RVSCDWJKJDBFRS-UHFFFAOYSA-N
SMILES: COCCN(C(=O)CS(O)(=O)=O)C1=C(C)C=CC=C1C
RETENTIONTIME: 
CCS: -1
IONMODE: Negative
INSTRUMENTTYPE: LC-ESI-ITFT
INSTRUMENT: 
COLLISIONENERGY: 35
Comment: registered in MassBank
Num Peaks: 7
76.9702	7
120.96	1000
146.09731	76
178.0177	38
178.1236	12
204.10249	14
268.0647	34

NAME: Dimethachlor OXA; LC-ESI-ITFT; MS2; CE
PRECURSORMZ: 250.108482
PRECURSORTYPE: [M-H]-
FORMULA: C13H17NO4
Ontology: Alpha amino acids and derivatives
INCHIKEY: MHGMSAFPNAKIRZ-UHFFFAOYSA-N
SMILES: COCCN(C(=O)C(O)=O)C1=C(C)C=CC=C1C
RETENTIONTIME: 
CCS: -1
IONMODE: Negative
INSTRUMENTTYPE: LC-ESI-ITFT
INSTRUMENT: 
COLLISIONENERGY: 35
Comment: registered in MassBank
Num Peaks: 1
178.12399	1000

NAME: Dimethachlor OXA; LC-ESI-ITFT; MS2; CE
PRECURSORMZ: 250.108482
PRECURSORTYPE: [M-H]-
FORMULA: C13H17NO4
Ontology: Alpha amino acids and derivatives
INCHIKEY: MHGMSAFPNAKIRZ-UHFFFAOYSA-N
SMILES: COCCN(C(=O)C(O)=O)C1=C(C)C=CC=C1C
RETENTIONTIME: 
CCS: -1
IONMODE: Negative
INSTRUMENTTYPE: LC-ESI-ITFT
INSTRUMENT: 
COLLISIONENERGY: 15
Comment: registered in MassBank
Num Peaks: 5
130.06619	15
144.0818	26
146.0974	47
178.1237	1000
250.10851	81

NAME: Dimethachlor OXA; LC-ESI-ITFT; MS2; CE
PRECURSORMZ: 250.108482
PRECURSORTYPE: [M-H]-
FORMULA: C13H17NO4
Ontology: Alpha amino acids and derivatives
INCHIKEY: MHGMSAFPNAKIRZ-UHFFFAOYSA-N
SMILES: COCCN(C(=O)C(O)=O)C1=C(C)C=CC=C1C
RETENTIONTIME: 
CCS: -1
IONMODE: Negative
INSTRUMENTTYPE: LC-ESI-ITFT
INSTRUMENT: 
COLLISIONENERGY: 30
Comment: registered in MassBank
Num Peaks: 5
120.0818	6
130.0661	40
144.08189	59
146.0974	91
178.12379	1000

NAME: Dimethachlor OXA; LC-ESI-ITFT; MS2; CE
PRECURSORMZ: 250.108482
PRECURSORTYPE: [M-H]-
FORMULA: C13H17NO4
Ontology: Alpha amino acids and derivatives
INCHIKEY: MHGMSAFPNAKIRZ-UHFFFAOYSA-N
SMILES: COCCN(C(=O)C(O)=O)C1=C(C)C=CC=C1C
RETENTIONTIME: 
CCS: -1
IONMODE: Negative
INSTRUMENTTYPE: LC-ESI-ITFT
INSTRUMENT: 
COLLISIONENERGY: 45
Comment: registered in MassBank
Num Peaks: 8
120.0819	77
130.06619	461
132.0822	19
142.0663	24
144.0818	367
146.0974	328
161.0849	26
178.1237	1000

NAME: Dimethachlor OXA; LC-ESI-ITFT; MS2; CE
PRECURSORMZ: 250.108482
PRECURSORTYPE: [M-H]-
FORMULA: C13H17NO4
Ontology: Alpha amino acids and derivatives
INCHIKEY: MHGMSAFPNAKIRZ-UHFFFAOYSA-N
SMILES: COCCN(C(=O)C(O)=O)C1=C(C)C=CC=C1C
RETENTIONTIME: 
CCS: -1
IONMODE: Negative
INSTRUMENTTYPE: LC-ESI-ITFT
INSTRUMENT: 
COLLISIONENERGY: 60
Comment: registered in MassBank
Num Peaks: 6
120.0821	150
130.06619	1000
142.0656	110
144.0818	445
146.09711	102
178.12379	156

NAME: Dimethachlor OXA; LC-ESI-ITFT; MS2; CE
PRECURSORMZ: 250.108482
PRECURSORTYPE: [M-H]-
FORMULA: C13H17NO4
Ontology: Alpha amino acids and derivatives
INCHIKEY: MHGMSAFPNAKIRZ-UHFFFAOYSA-N
SMILES: COCCN(C(=O)C(O)=O)C1=C(C)C=CC=C1C
RETENTIONTIME: 
CCS: -1
IONMODE: Negative
INSTRUMENTTYPE: LC-ESI-ITFT
INSTRUMENT: 
COLLISIONENERGY: 75
Comment: registered in MassBank
Num Peaks: 4
120.0817	136
130.0661	1000
142.0665	70
144.0817	329

NAME: Dimethachlor OXA; LC-ESI-ITFT; MS2; CE
PRECURSORMZ: 250.108482
PRECURSORTYPE: [M-H]-
FORMULA: C13H17NO4
Ontology: Alpha amino acids and derivatives
INCHIKEY: MHGMSAFPNAKIRZ-UHFFFAOYSA-N
SMILES: COCCN(C(=O)C(O)=O)C1=C(C)C=CC=C1C
RETENTIONTIME: 
CCS: -1
IONMODE: Negative
INSTRUMENTTYPE: LC-ESI-ITFT
INSTRUMENT: 
COLLISIONENERGY: 90
Comment: registered in MassBank
Num Peaks: 2
130.0661	1000
144.0815	197

NAME: Dimethachlor OXA; LC-ESI-ITFT; MS2; CE
PRECURSORMZ: 250.108482
PRECURSORTYPE: [M-H]-
FORMULA: C13H17NO4
Ontology: Alpha amino acids and derivatives
INCHIKEY: MHGMSAFPNAKIRZ-UHFFFAOYSA-N
SMILES: COCCN(C(=O)C(O)=O)C1=C(C)C=CC=C1C
RETENTIONTIME: 
CCS: -1
IONMODE: Negative
INSTRUMENTTYPE: LC-ESI-ITFT
INSTRUMENT: 
COLLISIONENERGY: 15
Comment: registered in MassBank
Num Peaks: 5
130.06599	12
144.0816	22
146.0974	38
178.12379	1000
250.1082	64

NAME: Dimethachlor OXA; LC-ESI-ITFT; MS2; CE
PRECURSORMZ: 250.108482
PRECURSORTYPE: [M-H]-
FORMULA: C13H17NO4
Ontology: Alpha amino acids and derivatives
INCHIKEY: MHGMSAFPNAKIRZ-UHFFFAOYSA-N
SMILES: COCCN(C(=O)C(O)=O)C1=C(C)C=CC=C1C
RETENTIONTIME: 
CCS: -1
IONMODE: Negative
INSTRUMENTTYPE: LC-ESI-ITFT
INSTRUMENT: 
COLLISIONENERGY: 30
Comment: registered in MassBank
Num Peaks: 4
130.06599	35
144.0816	49
146.0974	85
178.12379	1000

NAME: Dimethachlor OXA; LC-ESI-ITFT; MS2; CE
PRECURSORMZ: 250.108482
PRECURSORTYPE: [M-H]-
FORMULA: C13H17NO4
Ontology: Alpha amino acids and derivatives
INCHIKEY: MHGMSAFPNAKIRZ-UHFFFAOYSA-N
SMILES: COCCN(C(=O)C(O)=O)C1=C(C)C=CC=C1C
RETENTIONTIME: 
CCS: -1
IONMODE: Negative
INSTRUMENTTYPE: LC-ESI-ITFT
INSTRUMENT: 
COLLISIONENERGY: 45
Comment: registered in MassBank
Num Peaks: 8
120.0817	48
130.0661	414
132.08189	13
142.06619	39
144.0817	365
146.0974	306
161.0843	18
178.1236	1000

NAME: Dimethachlor OXA; LC-ESI-ITFT; MS2; CE
PRECURSORMZ: 250.108482
PRECURSORTYPE: [M-H]-
FORMULA: C13H17NO4
Ontology: Alpha amino acids and derivatives
INCHIKEY: MHGMSAFPNAKIRZ-UHFFFAOYSA-N
SMILES: COCCN(C(=O)C(O)=O)C1=C(C)C=CC=C1C
RETENTIONTIME: 
CCS: -1
IONMODE: Negative
INSTRUMENTTYPE: LC-ESI-ITFT
INSTRUMENT: 
COLLISIONENERGY: 60
Comment: registered in MassBank
Num Peaks: 6
120.0817	174
130.06599	1000
142.06619	105
144.0817	611
146.097	188
178.12399	166

NAME: Dimethachlor OXA; LC-ESI-ITFT; MS2; CE
PRECURSORMZ: 250.108482
PRECURSORTYPE: [M-H]-
FORMULA: C13H17NO4
Ontology: Alpha amino acids and derivatives
INCHIKEY: MHGMSAFPNAKIRZ-UHFFFAOYSA-N
SMILES: COCCN(C(=O)C(O)=O)C1=C(C)C=CC=C1C
RETENTIONTIME: 
CCS: -1
IONMODE: Negative
INSTRUMENTTYPE: LC-ESI-ITFT
INSTRUMENT: 
COLLISIONENERGY: 75
Comment: registered in MassBank
Num Peaks: 3
120.0818	189
130.0659	1000
144.0815	369

NAME: Dimethachlor OXA; LC-ESI-ITFT; MS2; CE
PRECURSORMZ: 250.108482
PRECURSORTYPE: [M-H]-
FORMULA: C13H17NO4
Ontology: Alpha amino acids and derivatives
INCHIKEY: MHGMSAFPNAKIRZ-UHFFFAOYSA-N
SMILES: COCCN(C(=O)C(O)=O)C1=C(C)C=CC=C1C
RETENTIONTIME: 
CCS: -1
IONMODE: Negative
INSTRUMENTTYPE: LC-ESI-ITFT
INSTRUMENT: 
COLLISIONENERGY: 90
Comment: registered in MassBank
Num Peaks: 2
130.0661	1000
144.0815	259

NAME: Dimethachlor OXA; LC-ESI-ITFT; MS2; CE
PRECURSORMZ: 250.108482
PRECURSORTYPE: [M-H]-
FORMULA: C13H17NO4
Ontology: Alpha amino acids and derivatives
INCHIKEY: MHGMSAFPNAKIRZ-UHFFFAOYSA-N
SMILES: COCCN(C(=O)C(O)=O)C1=C(C)C=CC=C1C
RETENTIONTIME: 
CCS: -1
IONMODE: Negative
INSTRUMENTTYPE: LC-ESI-ITFT
INSTRUMENT: 
COLLISIONENERGY: 35
Comment: registered in MassBank
Num Peaks: 1
178.1239	1000

NAME: Cilastatin; LC-ESI-ITFT; MS2; CE
PRECURSORMZ: 357.148966
PRECURSORTYPE: [M-H]-
FORMULA: C16H26N2O5S
Ontology: N-acyl-alpha amino acids
INCHIKEY: DHSUYTOATWAVLW-WFVMDLQDSA-N
SMILES: CC1(C)C[C@@H]1C(O)=N\C(=C/CCCCSC[C@H](N)C(O)=O)C(O)=O
RETENTIONTIME: 
CCS: 182.0313699
IONMODE: Negative
INSTRUMENTTYPE: LC-ESI-ITFT
INSTRUMENT: 
COLLISIONENERGY: 35
Comment: registered in MassBank
Num Peaks: 8
112.0767	13
156.08549	13
192.1394	13
226.1273	878
270.1171	56
295.1488	16
313.1593	1000
339.1387	30

NAME: Cilastatin; LC-ESI-ITFT; MS2; CE
PRECURSORMZ: 357.148966
PRECURSORTYPE: [M-H]-
FORMULA: C16H26N2O5S
Ontology: N-acyl-alpha amino acids
INCHIKEY: DHSUYTOATWAVLW-WFVMDLQDSA-N
SMILES: CC1(C)C[C@@H]1C(O)=N\C(=C/CCCCSC[C@H](N)C(O)=O)C(O)=O
RETENTIONTIME: 
CCS: 182.0313699
IONMODE: Negative
INSTRUMENTTYPE: LC-ESI-ITFT
INSTRUMENT: 
COLLISIONENERGY: 15
Comment: registered in MassBank
Num Peaks: 3
226.12801	6
313.16049	16
357.14929	1000

NAME: Cilastatin; LC-ESI-ITFT; MS2; CE
PRECURSORMZ: 357.148966
PRECURSORTYPE: [M-H]-
FORMULA: C16H26N2O5S
Ontology: N-acyl-alpha amino acids
INCHIKEY: DHSUYTOATWAVLW-WFVMDLQDSA-N
SMILES: CC1(C)C[C@@H]1C(O)=N\C(=C/CCCCSC[C@H](N)C(O)=O)C(O)=O
RETENTIONTIME: 
CCS: 182.0313699
IONMODE: Negative
INSTRUMENTTYPE: LC-ESI-ITFT
INSTRUMENT: 
COLLISIONENERGY: 30
Comment: registered in MassBank
Num Peaks: 8
112.0767	98
113.0426	15
192.13921	48
226.1272	1000
270.11649	65
295.14801	13
313.15891	181
357.1492	237

NAME: Cilastatin; LC-ESI-ITFT; MS2; CE
PRECURSORMZ: 357.148966
PRECURSORTYPE: [M-H]-
FORMULA: C16H26N2O5S
Ontology: N-acyl-alpha amino acids
INCHIKEY: DHSUYTOATWAVLW-WFVMDLQDSA-N
SMILES: CC1(C)C[C@@H]1C(O)=N\C(=C/CCCCSC[C@H](N)C(O)=O)C(O)=O
RETENTIONTIME: 
CCS: 182.0313699
IONMODE: Negative
INSTRUMENTTYPE: LC-ESI-ITFT
INSTRUMENT: 
COLLISIONENERGY: 45
Comment: registered in MassBank
Num Peaks: 4
112.0768	510
130.07021	116
192.1393	280
226.1273	1000

NAME: Cilastatin; LC-ESI-ITFT; MS2; CE
PRECURSORMZ: 357.148966
PRECURSORTYPE: [M-H]-
FORMULA: C16H26N2O5S
Ontology: N-acyl-alpha amino acids
INCHIKEY: DHSUYTOATWAVLW-WFVMDLQDSA-N
SMILES: CC1(C)C[C@@H]1C(O)=N\C(=C/CCCCSC[C@H](N)C(O)=O)C(O)=O
RETENTIONTIME: 
CCS: 182.0313699
IONMODE: Negative
INSTRUMENTTYPE: LC-ESI-ITFT
INSTRUMENT: 
COLLISIONENERGY: 60
Comment: registered in MassBank
Num Peaks: 2
112.0769	964
130.0695	1000

NAME: Cilastatin; LC-ESI-ITFT; MS2; CE
PRECURSORMZ: 357.148966
PRECURSORTYPE: [M-H]-
FORMULA: C16H26N2O5S
Ontology: N-acyl-alpha amino acids
INCHIKEY: DHSUYTOATWAVLW-WFVMDLQDSA-N
SMILES: CC1(C)C[C@@H]1C(O)=N\C(=C/CCCCSC[C@H](N)C(O)=O)C(O)=O
RETENTIONTIME: 
CCS: 182.0313699
IONMODE: Negative
INSTRUMENTTYPE: LC-ESI-ITFT
INSTRUMENT: 
COLLISIONENERGY: 75
Comment: registered in MassBank
Num Peaks: 1
130.0699	1000

NAME: Cilastatin; LC-ESI-ITFT; MS2; CE
PRECURSORMZ: 357.148966
PRECURSORTYPE: [M-H]-
FORMULA: C16H26N2O5S
Ontology: N-acyl-alpha amino acids
INCHIKEY: DHSUYTOATWAVLW-WFVMDLQDSA-N
SMILES: CC1(C)C[C@@H]1C(O)=N\C(=C/CCCCSC[C@H](N)C(O)=O)C(O)=O
RETENTIONTIME: 
CCS: 182.0313699
IONMODE: Negative
INSTRUMENTTYPE: LC-ESI-ITFT
INSTRUMENT: 
COLLISIONENERGY: 15
Comment: registered in MassBank
Num Peaks: 2
313.15939	23
357.14911	1000

NAME: Cilastatin; LC-ESI-ITFT; MS2; CE
PRECURSORMZ: 357.148966
PRECURSORTYPE: [M-H]-
FORMULA: C16H26N2O5S
Ontology: N-acyl-alpha amino acids
INCHIKEY: DHSUYTOATWAVLW-WFVMDLQDSA-N
SMILES: CC1(C)C[C@@H]1C(O)=N\C(=C/CCCCSC[C@H](N)C(O)=O)C(O)=O
RETENTIONTIME: 
CCS: 182.0313699
IONMODE: Negative
INSTRUMENTTYPE: LC-ESI-ITFT
INSTRUMENT: 
COLLISIONENERGY: 30
Comment: registered in MassBank
Num Peaks: 6
112.0763	51
192.1394	38
226.12711	1000
270.11691	76
313.1593	180
357.1485	229

NAME: Cilastatin; LC-ESI-ITFT; MS2; CE
PRECURSORMZ: 357.148966
PRECURSORTYPE: [M-H]-
FORMULA: C16H26N2O5S
Ontology: N-acyl-alpha amino acids
INCHIKEY: DHSUYTOATWAVLW-WFVMDLQDSA-N
SMILES: CC1(C)C[C@@H]1C(O)=N\C(=C/CCCCSC[C@H](N)C(O)=O)C(O)=O
RETENTIONTIME: 
CCS: 182.0313699
IONMODE: Negative
INSTRUMENTTYPE: LC-ESI-ITFT
INSTRUMENT: 
COLLISIONENERGY: 45
Comment: registered in MassBank
Num Peaks: 4
112.0768	458
130.06979	211
192.1393	307
226.1272	1000

NAME: Cilastatin; LC-ESI-ITFT; MS2; CE
PRECURSORMZ: 357.148966
PRECURSORTYPE: [M-H]-
FORMULA: C16H26N2O5S
Ontology: N-acyl-alpha amino acids
INCHIKEY: DHSUYTOATWAVLW-WFVMDLQDSA-N
SMILES: CC1(C)C[C@@H]1C(O)=N\C(=C/CCCCSC[C@H](N)C(O)=O)C(O)=O
RETENTIONTIME: 
CCS: 182.0313699
IONMODE: Negative
INSTRUMENTTYPE: LC-ESI-ITFT
INSTRUMENT: 
COLLISIONENERGY: 60
Comment: registered in MassBank
Num Peaks: 1
130.0699	1000

NAME: Cilastatin; LC-ESI-ITFT; MS2; CE
PRECURSORMZ: 357.148966
PRECURSORTYPE: [M-H]-
FORMULA: C16H26N2O5S
Ontology: N-acyl-alpha amino acids
INCHIKEY: DHSUYTOATWAVLW-WFVMDLQDSA-N
SMILES: CC1(C)C[C@@H]1C(O)=N\C(=C/CCCCSC[C@H](N)C(O)=O)C(O)=O
RETENTIONTIME: 
CCS: 182.0313699
IONMODE: Negative
INSTRUMENTTYPE: LC-ESI-ITFT
INSTRUMENT: 
COLLISIONENERGY: 35
Comment: registered in MassBank
Num Peaks: 7
156.08501	8
192.13921	6
226.12691	815
270.1167	43
295.1485	11
313.15891	1000
339.13809	20

NAME: 5-Fluorouracil; LC-ESI-ITFT; MS2; CE
PRECURSORMZ: 129.010579
PRECURSORTYPE: [M-H]-
FORMULA: C4H3FN2O2
Ontology: Halopyrimidines
INCHIKEY: GHASVSINZRGABV-UHFFFAOYSA-N
SMILES: OC1=NC=C(F)C(O)=N1
RETENTIONTIME: 
CCS: 120.0033684
IONMODE: Negative
INSTRUMENTTYPE: LC-ESI-ITFT
INSTRUMENT: 
COLLISIONENERGY: 90
Comment: registered in MassBank
Num Peaks: 2
58.994	406
129.0106	1000

NAME: 5-Fluorouracil; LC-ESI-ITFT; MS2; CE
PRECURSORMZ: 129.010579
PRECURSORTYPE: [M-H]-
FORMULA: C4H3FN2O2
Ontology: Halopyrimidines
INCHIKEY: GHASVSINZRGABV-UHFFFAOYSA-N
SMILES: OC1=NC=C(F)C(O)=N1
RETENTIONTIME: 
CCS: 120.0033684
IONMODE: Negative
INSTRUMENTTYPE: LC-ESI-ITFT
INSTRUMENT: 
COLLISIONENERGY: 75
Comment: registered in MassBank
Num Peaks: 2
58.9941	69
129.0103	1000

NAME: 5-Fluorouracil; LC-ESI-ITFT; MS2; CE
PRECURSORMZ: 129.010579
PRECURSORTYPE: [M-H]-
FORMULA: C4H3FN2O2
Ontology: Halopyrimidines
INCHIKEY: GHASVSINZRGABV-UHFFFAOYSA-N
SMILES: OC1=NC=C(F)C(O)=N1
RETENTIONTIME: 
CCS: 120.0033684
IONMODE: Negative
INSTRUMENTTYPE: LC-ESI-ITFT
INSTRUMENT: 
COLLISIONENERGY: 90
Comment: registered in MassBank
Num Peaks: 1
58.9939	1000

NAME: Valsartan; LC-ESI-ITFT; MS2; CE
PRECURSORMZ: 434.219763
PRECURSORTYPE: [M-H]-
FORMULA: C24H29N5O3
Ontology: Valine and derivatives
INCHIKEY: ACWBQPMHZXGDFX-QFIPXVFZSA-N
SMILES: CCCCC(=O)N(CC1=CC=C(C=C1)C1=CC=CC=C1C1=NNN=N1)[C@@H](C(C)C)C(O)=O
RETENTIONTIME: 
CCS: 228.4427286
IONMODE: Negative
INSTRUMENTTYPE: LC-ESI-ITFT
INSTRUMENT: 
COLLISIONENERGY: 35
Comment: registered in MassBank
Num Peaks: 11
179.08659	91
192.0816	10
294.1496	26
304.15601	29
307.1445	15
350.1619	1000
362.2226	5
390.229	14
391.2023	189
406.21289	9
416.2084	22

NAME: Valsartan; LC-ESI-ITFT; MS2; CE
PRECURSORMZ: 434.219763
PRECURSORTYPE: [M-H]-
FORMULA: C24H29N5O3
Ontology: Valine and derivatives
INCHIKEY: ACWBQPMHZXGDFX-QFIPXVFZSA-N
SMILES: CCCCC(=O)N(CC1=CC=C(C=C1)C1=CC=CC=C1C1=NNN=N1)[C@@H](C(C)C)C(O)=O
RETENTIONTIME: 
CCS: 228.4427286
IONMODE: Negative
INSTRUMENTTYPE: LC-ESI-ITFT
INSTRUMENT: 
COLLISIONENERGY: 15
Comment: registered in MassBank
Num Peaks: 3
350.1636	18
391.20081	8
434.22031	1000

NAME: Valsartan; LC-ESI-ITFT; MS2; CE
PRECURSORMZ: 434.219763
PRECURSORTYPE: [M-H]-
FORMULA: C24H29N5O3
Ontology: Valine and derivatives
INCHIKEY: ACWBQPMHZXGDFX-QFIPXVFZSA-N
SMILES: CCCCC(=O)N(CC1=CC=C(C=C1)C1=CC=CC=C1C1=NNN=N1)[C@@H](C(C)C)C(O)=O
RETENTIONTIME: 
CCS: 228.4427286
IONMODE: Negative
INSTRUMENTTYPE: LC-ESI-ITFT
INSTRUMENT: 
COLLISIONENERGY: 30
Comment: registered in MassBank
Num Peaks: 13
116.0718	159
141.1282	77
156.1395	90
179.08659	1000
192.0818	110
235.0988	143
276.151	50
294.14969	27
304.15649	241
307.1463	70
350.16229	464
391.20181	70
434.2193	153

NAME: Valsartan; LC-ESI-ITFT; MS2; CE
PRECURSORMZ: 434.219763
PRECURSORTYPE: [M-H]-
FORMULA: C24H29N5O3
Ontology: Valine and derivatives
INCHIKEY: ACWBQPMHZXGDFX-QFIPXVFZSA-N
SMILES: CCCCC(=O)N(CC1=CC=C(C=C1)C1=CC=CC=C1C1=NNN=N1)[C@@H](C(C)C)C(O)=O
RETENTIONTIME: 
CCS: 228.4427286
IONMODE: Negative
INSTRUMENTTYPE: LC-ESI-ITFT
INSTRUMENT: 
COLLISIONENERGY: 45
Comment: registered in MassBank
Num Peaks: 12
100.077	33
116.0718	161
141.1281	49
156.1395	103
178.0788	71
179.08659	1000
192.082	148
193.06599	48
195.0452	22
235.09869	62
276.1506	93
307.1459	22

NAME: Valsartan; LC-ESI-ITFT; MS2; CE
PRECURSORMZ: 434.219763
PRECURSORTYPE: [M-H]-
FORMULA: C24H29N5O3
Ontology: Valine and derivatives
INCHIKEY: ACWBQPMHZXGDFX-QFIPXVFZSA-N
SMILES: CCCCC(=O)N(CC1=CC=C(C=C1)C1=CC=CC=C1C1=NNN=N1)[C@@H](C(C)C)C(O)=O
RETENTIONTIME: 
CCS: 228.4427286
IONMODE: Negative
INSTRUMENTTYPE: LC-ESI-ITFT
INSTRUMENT: 
COLLISIONENERGY: 60
Comment: registered in MassBank
Num Peaks: 7
116.0721	154
156.1398	108
178.0793	171
179.08681	1000
193.06599	121
206.08549	79
207.093	93

NAME: Valsartan; LC-ESI-ITFT; MS2; CE
PRECURSORMZ: 434.219763
PRECURSORTYPE: [M-H]-
FORMULA: C24H29N5O3
Ontology: Valine and derivatives
INCHIKEY: ACWBQPMHZXGDFX-QFIPXVFZSA-N
SMILES: CCCCC(=O)N(CC1=CC=C(C=C1)C1=CC=CC=C1C1=NNN=N1)[C@@H](C(C)C)C(O)=O
RETENTIONTIME: 
CCS: 228.4427286
IONMODE: Negative
INSTRUMENTTYPE: LC-ESI-ITFT
INSTRUMENT: 
COLLISIONENERGY: 75
Comment: registered in MassBank
Num Peaks: 1
179.0865	1000

NAME: Valsartan; LC-ESI-ITFT; MS2; CE
PRECURSORMZ: 434.219763
PRECURSORTYPE: [M-H]-
FORMULA: C24H29N5O3
Ontology: Valine and derivatives
INCHIKEY: ACWBQPMHZXGDFX-QFIPXVFZSA-N
SMILES: CCCCC(=O)N(CC1=CC=C(C=C1)C1=CC=CC=C1C1=NNN=N1)[C@@H](C(C)C)C(O)=O
RETENTIONTIME: 
CCS: 228.4427286
IONMODE: Negative
INSTRUMENTTYPE: LC-ESI-ITFT
INSTRUMENT: 
COLLISIONENERGY: 15
Comment: registered in MassBank
Num Peaks: 4
179.0873	12
350.16211	24
391.2009	8
434.2197	1000

NAME: Valsartan; LC-ESI-ITFT; MS2; CE
PRECURSORMZ: 434.219763
PRECURSORTYPE: [M-H]-
FORMULA: C24H29N5O3
Ontology: Valine and derivatives
INCHIKEY: ACWBQPMHZXGDFX-QFIPXVFZSA-N
SMILES: CCCCC(=O)N(CC1=CC=C(C=C1)C1=CC=CC=C1C1=NNN=N1)[C@@H](C(C)C)C(O)=O
RETENTIONTIME: 
CCS: 228.4427286
IONMODE: Negative
INSTRUMENTTYPE: LC-ESI-ITFT
INSTRUMENT: 
COLLISIONENERGY: 30
Comment: registered in MassBank
Num Peaks: 19
116.0718	108
141.1286	116
156.1394	98
178.07919	20
179.08659	1000
192.082	124
200.12959	17
207.09309	23
235.0988	146
248.1449	24
276.1499	58
294.14941	28
304.1564	217
307.14511	55
332.19809	25
350.16199	477
390.23111	35
391.20279	131
434.21991	131

NAME: Valsartan; LC-ESI-ITFT; MS2; CE
PRECURSORMZ: 434.219763
PRECURSORTYPE: [M-H]-
FORMULA: C24H29N5O3
Ontology: Valine and derivatives
INCHIKEY: ACWBQPMHZXGDFX-QFIPXVFZSA-N
SMILES: CCCCC(=O)N(CC1=CC=C(C=C1)C1=CC=CC=C1C1=NNN=N1)[C@@H](C(C)C)C(O)=O
RETENTIONTIME: 
CCS: 228.4427286
IONMODE: Negative
INSTRUMENTTYPE: LC-ESI-ITFT
INSTRUMENT: 
COLLISIONENERGY: 45
Comment: registered in MassBank
Num Peaks: 16
100.0766	22
116.0716	104
141.1284	51
156.1394	100
178.0788	63
179.0867	1000
192.0816	115
193.06619	28
195.04539	28
206.0851	19
207.0929	39
235.0986	56
276.15091	53
307.14551	25
332.19839	18
350.15131	33

NAME: Valsartan; LC-ESI-ITFT; MS2; CE
PRECURSORMZ: 434.219763
PRECURSORTYPE: [M-H]-
FORMULA: C24H29N5O3
Ontology: Valine and derivatives
INCHIKEY: ACWBQPMHZXGDFX-QFIPXVFZSA-N
SMILES: CCCCC(=O)N(CC1=CC=C(C=C1)C1=CC=CC=C1C1=NNN=N1)[C@@H](C(C)C)C(O)=O
RETENTIONTIME: 
CCS: 228.4427286
IONMODE: Negative
INSTRUMENTTYPE: LC-ESI-ITFT
INSTRUMENT: 
COLLISIONENERGY: 60
Comment: registered in MassBank
Num Peaks: 7
116.0716	135
178.0788	157
179.08681	1000
192.0816	96
193.0658	136
195.0451	85
350.14941	104

NAME: Valsartan; LC-ESI-ITFT; MS2; CE
PRECURSORMZ: 434.219763
PRECURSORTYPE: [M-H]-
FORMULA: C24H29N5O3
Ontology: Valine and derivatives
INCHIKEY: ACWBQPMHZXGDFX-QFIPXVFZSA-N
SMILES: CCCCC(=O)N(CC1=CC=C(C=C1)C1=CC=CC=C1C1=NNN=N1)[C@@H](C(C)C)C(O)=O
RETENTIONTIME: 
CCS: 228.4427286
IONMODE: Negative
INSTRUMENTTYPE: LC-ESI-ITFT
INSTRUMENT: 
COLLISIONENERGY: 75
Comment: registered in MassBank
Num Peaks: 3
178.07919	285
179.08659	1000
350.1636	228

NAME: Valsartan; LC-ESI-ITFT; MS2; CE
PRECURSORMZ: 434.219763
PRECURSORTYPE: [M-H]-
FORMULA: C24H29N5O3
Ontology: Valine and derivatives
INCHIKEY: ACWBQPMHZXGDFX-QFIPXVFZSA-N
SMILES: CCCCC(=O)N(CC1=CC=C(C=C1)C1=CC=CC=C1C1=NNN=N1)[C@@H](C(C)C)C(O)=O
RETENTIONTIME: 
CCS: 228.4427286
IONMODE: Negative
INSTRUMENTTYPE: LC-ESI-ITFT
INSTRUMENT: 
COLLISIONENERGY: 35
Comment: registered in MassBank
Num Peaks: 9
179.0865	94
294.14969	18
304.1564	17
307.1452	8
350.1618	1000
390.2294	9
391.20221	172
406.21341	5
416.2088	14

NAME: Furosemide; LC-ESI-ITFT; MS2; CE
PRECURSORMZ: 329.000443
PRECURSORTYPE: [M-H]-
FORMULA: C12H11ClN2O5S
Ontology: Aminobenzenesulfonamides
INCHIKEY: ZZUFCTLCJUWOSV-UHFFFAOYSA-N
SMILES: NS(=O)(=O)C1=C(Cl)C=C(NCC2=CC=CO2)C(=C1)C(O)=O
RETENTIONTIME: 
CCS: 164.8614623
IONMODE: Negative
INSTRUMENTTYPE: LC-ESI-ITFT
INSTRUMENT: 
COLLISIONENERGY: 35
Comment: registered in MassBank
Num Peaks: 3
204.9846	14
249.03391	5
285.01089	1000

NAME: Furosemide; LC-ESI-ITFT; MS2; CE
PRECURSORMZ: 329.000443
PRECURSORTYPE: [M-H]-
FORMULA: C12H11ClN2O5S
Ontology: Aminobenzenesulfonamides
INCHIKEY: ZZUFCTLCJUWOSV-UHFFFAOYSA-N
SMILES: NS(=O)(=O)C1=C(Cl)C=C(NCC2=CC=CO2)C(=C1)C(O)=O
RETENTIONTIME: 
CCS: 164.8614623
IONMODE: Negative
INSTRUMENTTYPE: LC-ESI-ITFT
INSTRUMENT: 
COLLISIONENERGY: 15
Comment: registered in MassBank
Num Peaks: 2
285.01111	217
329.0007	1000

NAME: Furosemide; LC-ESI-ITFT; MS2; CE
PRECURSORMZ: 329.000443
PRECURSORTYPE: [M-H]-
FORMULA: C12H11ClN2O5S
Ontology: Aminobenzenesulfonamides
INCHIKEY: ZZUFCTLCJUWOSV-UHFFFAOYSA-N
SMILES: NS(=O)(=O)C1=C(Cl)C=C(NCC2=CC=CO2)C(=C1)C(O)=O
RETENTIONTIME: 
CCS: 164.8614623
IONMODE: Negative
INSTRUMENTTYPE: LC-ESI-ITFT
INSTRUMENT: 
COLLISIONENERGY: 30
Comment: registered in MassBank
Num Peaks: 7
77.9656	22
185.07291	8
204.9846	356
206.03841	24
249.03349	27
285.01089	1000
329.0007	57

NAME: Furosemide; LC-ESI-ITFT; MS2; CE
PRECURSORMZ: 329.000443
PRECURSORTYPE: [M-H]-
FORMULA: C12H11ClN2O5S
Ontology: Aminobenzenesulfonamides
INCHIKEY: ZZUFCTLCJUWOSV-UHFFFAOYSA-N
SMILES: NS(=O)(=O)C1=C(Cl)C=C(NCC2=CC=CO2)C(=C1)C(O)=O
RETENTIONTIME: 
CCS: 164.8614623
IONMODE: Negative
INSTRUMENTTYPE: LC-ESI-ITFT
INSTRUMENT: 
COLLISIONENERGY: 45
Comment: registered in MassBank
Num Peaks: 5
77.9656	220
126.0119	81
204.9846	1000
206.0379	134
285.0108	148

NAME: Furosemide; LC-ESI-ITFT; MS2; CE
PRECURSORMZ: 329.000443
PRECURSORTYPE: [M-H]-
FORMULA: C12H11ClN2O5S
Ontology: Aminobenzenesulfonamides
INCHIKEY: ZZUFCTLCJUWOSV-UHFFFAOYSA-N
SMILES: NS(=O)(=O)C1=C(Cl)C=C(NCC2=CC=CO2)C(=C1)C(O)=O
RETENTIONTIME: 
CCS: 164.8614623
IONMODE: Negative
INSTRUMENTTYPE: LC-ESI-ITFT
INSTRUMENT: 
COLLISIONENERGY: 60
Comment: registered in MassBank
Num Peaks: 6
77.9656	1000
94.0303	45
121.0409	225
126.0118	596
204.9846	741
206.03709	108

NAME: Furosemide; LC-ESI-ITFT; MS2; CE
PRECURSORMZ: 329.000443
PRECURSORTYPE: [M-H]-
FORMULA: C12H11ClN2O5S
Ontology: Aminobenzenesulfonamides
INCHIKEY: ZZUFCTLCJUWOSV-UHFFFAOYSA-N
SMILES: NS(=O)(=O)C1=C(Cl)C=C(NCC2=CC=CO2)C(=C1)C(O)=O
RETENTIONTIME: 
CCS: 164.8614623
IONMODE: Negative
INSTRUMENTTYPE: LC-ESI-ITFT
INSTRUMENT: 
COLLISIONENERGY: 75
Comment: registered in MassBank
Num Peaks: 5
77.9656	1000
94.0301	162
121.041	405
126.0117	658
204.98511	95

NAME: Furosemide; LC-ESI-ITFT; MS2; CE
PRECURSORMZ: 329.000443
PRECURSORTYPE: [M-H]-
FORMULA: C12H11ClN2O5S
Ontology: Aminobenzenesulfonamides
INCHIKEY: ZZUFCTLCJUWOSV-UHFFFAOYSA-N
SMILES: NS(=O)(=O)C1=C(Cl)C=C(NCC2=CC=CO2)C(=C1)C(O)=O
RETENTIONTIME: 
CCS: 164.8614623
IONMODE: Negative
INSTRUMENTTYPE: LC-ESI-ITFT
INSTRUMENT: 
COLLISIONENERGY: 90
Comment: registered in MassBank
Num Peaks: 5
77.9655	1000
94.0297	537
104.0384	177
121.0404	332
126.012	260

NAME: Furosemide; LC-ESI-ITFT; MS2; CE
PRECURSORMZ: 329.000443
PRECURSORTYPE: [M-H]-
FORMULA: C12H11ClN2O5S
Ontology: Aminobenzenesulfonamides
INCHIKEY: ZZUFCTLCJUWOSV-UHFFFAOYSA-N
SMILES: NS(=O)(=O)C1=C(Cl)C=C(NCC2=CC=CO2)C(=C1)C(O)=O
RETENTIONTIME: 
CCS: 164.8614623
IONMODE: Negative
INSTRUMENTTYPE: LC-ESI-ITFT
INSTRUMENT: 
COLLISIONENERGY: 15
Comment: registered in MassBank
Num Peaks: 2
285.0105	171
329.0007	1000

NAME: Furosemide; LC-ESI-ITFT; MS2; CE
PRECURSORMZ: 329.000443
PRECURSORTYPE: [M-H]-
FORMULA: C12H11ClN2O5S
Ontology: Aminobenzenesulfonamides
INCHIKEY: ZZUFCTLCJUWOSV-UHFFFAOYSA-N
SMILES: NS(=O)(=O)C1=C(Cl)C=C(NCC2=CC=CO2)C(=C1)C(O)=O
RETENTIONTIME: 
CCS: 164.8614623
IONMODE: Negative
INSTRUMENTTYPE: LC-ESI-ITFT
INSTRUMENT: 
COLLISIONENERGY: 30
Comment: registered in MassBank
Num Peaks: 6
77.9656	15
204.9845	337
206.0374	22
249.0334	19
285.01059	1000
329.00031	50

NAME: Furosemide; LC-ESI-ITFT; MS2; CE
PRECURSORMZ: 329.000443
PRECURSORTYPE: [M-H]-
FORMULA: C12H11ClN2O5S
Ontology: Aminobenzenesulfonamides
INCHIKEY: ZZUFCTLCJUWOSV-UHFFFAOYSA-N
SMILES: NS(=O)(=O)C1=C(Cl)C=C(NCC2=CC=CO2)C(=C1)C(O)=O
RETENTIONTIME: 
CCS: 164.8614623
IONMODE: Negative
INSTRUMENTTYPE: LC-ESI-ITFT
INSTRUMENT: 
COLLISIONENERGY: 45
Comment: registered in MassBank
Num Peaks: 7
77.9656	175
126.0116	63
185.0723	26
204.9845	1000
206.0379	105
249.0336	16
285.01031	133

NAME: Furosemide; LC-ESI-ITFT; MS2; CE
PRECURSORMZ: 329.000443
PRECURSORTYPE: [M-H]-
FORMULA: C12H11ClN2O5S
Ontology: Aminobenzenesulfonamides
INCHIKEY: ZZUFCTLCJUWOSV-UHFFFAOYSA-N
SMILES: NS(=O)(=O)C1=C(Cl)C=C(NCC2=CC=CO2)C(=C1)C(O)=O
RETENTIONTIME: 
CCS: 164.8614623
IONMODE: Negative
INSTRUMENTTYPE: LC-ESI-ITFT
INSTRUMENT: 
COLLISIONENERGY: 60
Comment: registered in MassBank
Num Peaks: 7
77.9655	1000
94.0296	25
104.0378	25
121.0409	175
126.0116	589
204.9845	731
206.0377	134

NAME: Furosemide; LC-ESI-ITFT; MS2; CE
PRECURSORMZ: 329.000443
PRECURSORTYPE: [M-H]-
FORMULA: C12H11ClN2O5S
Ontology: Aminobenzenesulfonamides
INCHIKEY: ZZUFCTLCJUWOSV-UHFFFAOYSA-N
SMILES: NS(=O)(=O)C1=C(Cl)C=C(NCC2=CC=CO2)C(=C1)C(O)=O
RETENTIONTIME: 
CCS: 164.8614623
IONMODE: Negative
INSTRUMENTTYPE: LC-ESI-ITFT
INSTRUMENT: 
COLLISIONENERGY: 75
Comment: registered in MassBank
Num Peaks: 5
77.9656	1000
94.0299	102
121.0407	408
126.0117	662
204.9852	73

NAME: Furosemide; LC-ESI-ITFT; MS2; CE
PRECURSORMZ: 329.000443
PRECURSORTYPE: [M-H]-
FORMULA: C12H11ClN2O5S
Ontology: Aminobenzenesulfonamides
INCHIKEY: ZZUFCTLCJUWOSV-UHFFFAOYSA-N
SMILES: NS(=O)(=O)C1=C(Cl)C=C(NCC2=CC=CO2)C(=C1)C(O)=O
RETENTIONTIME: 
CCS: 164.8614623
IONMODE: Negative
INSTRUMENTTYPE: LC-ESI-ITFT
INSTRUMENT: 
COLLISIONENERGY: 90
Comment: registered in MassBank
Num Peaks: 3
77.9656	1000
121.0405	407
126.0117	272

NAME: Furosemide; LC-ESI-ITFT; MS2; CE
PRECURSORMZ: 329.000443
PRECURSORTYPE: [M-H]-
FORMULA: C12H11ClN2O5S
Ontology: Aminobenzenesulfonamides
INCHIKEY: ZZUFCTLCJUWOSV-UHFFFAOYSA-N
SMILES: NS(=O)(=O)C1=C(Cl)C=C(NCC2=CC=CO2)C(=C1)C(O)=O
RETENTIONTIME: 
CCS: 164.8614623
IONMODE: Negative
INSTRUMENTTYPE: LC-ESI-ITFT
INSTRUMENT: 
COLLISIONENERGY: 35
Comment: registered in MassBank
Num Peaks: 2
204.98421	6
285.01071	1000

NAME: Gemcitabine; LC-ESI-ITFT; MS2; CE
PRECURSORMZ: 262.064486
PRECURSORTYPE: [M-H]-
FORMULA: C9H11F2N3O4
Ontology: Pyrimidine 2'-deoxyribonucleosides
INCHIKEY: SDUQYLNIPVEERB-QPPQHZFASA-N
SMILES: OC[C@H]1O[C@@H](N2C=CC(=N)N=C2O)C(F)(F)[C@@H]1O
RETENTIONTIME: 
CCS: 153.7087704
IONMODE: Negative
INSTRUMENTTYPE: LC-ESI-ITFT
INSTRUMENT: 
COLLISIONENERGY: 35
Comment: registered in MassBank
Num Peaks: 9
110.0361	1000
111.0089	46
149.0356	7
179.0464	12
192.0415	13
194.0573	21
219.0587	95
222.0522	118
242.0584	227

NAME: Gemcitabine; LC-ESI-ITFT; MS2; CE
PRECURSORMZ: 262.064486
PRECURSORTYPE: [M-H]-
FORMULA: C9H11F2N3O4
Ontology: Pyrimidine 2'-deoxyribonucleosides
INCHIKEY: SDUQYLNIPVEERB-QPPQHZFASA-N
SMILES: OC[C@H]1O[C@@H](N2C=CC(=N)N=C2O)C(F)(F)[C@@H]1O
RETENTIONTIME: 
CCS: 153.7087704
IONMODE: Negative
INSTRUMENTTYPE: LC-ESI-ITFT
INSTRUMENT: 
COLLISIONENERGY: 15
Comment: registered in MassBank
Num Peaks: 7
110.036	1000
111.0088	51
149.0358	96
219.0585	473
222.0531	183
242.0583	233
262.0647	574

NAME: Gemcitabine; LC-ESI-ITFT; MS2; CE
PRECURSORMZ: 262.064486
PRECURSORTYPE: [M-H]-
FORMULA: C9H11F2N3O4
Ontology: Pyrimidine 2'-deoxyribonucleosides
INCHIKEY: SDUQYLNIPVEERB-QPPQHZFASA-N
SMILES: OC[C@H]1O[C@@H](N2C=CC(=N)N=C2O)C(F)(F)[C@@H]1O
RETENTIONTIME: 
CCS: 153.7087704
IONMODE: Negative
INSTRUMENTTYPE: LC-ESI-ITFT
INSTRUMENT: 
COLLISIONENERGY: 30
Comment: registered in MassBank
Num Peaks: 8
109.0207	1000
110.0359	680
129.0267	569
139.03081	205
149.0354	580
151.03101	361
179.0461	162
219.05901	655

NAME: Gemcitabine; LC-ESI-ITFT; MS2; CE
PRECURSORMZ: 262.064486
PRECURSORTYPE: [M-H]-
FORMULA: C9H11F2N3O4
Ontology: Pyrimidine 2'-deoxyribonucleosides
INCHIKEY: SDUQYLNIPVEERB-QPPQHZFASA-N
SMILES: OC[C@H]1O[C@@H](N2C=CC(=N)N=C2O)C(F)(F)[C@@H]1O
RETENTIONTIME: 
CCS: 153.7087704
IONMODE: Negative
INSTRUMENTTYPE: LC-ESI-ITFT
INSTRUMENT: 
COLLISIONENERGY: 45
Comment: registered in MassBank
Num Peaks: 7
89.0148	54
109.0208	1000
110.0365	164
129.0269	264
139.0312	169
149.0359	119
151.0313	113

NAME: Gemcitabine; LC-ESI-ITFT; MS2; CE
PRECURSORMZ: 262.064486
PRECURSORTYPE: [M-H]-
FORMULA: C9H11F2N3O4
Ontology: Pyrimidine 2'-deoxyribonucleosides
INCHIKEY: SDUQYLNIPVEERB-QPPQHZFASA-N
SMILES: OC[C@H]1O[C@@H](N2C=CC(=N)N=C2O)C(F)(F)[C@@H]1O
RETENTIONTIME: 
CCS: 153.7087704
IONMODE: Negative
INSTRUMENTTYPE: LC-ESI-ITFT
INSTRUMENT: 
COLLISIONENERGY: 60
Comment: registered in MassBank
Num Peaks: 2
89.0143	98
109.0208	1000

NAME: Gemcitabine; LC-ESI-ITFT; MS2; CE
PRECURSORMZ: 262.064486
PRECURSORTYPE: [M-H]-
FORMULA: C9H11F2N3O4
Ontology: Pyrimidine 2'-deoxyribonucleosides
INCHIKEY: SDUQYLNIPVEERB-QPPQHZFASA-N
SMILES: OC[C@H]1O[C@@H](N2C=CC(=N)N=C2O)C(F)(F)[C@@H]1O
RETENTIONTIME: 
CCS: 153.7087704
IONMODE: Negative
INSTRUMENTTYPE: LC-ESI-ITFT
INSTRUMENT: 
COLLISIONENERGY: 75
Comment: registered in MassBank
Num Peaks: 2
65.0148	148
109.0208	1000

NAME: Gemcitabine; LC-ESI-ITFT; MS2; CE
PRECURSORMZ: 262.064486
PRECURSORTYPE: [M-H]-
FORMULA: C9H11F2N3O4
Ontology: Pyrimidine 2'-deoxyribonucleosides
INCHIKEY: SDUQYLNIPVEERB-QPPQHZFASA-N
SMILES: OC[C@H]1O[C@@H](N2C=CC(=N)N=C2O)C(F)(F)[C@@H]1O
RETENTIONTIME: 
CCS: 153.7087704
IONMODE: Negative
INSTRUMENTTYPE: LC-ESI-ITFT
INSTRUMENT: 
COLLISIONENERGY: 90
Comment: registered in MassBank
Num Peaks: 3
65.0147	356
89.0146	220
109.0206	1000

NAME: Gemcitabine; LC-ESI-ITFT; MS2; CE
PRECURSORMZ: 262.064486
PRECURSORTYPE: [M-H]-
FORMULA: C9H11F2N3O4
Ontology: Pyrimidine 2'-deoxyribonucleosides
INCHIKEY: SDUQYLNIPVEERB-QPPQHZFASA-N
SMILES: OC[C@H]1O[C@@H](N2C=CC(=N)N=C2O)C(F)(F)[C@@H]1O
RETENTIONTIME: 
CCS: 153.7087704
IONMODE: Negative
INSTRUMENTTYPE: LC-ESI-ITFT
INSTRUMENT: 
COLLISIONENERGY: 15
Comment: registered in MassBank
Num Peaks: 6
110.0358	1000
129.0271	99
149.0358	173
219.0587	665
222.0515	203
262.0647	674

NAME: Gemcitabine; LC-ESI-ITFT; MS2; CE
PRECURSORMZ: 262.064486
PRECURSORTYPE: [M-H]-
FORMULA: C9H11F2N3O4
Ontology: Pyrimidine 2'-deoxyribonucleosides
INCHIKEY: SDUQYLNIPVEERB-QPPQHZFASA-N
SMILES: OC[C@H]1O[C@@H](N2C=CC(=N)N=C2O)C(F)(F)[C@@H]1O
RETENTIONTIME: 
CCS: 153.7087704
IONMODE: Negative
INSTRUMENTTYPE: LC-ESI-ITFT
INSTRUMENT: 
COLLISIONENERGY: 30
Comment: registered in MassBank
Num Peaks: 6
109.0203	690
110.0357	700
129.0269	483
149.03551	826
179.0462	495
219.05881	1000

NAME: Gemcitabine; LC-ESI-ITFT; MS2; CE
PRECURSORMZ: 262.064486
PRECURSORTYPE: [M-H]-
FORMULA: C9H11F2N3O4
Ontology: Pyrimidine 2'-deoxyribonucleosides
INCHIKEY: SDUQYLNIPVEERB-QPPQHZFASA-N
SMILES: OC[C@H]1O[C@@H](N2C=CC(=N)N=C2O)C(F)(F)[C@@H]1O
RETENTIONTIME: 
CCS: 153.7087704
IONMODE: Negative
INSTRUMENTTYPE: LC-ESI-ITFT
INSTRUMENT: 
COLLISIONENERGY: 45
Comment: registered in MassBank
Num Peaks: 4
109.0207	1000
110.0358	178
129.02721	281
149.03529	283

NAME: Gemcitabine; LC-ESI-ITFT; MS2; CE
PRECURSORMZ: 262.064486
PRECURSORTYPE: [M-H]-
FORMULA: C9H11F2N3O4
Ontology: Pyrimidine 2'-deoxyribonucleosides
INCHIKEY: SDUQYLNIPVEERB-QPPQHZFASA-N
SMILES: OC[C@H]1O[C@@H](N2C=CC(=N)N=C2O)C(F)(F)[C@@H]1O
RETENTIONTIME: 
CCS: 153.7087704
IONMODE: Negative
INSTRUMENTTYPE: LC-ESI-ITFT
INSTRUMENT: 
COLLISIONENERGY: 60
Comment: registered in MassBank
Num Peaks: 2
109.0207	1000
129.02721	183

NAME: Gemcitabine; LC-ESI-ITFT; MS2; CE
PRECURSORMZ: 262.064486
PRECURSORTYPE: [M-H]-
FORMULA: C9H11F2N3O4
Ontology: Pyrimidine 2'-deoxyribonucleosides
INCHIKEY: SDUQYLNIPVEERB-QPPQHZFASA-N
SMILES: OC[C@H]1O[C@@H](N2C=CC(=N)N=C2O)C(F)(F)[C@@H]1O
RETENTIONTIME: 
CCS: 153.7087704
IONMODE: Negative
INSTRUMENTTYPE: LC-ESI-ITFT
INSTRUMENT: 
COLLISIONENERGY: 75
Comment: registered in MassBank
Num Peaks: 1
109.0207	1000

NAME: Gemcitabine; LC-ESI-ITFT; MS2; CE
PRECURSORMZ: 262.064486
PRECURSORTYPE: [M-H]-
FORMULA: C9H11F2N3O4
Ontology: Pyrimidine 2'-deoxyribonucleosides
INCHIKEY: SDUQYLNIPVEERB-QPPQHZFASA-N
SMILES: OC[C@H]1O[C@@H](N2C=CC(=N)N=C2O)C(F)(F)[C@@H]1O
RETENTIONTIME: 
CCS: 153.7087704
IONMODE: Negative
INSTRUMENTTYPE: LC-ESI-ITFT
INSTRUMENT: 
COLLISIONENERGY: 90
Comment: registered in MassBank
Num Peaks: 2
65.0146	515
109.0208	1000

NAME: Gemcitabine; LC-ESI-ITFT; MS2; CE
PRECURSORMZ: 262.064486
PRECURSORTYPE: [M-H]-
FORMULA: C9H11F2N3O4
Ontology: Pyrimidine 2'-deoxyribonucleosides
INCHIKEY: SDUQYLNIPVEERB-QPPQHZFASA-N
SMILES: OC[C@H]1O[C@@H](N2C=CC(=N)N=C2O)C(F)(F)[C@@H]1O
RETENTIONTIME: 
CCS: 153.7087704
IONMODE: Negative
INSTRUMENTTYPE: LC-ESI-ITFT
INSTRUMENT: 
COLLISIONENERGY: 35
Comment: registered in MassBank
Num Peaks: 5
110.036	1000
194.0571	9
219.0585	60
222.0519	73
242.0582	144

NAME: Hydrochlorothiazide; LC-ESI-ITFT; MS2; CE
PRECURSORMZ: 295.957198
PRECURSORTYPE: [M-H]-
FORMULA: C7H8ClN3O4S2
Ontology: 1,2,4-benzothiadiazine-1,1-dioxides
INCHIKEY: JZUFKLXOESDKRF-UHFFFAOYSA-N
SMILES: NS(=O)(=O)C1=CC2=C(NCNS2(=O)=O)C=C1Cl
RETENTIONTIME: 
CCS: 150.491333
IONMODE: Negative
INSTRUMENTTYPE: LC-ESI-ITFT
INSTRUMENT: 
COLLISIONENERGY: 35
Comment: registered in MassBank
Num Peaks: 5
204.9846	357
214.96919	13
216.98441	14
231.99519	69
268.94641	1000

NAME: Hydrochlorothiazide; LC-ESI-ITFT; MS2; CE
PRECURSORMZ: 295.957198
PRECURSORTYPE: [M-H]-
FORMULA: C7H8ClN3O4S2
Ontology: 1,2,4-benzothiadiazine-1,1-dioxides
INCHIKEY: JZUFKLXOESDKRF-UHFFFAOYSA-N
SMILES: NS(=O)(=O)C1=CC2=C(NCNS2(=O)=O)C=C1Cl
RETENTIONTIME: 
CCS: 150.491333
IONMODE: Negative
INSTRUMENTTYPE: LC-ESI-ITFT
INSTRUMENT: 
COLLISIONENERGY: 30
Comment: registered in MassBank
Num Peaks: 3
204.98421	81
268.94611	308
295.95709	1000

NAME: Hydrochlorothiazide; LC-ESI-ITFT; MS2; CE
PRECURSORMZ: 295.957198
PRECURSORTYPE: [M-H]-
FORMULA: C7H8ClN3O4S2
Ontology: 1,2,4-benzothiadiazine-1,1-dioxides
INCHIKEY: JZUFKLXOESDKRF-UHFFFAOYSA-N
SMILES: NS(=O)(=O)C1=CC2=C(NCNS2(=O)=O)C=C1Cl
RETENTIONTIME: 
CCS: 150.491333
IONMODE: Negative
INSTRUMENTTYPE: LC-ESI-ITFT
INSTRUMENT: 
COLLISIONENERGY: 45
Comment: registered in MassBank
Num Peaks: 5
77.9656	277
126.0114	37
204.9847	1000
268.94669	701
295.9559	165

NAME: Hydrochlorothiazide; LC-ESI-ITFT; MS2; CE
PRECURSORMZ: 295.957198
PRECURSORTYPE: [M-H]-
FORMULA: C7H8ClN3O4S2
Ontology: 1,2,4-benzothiadiazine-1,1-dioxides
INCHIKEY: JZUFKLXOESDKRF-UHFFFAOYSA-N
SMILES: NS(=O)(=O)C1=CC2=C(NCNS2(=O)=O)C=C1Cl
RETENTIONTIME: 
CCS: 150.491333
IONMODE: Negative
INSTRUMENTTYPE: LC-ESI-ITFT
INSTRUMENT: 
COLLISIONENERGY: 60
Comment: registered in MassBank
Num Peaks: 6
77.9656	1000
121.0409	103
126.0117	401
189.97321	95
204.9843	889
268.94531	85

NAME: Hydrochlorothiazide; LC-ESI-ITFT; MS2; CE
PRECURSORMZ: 295.957198
PRECURSORTYPE: [M-H]-
FORMULA: C7H8ClN3O4S2
Ontology: 1,2,4-benzothiadiazine-1,1-dioxides
INCHIKEY: JZUFKLXOESDKRF-UHFFFAOYSA-N
SMILES: NS(=O)(=O)C1=CC2=C(NCNS2(=O)=O)C=C1Cl
RETENTIONTIME: 
CCS: 150.491333
IONMODE: Negative
INSTRUMENTTYPE: LC-ESI-ITFT
INSTRUMENT: 
COLLISIONENERGY: 75
Comment: registered in MassBank
Num Peaks: 6
77.9656	1000
121.0406	245
123.9961	86
126.0116	451
202.9679	131
204.9845	104

NAME: Hydrochlorothiazide; LC-ESI-ITFT; MS2; CE
PRECURSORMZ: 295.957198
PRECURSORTYPE: [M-H]-
FORMULA: C7H8ClN3O4S2
Ontology: 1,2,4-benzothiadiazine-1,1-dioxides
INCHIKEY: JZUFKLXOESDKRF-UHFFFAOYSA-N
SMILES: NS(=O)(=O)C1=CC2=C(NCNS2(=O)=O)C=C1Cl
RETENTIONTIME: 
CCS: 150.491333
IONMODE: Negative
INSTRUMENTTYPE: LC-ESI-ITFT
INSTRUMENT: 
COLLISIONENERGY: 90
Comment: registered in MassBank
Num Peaks: 2
77.9656	1000
123.9959	319

NAME: Hydrochlorothiazide; LC-ESI-ITFT; MS2; CE
PRECURSORMZ: 295.957198
PRECURSORTYPE: [M-H]-
FORMULA: C7H8ClN3O4S2
Ontology: 1,2,4-benzothiadiazine-1,1-dioxides
INCHIKEY: JZUFKLXOESDKRF-UHFFFAOYSA-N
SMILES: NS(=O)(=O)C1=CC2=C(NCNS2(=O)=O)C=C1Cl
RETENTIONTIME: 
CCS: 150.491333
IONMODE: Negative
INSTRUMENTTYPE: LC-ESI-ITFT
INSTRUMENT: 
COLLISIONENERGY: 30
Comment: registered in MassBank
Num Peaks: 3
204.9843	101
268.94611	274
295.957	1000

NAME: Hydrochlorothiazide; LC-ESI-ITFT; MS2; CE
PRECURSORMZ: 295.957198
PRECURSORTYPE: [M-H]-
FORMULA: C7H8ClN3O4S2
Ontology: 1,2,4-benzothiadiazine-1,1-dioxides
INCHIKEY: JZUFKLXOESDKRF-UHFFFAOYSA-N
SMILES: NS(=O)(=O)C1=CC2=C(NCNS2(=O)=O)C=C1Cl
RETENTIONTIME: 
CCS: 150.491333
IONMODE: Negative
INSTRUMENTTYPE: LC-ESI-ITFT
INSTRUMENT: 
COLLISIONENERGY: 45
Comment: registered in MassBank
Num Peaks: 4
77.9656	230
204.9845	1000
268.9462	779
295.95709	236

NAME: Hydrochlorothiazide; LC-ESI-ITFT; MS2; CE
PRECURSORMZ: 295.957198
PRECURSORTYPE: [M-H]-
FORMULA: C7H8ClN3O4S2
Ontology: 1,2,4-benzothiadiazine-1,1-dioxides
INCHIKEY: JZUFKLXOESDKRF-UHFFFAOYSA-N
SMILES: NS(=O)(=O)C1=CC2=C(NCNS2(=O)=O)C=C1Cl
RETENTIONTIME: 
CCS: 150.491333
IONMODE: Negative
INSTRUMENTTYPE: LC-ESI-ITFT
INSTRUMENT: 
COLLISIONENERGY: 60
Comment: registered in MassBank
Num Peaks: 4
77.9655	1000
121.0409	87
126.0118	367
204.9841	963

NAME: Hydrochlorothiazide; LC-ESI-ITFT; MS2; CE
PRECURSORMZ: 295.957198
PRECURSORTYPE: [M-H]-
FORMULA: C7H8ClN3O4S2
Ontology: 1,2,4-benzothiadiazine-1,1-dioxides
INCHIKEY: JZUFKLXOESDKRF-UHFFFAOYSA-N
SMILES: NS(=O)(=O)C1=CC2=C(NCNS2(=O)=O)C=C1Cl
RETENTIONTIME: 
CCS: 150.491333
IONMODE: Negative
INSTRUMENTTYPE: LC-ESI-ITFT
INSTRUMENT: 
COLLISIONENERGY: 75
Comment: registered in MassBank
Num Peaks: 5
77.9655	1000
121.0404	254
126.0114	372
202.9691	134
204.9839	123

NAME: Hydrochlorothiazide; LC-ESI-ITFT; MS2; CE
PRECURSORMZ: 295.957198
PRECURSORTYPE: [M-H]-
FORMULA: C7H8ClN3O4S2
Ontology: 1,2,4-benzothiadiazine-1,1-dioxides
INCHIKEY: JZUFKLXOESDKRF-UHFFFAOYSA-N
SMILES: NS(=O)(=O)C1=CC2=C(NCNS2(=O)=O)C=C1Cl
RETENTIONTIME: 
CCS: 150.491333
IONMODE: Negative
INSTRUMENTTYPE: LC-ESI-ITFT
INSTRUMENT: 
COLLISIONENERGY: 90
Comment: registered in MassBank
Num Peaks: 3
77.9656	1000
123.9959	271
126.0114	230

NAME: Hydrochlorothiazide; LC-ESI-ITFT; MS2; CE
PRECURSORMZ: 295.957198
PRECURSORTYPE: [M-H]-
FORMULA: C7H8ClN3O4S2
Ontology: 1,2,4-benzothiadiazine-1,1-dioxides
INCHIKEY: JZUFKLXOESDKRF-UHFFFAOYSA-N
SMILES: NS(=O)(=O)C1=CC2=C(NCNS2(=O)=O)C=C1Cl
RETENTIONTIME: 
CCS: 150.491333
IONMODE: Negative
INSTRUMENTTYPE: LC-ESI-ITFT
INSTRUMENT: 
COLLISIONENERGY: 35
Comment: registered in MassBank
Num Peaks: 4
204.9843	354
214.9686	9
231.9951	40
268.9462	1000

NAME: 2',2'-Difluoro-2'-deoxyuridine; LC-ESI-ITFT; MS2; CE
PRECURSORMZ: 263.048501
PRECURSORTYPE: [M-H]-
FORMULA: C9H10F2N2O5
Ontology: Pyrimidine 2'-deoxyribonucleosides
INCHIKEY: FIRDBEQIJQERSE-QPPQHZFASA-N
SMILES: OC[C@H]1O[C@@H](N2C=CC(O)=NC2=O)C(F)(F)[C@@H]1O
RETENTIONTIME: 
CCS: 155.0659083
IONMODE: Negative
INSTRUMENTTYPE: LC-ESI-ITFT
INSTRUMENT: 
COLLISIONENERGY: 35
Comment: registered in MassBank
Num Peaks: 2
111.0203	1000
220.04269	77

NAME: 2',2'-Difluoro-2'-deoxyuridine; LC-ESI-ITFT; MS2; CE
PRECURSORMZ: 263.048501
PRECURSORTYPE: [M-H]-
FORMULA: C9H10F2N2O5
Ontology: Pyrimidine 2'-deoxyribonucleosides
INCHIKEY: FIRDBEQIJQERSE-QPPQHZFASA-N
SMILES: OC[C@H]1O[C@@H](N2C=CC(O)=NC2=O)C(F)(F)[C@@H]1O
RETENTIONTIME: 
CCS: 155.0659083
IONMODE: Negative
INSTRUMENTTYPE: LC-ESI-ITFT
INSTRUMENT: 
COLLISIONENERGY: 60
Comment: registered in MassBank
Num Peaks: 1
89.9984	1000

NAME: 2',2'-Difluoro-2'-deoxyuridine; LC-ESI-ITFT; MS2; CE
PRECURSORMZ: 263.048501
PRECURSORTYPE: [M-H]-
FORMULA: C9H10F2N2O5
Ontology: Pyrimidine 2'-deoxyribonucleosides
INCHIKEY: FIRDBEQIJQERSE-QPPQHZFASA-N
SMILES: OC[C@H]1O[C@@H](N2C=CC(O)=NC2=O)C(F)(F)[C@@H]1O
RETENTIONTIME: 
CCS: 155.0659083
IONMODE: Negative
INSTRUMENTTYPE: LC-ESI-ITFT
INSTRUMENT: 
COLLISIONENERGY: 75
Comment: registered in MassBank
Num Peaks: 2
89.9988	766
111.0213	1000

NAME: 2',2'-Difluoro-2'-deoxyuridine; LC-ESI-ITFT; MS2; CE
PRECURSORMZ: 263.048501
PRECURSORTYPE: [M-H]-
FORMULA: C9H10F2N2O5
Ontology: Pyrimidine 2'-deoxyribonucleosides
INCHIKEY: FIRDBEQIJQERSE-QPPQHZFASA-N
SMILES: OC[C@H]1O[C@@H](N2C=CC(O)=NC2=O)C(F)(F)[C@@H]1O
RETENTIONTIME: 
CCS: 155.0659083
IONMODE: Negative
INSTRUMENTTYPE: LC-ESI-ITFT
INSTRUMENT: 
COLLISIONENERGY: 30
Comment: registered in MassBank
Num Peaks: 2
111.0201	415
220.0426	1000

NAME: 2',2'-Difluoro-2'-deoxyuridine; LC-ESI-ITFT; MS2; CE
PRECURSORMZ: 263.048501
PRECURSORTYPE: [M-H]-
FORMULA: C9H10F2N2O5
Ontology: Pyrimidine 2'-deoxyribonucleosides
INCHIKEY: FIRDBEQIJQERSE-QPPQHZFASA-N
SMILES: OC[C@H]1O[C@@H](N2C=CC(O)=NC2=O)C(F)(F)[C@@H]1O
RETENTIONTIME: 
CCS: 155.0659083
IONMODE: Negative
INSTRUMENTTYPE: LC-ESI-ITFT
INSTRUMENT: 
COLLISIONENERGY: 75
Comment: registered in MassBank
Num Peaks: 1
89.9984	1000

NAME: 2',2'-Difluoro-2'-deoxyuridine; LC-ESI-ITFT; MS2; CE
PRECURSORMZ: 263.048501
PRECURSORTYPE: [M-H]-
FORMULA: C9H10F2N2O5
Ontology: Pyrimidine 2'-deoxyribonucleosides
INCHIKEY: FIRDBEQIJQERSE-QPPQHZFASA-N
SMILES: OC[C@H]1O[C@@H](N2C=CC(O)=NC2=O)C(F)(F)[C@@H]1O
RETENTIONTIME: 
CCS: 155.0659083
IONMODE: Negative
INSTRUMENTTYPE: LC-ESI-ITFT
INSTRUMENT: 
COLLISIONENERGY: 90
Comment: registered in MassBank
Num Peaks: 1
111.0209	1000

NAME: Fipronil; LC-ESI-ITFT; MS2; CE
PRECURSORMZ: 434.93143
PRECURSORTYPE: [M-H]-
FORMULA: C12H4Cl2F6N4OS
Ontology: Phenylpyrazoles
INCHIKEY: ZOCSXAVNDGMNBV-UHFFFAOYNA-N
SMILES: NC1=C(C(=NN1C1=C(Cl)C=C(C=C1Cl)C(F)(F)F)C#N)S(=O)C(F)(F)F
RETENTIONTIME: 
CCS: 157.9814668
IONMODE: Negative
INSTRUMENTTYPE: LC-ESI-ITFT
INSTRUMENT: 
COLLISIONENERGY: 35
Comment: registered in MassBank
Num Peaks: 5
329.95901	1000
332.96191	58
350.98669	5
365.9361	7
398.95401	692

NAME: Fipronil; LC-ESI-ITFT; MS2; CE
PRECURSORMZ: 434.93143
PRECURSORTYPE: [M-H]-
FORMULA: C12H4Cl2F6N4OS
Ontology: Phenylpyrazoles
INCHIKEY: ZOCSXAVNDGMNBV-UHFFFAOYNA-N
SMILES: NC1=C(C(=NN1C1=C(Cl)C=C(C=C1Cl)C(F)(F)F)C#N)S(=O)C(F)(F)F
RETENTIONTIME: 
CCS: 157.9814668
IONMODE: Negative
INSTRUMENTTYPE: LC-ESI-ITFT
INSTRUMENT: 
COLLISIONENERGY: 15
Comment: registered in MassBank
Num Peaks: 4
329.95929	1000
365.9346	53
398.95401	200
434.93179	324

NAME: Fipronil; LC-ESI-ITFT; MS2; CE
PRECURSORMZ: 434.93143
PRECURSORTYPE: [M-H]-
FORMULA: C12H4Cl2F6N4OS
Ontology: Phenylpyrazoles
INCHIKEY: ZOCSXAVNDGMNBV-UHFFFAOYNA-N
SMILES: NC1=C(C(=NN1C1=C(Cl)C=C(C=C1Cl)C(F)(F)F)C#N)S(=O)C(F)(F)F
RETENTIONTIME: 
CCS: 157.9814668
IONMODE: Negative
INSTRUMENTTYPE: LC-ESI-ITFT
INSTRUMENT: 
COLLISIONENERGY: 30
Comment: registered in MassBank
Num Peaks: 7
170.0101	56
249.9588	323
277.95361	135
281.99301	43
317.9689	410
329.9592	1000
365.93771	34

NAME: Fipronil; LC-ESI-ITFT; MS2; CE
PRECURSORMZ: 434.93143
PRECURSORTYPE: [M-H]-
FORMULA: C12H4Cl2F6N4OS
Ontology: Phenylpyrazoles
INCHIKEY: ZOCSXAVNDGMNBV-UHFFFAOYNA-N
SMILES: NC1=C(C(=NN1C1=C(Cl)C=C(C=C1Cl)C(F)(F)F)C#N)S(=O)C(F)(F)F
RETENTIONTIME: 
CCS: 157.9814668
IONMODE: Negative
INSTRUMENTTYPE: LC-ESI-ITFT
INSTRUMENT: 
COLLISIONENERGY: 45
Comment: registered in MassBank
Num Peaks: 11
170.0096	393
182.00929	79
183.01711	475
233.9816	56
243.9888	208
249.9584	1000
253.98711	114
277.953	847
281.9928	500
287.96201	75
317.9696	200

NAME: Fipronil; LC-ESI-ITFT; MS2; CE
PRECURSORMZ: 434.93143
PRECURSORTYPE: [M-H]-
FORMULA: C12H4Cl2F6N4OS
Ontology: Phenylpyrazoles
INCHIKEY: ZOCSXAVNDGMNBV-UHFFFAOYNA-N
SMILES: NC1=C(C(=NN1C1=C(Cl)C=C(C=C1Cl)C(F)(F)F)C#N)S(=O)C(F)(F)F
RETENTIONTIME: 
CCS: 157.9814668
IONMODE: Negative
INSTRUMENTTYPE: LC-ESI-ITFT
INSTRUMENT: 
COLLISIONENERGY: 60
Comment: registered in MassBank
Num Peaks: 9
163.01089	141
170.0103	138
182.0094	122
183.0175	1000
243.99049	152
249.95799	434
253.9856	52
267.98999	207
277.9516	146

NAME: Fipronil; LC-ESI-ITFT; MS2; CE
PRECURSORMZ: 434.93143
PRECURSORTYPE: [M-H]-
FORMULA: C12H4Cl2F6N4OS
Ontology: Phenylpyrazoles
INCHIKEY: ZOCSXAVNDGMNBV-UHFFFAOYNA-N
SMILES: NC1=C(C(=NN1C1=C(Cl)C=C(C=C1Cl)C(F)(F)F)C#N)S(=O)C(F)(F)F
RETENTIONTIME: 
CCS: 157.9814668
IONMODE: Negative
INSTRUMENTTYPE: LC-ESI-ITFT
INSTRUMENT: 
COLLISIONENERGY: 75
Comment: registered in MassBank
Num Peaks: 6
113.0145	227
143.0047	534
163.01109	646
183.0173	1000
243.9892	125
267.98669	226

NAME: Fipronil; LC-ESI-ITFT; MS2; CE
PRECURSORMZ: 434.93143
PRECURSORTYPE: [M-H]-
FORMULA: C12H4Cl2F6N4OS
Ontology: Phenylpyrazoles
INCHIKEY: ZOCSXAVNDGMNBV-UHFFFAOYNA-N
SMILES: NC1=C(C(=NN1C1=C(Cl)C=C(C=C1Cl)C(F)(F)F)C#N)S(=O)C(F)(F)F
RETENTIONTIME: 
CCS: 157.9814668
IONMODE: Negative
INSTRUMENTTYPE: LC-ESI-ITFT
INSTRUMENT: 
COLLISIONENERGY: 90
Comment: registered in MassBank
Num Peaks: 4
113.0145	446
143.0049	1000
163.0112	532
183.0177	393

NAME: Fipronil; LC-ESI-ITFT; MS2; CE
PRECURSORMZ: 434.93143
PRECURSORTYPE: [M-H]-
FORMULA: C12H4Cl2F6N4OS
Ontology: Phenylpyrazoles
INCHIKEY: ZOCSXAVNDGMNBV-UHFFFAOYNA-N
SMILES: NC1=C(C(=NN1C1=C(Cl)C=C(C=C1Cl)C(F)(F)F)C#N)S(=O)C(F)(F)F
RETENTIONTIME: 
CCS: 157.9814668
IONMODE: Negative
INSTRUMENTTYPE: LC-ESI-ITFT
INSTRUMENT: 
COLLISIONENERGY: 15
Comment: registered in MassBank
Num Peaks: 7
249.93559	9
317.97021	22
329.95901	1000
332.96249	29
365.93661	56
398.95401	210
434.93039	311

NAME: Fipronil; LC-ESI-ITFT; MS2; CE
PRECURSORMZ: 434.93143
PRECURSORTYPE: [M-H]-
FORMULA: C12H4Cl2F6N4OS
Ontology: Phenylpyrazoles
INCHIKEY: ZOCSXAVNDGMNBV-UHFFFAOYNA-N
SMILES: NC1=C(C(=NN1C1=C(Cl)C=C(C=C1Cl)C(F)(F)F)C#N)S(=O)C(F)(F)F
RETENTIONTIME: 
CCS: 157.9814668
IONMODE: Negative
INSTRUMENTTYPE: LC-ESI-ITFT
INSTRUMENT: 
COLLISIONENERGY: 30
Comment: registered in MassBank
Num Peaks: 10
170.00909	46
233.9803	16
243.9888	16
249.9583	306
277.95331	133
281.99219	36
317.96869	364
329.95901	1000
365.935	39
434.9324	19

NAME: Fipronil; LC-ESI-ITFT; MS2; CE
PRECURSORMZ: 434.93143
PRECURSORTYPE: [M-H]-
FORMULA: C12H4Cl2F6N4OS
Ontology: Phenylpyrazoles
INCHIKEY: ZOCSXAVNDGMNBV-UHFFFAOYNA-N
SMILES: NC1=C(C(=NN1C1=C(Cl)C=C(C=C1Cl)C(F)(F)F)C#N)S(=O)C(F)(F)F
RETENTIONTIME: 
CCS: 157.9814668
IONMODE: Negative
INSTRUMENTTYPE: LC-ESI-ITFT
INSTRUMENT: 
COLLISIONENERGY: 45
Comment: registered in MassBank
Num Peaks: 13
170.0094	284
182.0098	85
183.0174	455
233.9809	75
243.98911	206
249.95821	1000
253.98621	93
267.98911	110
277.95319	712
281.99219	316
317.9686	345
329.9393	60
329.95929	121

NAME: Fipronil; LC-ESI-ITFT; MS2; CE
PRECURSORMZ: 434.93143
PRECURSORTYPE: [M-H]-
FORMULA: C12H4Cl2F6N4OS
Ontology: Phenylpyrazoles
INCHIKEY: ZOCSXAVNDGMNBV-UHFFFAOYNA-N
SMILES: NC1=C(C(=NN1C1=C(Cl)C=C(C=C1Cl)C(F)(F)F)C#N)S(=O)C(F)(F)F
RETENTIONTIME: 
CCS: 157.9814668
IONMODE: Negative
INSTRUMENTTYPE: LC-ESI-ITFT
INSTRUMENT: 
COLLISIONENERGY: 60
Comment: registered in MassBank
Num Peaks: 10
163.0112	111
170.0094	139
182.00929	138
183.0174	1000
243.9886	143
249.9581	401
267.98889	163
277.9523	111
281.99179	83
329.94159	53

NAME: Fipronil; LC-ESI-ITFT; MS2; CE
PRECURSORMZ: 434.93143
PRECURSORTYPE: [M-H]-
FORMULA: C12H4Cl2F6N4OS
Ontology: Phenylpyrazoles
INCHIKEY: ZOCSXAVNDGMNBV-UHFFFAOYNA-N
SMILES: NC1=C(C(=NN1C1=C(Cl)C=C(C=C1Cl)C(F)(F)F)C#N)S(=O)C(F)(F)F
RETENTIONTIME: 
CCS: 157.9814668
IONMODE: Negative
INSTRUMENTTYPE: LC-ESI-ITFT
INSTRUMENT: 
COLLISIONENERGY: 75
Comment: registered in MassBank
Num Peaks: 6
113.0146	155
143.00481	518
163.0112	568
182.00999	105
183.0175	1000
267.9903	207

NAME: Fipronil; LC-ESI-ITFT; MS2; CE
PRECURSORMZ: 434.93143
PRECURSORTYPE: [M-H]-
FORMULA: C12H4Cl2F6N4OS
Ontology: Phenylpyrazoles
INCHIKEY: ZOCSXAVNDGMNBV-UHFFFAOYNA-N
SMILES: NC1=C(C(=NN1C1=C(Cl)C=C(C=C1Cl)C(F)(F)F)C#N)S(=O)C(F)(F)F
RETENTIONTIME: 
CCS: 157.9814668
IONMODE: Negative
INSTRUMENTTYPE: LC-ESI-ITFT
INSTRUMENT: 
COLLISIONENERGY: 90
Comment: registered in MassBank
Num Peaks: 4
113.0142	352
143.005	1000
163.01109	845
183.0173	562

NAME: Fipronil; LC-ESI-ITFT; MS2; CE
PRECURSORMZ: 434.93143
PRECURSORTYPE: [M-H]-
FORMULA: C12H4Cl2F6N4OS
Ontology: Phenylpyrazoles
INCHIKEY: ZOCSXAVNDGMNBV-UHFFFAOYNA-N
SMILES: NC1=C(C(=NN1C1=C(Cl)C=C(C=C1Cl)C(F)(F)F)C#N)S(=O)C(F)(F)F
RETENTIONTIME: 
CCS: 157.9814668
IONMODE: Negative
INSTRUMENTTYPE: LC-ESI-ITFT
INSTRUMENT: 
COLLISIONENERGY: 35
Comment: registered in MassBank
Num Peaks: 3
329.95901	1000
332.9621	45
398.9541	731

NAME: Fipronil-sulfone; LC-ESI-ITFT; MS2; CE
PRECURSORMZ: 450.926344
PRECURSORTYPE: [M-H]-
FORMULA: C12H4Cl2F6N4O2S
Ontology: Phenylpyrazoles
INCHIKEY: LGHZJDKSVUTELU-UHFFFAOYSA-N
SMILES: NC1=C(C(=NN1C1=C(Cl)C=C(C=C1Cl)C(F)(F)F)C#N)S(=O)(=O)C(F)(F)F
RETENTIONTIME: 
CCS: -1
IONMODE: Negative
INSTRUMENTTYPE: LC-ESI-ITFT
INSTRUMENT: 
COLLISIONENERGY: 35
Comment: registered in MassBank
Num Peaks: 1
414.9498	1000

NAME: Fipronil-sulfone; LC-ESI-ITFT; MS2; CE
PRECURSORMZ: 450.926344
PRECURSORTYPE: [M-H]-
FORMULA: C12H4Cl2F6N4O2S
Ontology: Phenylpyrazoles
INCHIKEY: LGHZJDKSVUTELU-UHFFFAOYSA-N
SMILES: NC1=C(C(=NN1C1=C(Cl)C=C(C=C1Cl)C(F)(F)F)C#N)S(=O)(=O)C(F)(F)F
RETENTIONTIME: 
CCS: -1
IONMODE: Negative
INSTRUMENTTYPE: LC-ESI-ITFT
INSTRUMENT: 
COLLISIONENERGY: 15
Comment: registered in MassBank
Num Peaks: 2
414.95059	1000
450.9267	865

NAME: Fipronil-sulfone; LC-ESI-ITFT; MS2; CE
PRECURSORMZ: 450.926344
PRECURSORTYPE: [M-H]-
FORMULA: C12H4Cl2F6N4O2S
Ontology: Phenylpyrazoles
INCHIKEY: LGHZJDKSVUTELU-UHFFFAOYSA-N
SMILES: NC1=C(C(=NN1C1=C(Cl)C=C(C=C1Cl)C(F)(F)F)C#N)S(=O)(=O)C(F)(F)F
RETENTIONTIME: 
CCS: -1
IONMODE: Negative
INSTRUMENTTYPE: LC-ESI-ITFT
INSTRUMENT: 
COLLISIONENERGY: 30
Comment: registered in MassBank
Num Peaks: 9
132.95821	54
170.01041	88
183.0179	257
217.98621	102
233.9814	135
243.98959	75
281.9928	885
414.95081	1000
450.9278	44

NAME: Fipronil-sulfone; LC-ESI-ITFT; MS2; CE
PRECURSORMZ: 450.926344
PRECURSORTYPE: [M-H]-
FORMULA: C12H4Cl2F6N4O2S
Ontology: Phenylpyrazoles
INCHIKEY: LGHZJDKSVUTELU-UHFFFAOYSA-N
SMILES: NC1=C(C(=NN1C1=C(Cl)C=C(C=C1Cl)C(F)(F)F)C#N)S(=O)(=O)C(F)(F)F
RETENTIONTIME: 
CCS: -1
IONMODE: Negative
INSTRUMENTTYPE: LC-ESI-ITFT
INSTRUMENT: 
COLLISIONENERGY: 45
Comment: registered in MassBank
Num Peaks: 11
82.9609	85
132.9577	47
170.00999	85
183.0181	228
217.987	112
218.0096	89
233.9823	117
243.98981	399
246.01669	205
261.9873	135
281.99301	1000

NAME: Fipronil-sulfone; LC-ESI-ITFT; MS2; CE
PRECURSORMZ: 450.926344
PRECURSORTYPE: [M-H]-
FORMULA: C12H4Cl2F6N4O2S
Ontology: Phenylpyrazoles
INCHIKEY: LGHZJDKSVUTELU-UHFFFAOYSA-N
SMILES: NC1=C(C(=NN1C1=C(Cl)C=C(C=C1Cl)C(F)(F)F)C#N)S(=O)(=O)C(F)(F)F
RETENTIONTIME: 
CCS: -1
IONMODE: Negative
INSTRUMENTTYPE: LC-ESI-ITFT
INSTRUMENT: 
COLLISIONENERGY: 60
Comment: registered in MassBank
Num Peaks: 6
82.961	97
218.01019	470
243.98981	1000
246.0164	209
261.98761	73
281.99271	153

NAME: Fipronil-sulfone; LC-ESI-ITFT; MS2; CE
PRECURSORMZ: 450.926344
PRECURSORTYPE: [M-H]-
FORMULA: C12H4Cl2F6N4O2S
Ontology: Phenylpyrazoles
INCHIKEY: LGHZJDKSVUTELU-UHFFFAOYSA-N
SMILES: NC1=C(C(=NN1C1=C(Cl)C=C(C=C1Cl)C(F)(F)F)C#N)S(=O)(=O)C(F)(F)F
RETENTIONTIME: 
CCS: -1
IONMODE: Negative
INSTRUMENTTYPE: LC-ESI-ITFT
INSTRUMENT: 
COLLISIONENERGY: 75
Comment: registered in MassBank
Num Peaks: 5
82.9611	84
122.0037	119
148.00729	112
218.00999	192
243.9897	1000

NAME: Fipronil-sulfone; LC-ESI-ITFT; MS2; CE
PRECURSORMZ: 450.926344
PRECURSORTYPE: [M-H]-
FORMULA: C12H4Cl2F6N4O2S
Ontology: Phenylpyrazoles
INCHIKEY: LGHZJDKSVUTELU-UHFFFAOYSA-N
SMILES: NC1=C(C(=NN1C1=C(Cl)C=C(C=C1Cl)C(F)(F)F)C#N)S(=O)(=O)C(F)(F)F
RETENTIONTIME: 
CCS: -1
IONMODE: Negative
INSTRUMENTTYPE: LC-ESI-ITFT
INSTRUMENT: 
COLLISIONENERGY: 90
Comment: registered in MassBank
Num Peaks: 7
68.9959	116
82.9611	162
122.0038	360
148.0071	483
208.0134	173
223.98441	230
243.9899	1000

NAME: Fipronil-sulfone; LC-ESI-ITFT; MS2; CE
PRECURSORMZ: 450.926344
PRECURSORTYPE: [M-H]-
FORMULA: C12H4Cl2F6N4O2S
Ontology: Phenylpyrazoles
INCHIKEY: LGHZJDKSVUTELU-UHFFFAOYSA-N
SMILES: NC1=C(C(=NN1C1=C(Cl)C=C(C=C1Cl)C(F)(F)F)C#N)S(=O)(=O)C(F)(F)F
RETENTIONTIME: 
CCS: -1
IONMODE: Negative
INSTRUMENTTYPE: LC-ESI-ITFT
INSTRUMENT: 
COLLISIONENERGY: 15
Comment: registered in MassBank
Num Peaks: 2
414.94958	1000
450.92621	763

NAME: Fipronil-sulfone; LC-ESI-ITFT; MS2; CE
PRECURSORMZ: 450.926344
PRECURSORTYPE: [M-H]-
FORMULA: C12H4Cl2F6N4O2S
Ontology: Phenylpyrazoles
INCHIKEY: LGHZJDKSVUTELU-UHFFFAOYSA-N
SMILES: NC1=C(C(=NN1C1=C(Cl)C=C(C=C1Cl)C(F)(F)F)C#N)S(=O)(=O)C(F)(F)F
RETENTIONTIME: 
CCS: -1
IONMODE: Negative
INSTRUMENTTYPE: LC-ESI-ITFT
INSTRUMENT: 
COLLISIONENERGY: 30
Comment: registered in MassBank
Num Peaks: 8
170.0097	85
183.01801	250
217.98669	180
233.9816	102
243.9902	106
281.99271	990
345.9545	74
414.94989	1000

NAME: Fipronil-sulfone; LC-ESI-ITFT; MS2; CE
PRECURSORMZ: 450.926344
PRECURSORTYPE: [M-H]-
FORMULA: C12H4Cl2F6N4O2S
Ontology: Phenylpyrazoles
INCHIKEY: LGHZJDKSVUTELU-UHFFFAOYSA-N
SMILES: NC1=C(C(=NN1C1=C(Cl)C=C(C=C1Cl)C(F)(F)F)C#N)S(=O)(=O)C(F)(F)F
RETENTIONTIME: 
CCS: -1
IONMODE: Negative
INSTRUMENTTYPE: LC-ESI-ITFT
INSTRUMENT: 
COLLISIONENERGY: 45
Comment: registered in MassBank
Num Peaks: 12
68.9956	31
82.961	70
132.95799	52
170.00999	67
183.01781	228
217.9868	132
218.00951	103
233.98199	111
243.9897	290
246.01579	197
261.987	145
281.99289	1000

NAME: Fipronil-sulfone; LC-ESI-ITFT; MS2; CE
PRECURSORMZ: 450.926344
PRECURSORTYPE: [M-H]-
FORMULA: C12H4Cl2F6N4O2S
Ontology: Phenylpyrazoles
INCHIKEY: LGHZJDKSVUTELU-UHFFFAOYSA-N
SMILES: NC1=C(C(=NN1C1=C(Cl)C=C(C=C1Cl)C(F)(F)F)C#N)S(=O)(=O)C(F)(F)F
RETENTIONTIME: 
CCS: -1
IONMODE: Negative
INSTRUMENTTYPE: LC-ESI-ITFT
INSTRUMENT: 
COLLISIONENERGY: 60
Comment: registered in MassBank
Num Peaks: 6
82.9606	49
218.00999	431
243.98959	1000
246.0161	205
261.98709	74
281.99399	105

NAME: Fipronil-sulfone; LC-ESI-ITFT; MS2; CE
PRECURSORMZ: 450.926344
PRECURSORTYPE: [M-H]-
FORMULA: C12H4Cl2F6N4O2S
Ontology: Phenylpyrazoles
INCHIKEY: LGHZJDKSVUTELU-UHFFFAOYSA-N
SMILES: NC1=C(C(=NN1C1=C(Cl)C=C(C=C1Cl)C(F)(F)F)C#N)S(=O)(=O)C(F)(F)F
RETENTIONTIME: 
CCS: -1
IONMODE: Negative
INSTRUMENTTYPE: LC-ESI-ITFT
INSTRUMENT: 
COLLISIONENERGY: 75
Comment: registered in MassBank
Num Peaks: 7
68.9958	40
82.961	105
122.004	85
148.0069	136
198.00391	87
218.0101	254
243.98981	1000

NAME: Fipronil-sulfone; LC-ESI-ITFT; MS2; CE
PRECURSORMZ: 450.926344
PRECURSORTYPE: [M-H]-
FORMULA: C12H4Cl2F6N4O2S
Ontology: Phenylpyrazoles
INCHIKEY: LGHZJDKSVUTELU-UHFFFAOYSA-N
SMILES: NC1=C(C(=NN1C1=C(Cl)C=C(C=C1Cl)C(F)(F)F)C#N)S(=O)(=O)C(F)(F)F
RETENTIONTIME: 
CCS: -1
IONMODE: Negative
INSTRUMENTTYPE: LC-ESI-ITFT
INSTRUMENT: 
COLLISIONENERGY: 90
Comment: registered in MassBank
Num Peaks: 7
68.9957	136
82.9611	82
148.0071	469
198.00369	100
208.0125	155
243.9899	1000
414.94781	92

NAME: Fipronil-sulfone; LC-ESI-ITFT; MS2; CE
PRECURSORMZ: 450.926344
PRECURSORTYPE: [M-H]-
FORMULA: C12H4Cl2F6N4O2S
Ontology: Phenylpyrazoles
INCHIKEY: LGHZJDKSVUTELU-UHFFFAOYSA-N
SMILES: NC1=C(C(=NN1C1=C(Cl)C=C(C=C1Cl)C(F)(F)F)C#N)S(=O)(=O)C(F)(F)F
RETENTIONTIME: 
CCS: -1
IONMODE: Negative
INSTRUMENTTYPE: LC-ESI-ITFT
INSTRUMENT: 
COLLISIONENERGY: 35
Comment: registered in MassBank
Num Peaks: 1
414.94958	1000

NAME: Fipronil-sulfide; LC-ESI-ITFT; MS2; CE
PRECURSORMZ: 418.936515
PRECURSORTYPE: [M-H]-
FORMULA: C12H4Cl2F6N4S
Ontology: Phenylpyrazoles
INCHIKEY: FQXWEKADCSXYOC-UHFFFAOYSA-N
SMILES: NC1=C(SC(F)(F)F)C(=NN1C1=C(Cl)C=C(C=C1Cl)C(F)(F)F)C#N
RETENTIONTIME: 
CCS: -1
IONMODE: Negative
INSTRUMENTTYPE: LC-ESI-ITFT
INSTRUMENT: 
COLLISIONENERGY: 30
Comment: registered in MassBank
Num Peaks: 2
170.0096	490
313.96371	1000

NAME: Fipronil-sulfide; LC-ESI-ITFT; MS2; CE
PRECURSORMZ: 418.936515
PRECURSORTYPE: [M-H]-
FORMULA: C12H4Cl2F6N4S
Ontology: Phenylpyrazoles
INCHIKEY: FQXWEKADCSXYOC-UHFFFAOYSA-N
SMILES: NC1=C(SC(F)(F)F)C(=NN1C1=C(Cl)C=C(C=C1Cl)C(F)(F)F)C#N
RETENTIONTIME: 
CCS: -1
IONMODE: Negative
INSTRUMENTTYPE: LC-ESI-ITFT
INSTRUMENT: 
COLLISIONENERGY: 45
Comment: registered in MassBank
Num Peaks: 1
170.0096	1000

NAME: Fipronil-sulfide; LC-ESI-ITFT; MS2; CE
PRECURSORMZ: 418.936515
PRECURSORTYPE: [M-H]-
FORMULA: C12H4Cl2F6N4S
Ontology: Phenylpyrazoles
INCHIKEY: FQXWEKADCSXYOC-UHFFFAOYSA-N
SMILES: NC1=C(SC(F)(F)F)C(=NN1C1=C(Cl)C=C(C=C1Cl)C(F)(F)F)C#N
RETENTIONTIME: 
CCS: -1
IONMODE: Negative
INSTRUMENTTYPE: LC-ESI-ITFT
INSTRUMENT: 
COLLISIONENERGY: 30
Comment: registered in MassBank
Num Peaks: 2
170.00951	828
313.9642	1000

NAME: Fipronil-sulfide; LC-ESI-ITFT; MS2; CE
PRECURSORMZ: 418.936515
PRECURSORTYPE: [M-H]-
FORMULA: C12H4Cl2F6N4S
Ontology: Phenylpyrazoles
INCHIKEY: FQXWEKADCSXYOC-UHFFFAOYSA-N
SMILES: NC1=C(SC(F)(F)F)C(=NN1C1=C(Cl)C=C(C=C1Cl)C(F)(F)F)C#N
RETENTIONTIME: 
CCS: -1
IONMODE: Negative
INSTRUMENTTYPE: LC-ESI-ITFT
INSTRUMENT: 
COLLISIONENERGY: 45
Comment: registered in MassBank
Num Peaks: 1
170.0096	1000

NAME: Fipronil-desulfinyl; LC-ESI-ITFT; MS2; CE
PRECURSORMZ: 386.964444
PRECURSORTYPE: [M-H]-
FORMULA: C12H4Cl2F6N4
Ontology: Phenylpyrazoles
INCHIKEY: JWKXVHLIRTVXLD-UHFFFAOYSA-N
SMILES: NC1=C(C(=NN1C1=C(Cl)C=C(C=C1Cl)C(F)(F)F)C#N)C(F)(F)F
RETENTIONTIME: 
CCS: -1
IONMODE: Negative
INSTRUMENTTYPE: LC-ESI-ITFT
INSTRUMENT: 
COLLISIONENERGY: 35
Comment: registered in MassBank
Num Peaks: 1
350.98761	1000

NAME: Fipronil-desulfinyl; LC-ESI-ITFT; MS2; CE
PRECURSORMZ: 386.964444
PRECURSORTYPE: [M-H]-
FORMULA: C12H4Cl2F6N4
Ontology: Phenylpyrazoles
INCHIKEY: JWKXVHLIRTVXLD-UHFFFAOYSA-N
SMILES: NC1=C(C(=NN1C1=C(Cl)C=C(C=C1Cl)C(F)(F)F)C#N)C(F)(F)F
RETENTIONTIME: 
CCS: -1
IONMODE: Negative
INSTRUMENTTYPE: LC-ESI-ITFT
INSTRUMENT: 
COLLISIONENERGY: 15
Comment: registered in MassBank
Num Peaks: 1
350.98709	1000

NAME: Fipronil-desulfinyl; LC-ESI-ITFT; MS2; CE
PRECURSORMZ: 386.964444
PRECURSORTYPE: [M-H]-
FORMULA: C12H4Cl2F6N4
Ontology: Phenylpyrazoles
INCHIKEY: JWKXVHLIRTVXLD-UHFFFAOYSA-N
SMILES: NC1=C(C(=NN1C1=C(Cl)C=C(C=C1Cl)C(F)(F)F)C#N)C(F)(F)F
RETENTIONTIME: 
CCS: -1
IONMODE: Negative
INSTRUMENTTYPE: LC-ESI-ITFT
INSTRUMENT: 
COLLISIONENERGY: 30
Comment: registered in MassBank
Num Peaks: 1
350.9873	1000

NAME: Fipronil-desulfinyl; LC-ESI-ITFT; MS2; CE
PRECURSORMZ: 386.964444
PRECURSORTYPE: [M-H]-
FORMULA: C12H4Cl2F6N4
Ontology: Phenylpyrazoles
INCHIKEY: JWKXVHLIRTVXLD-UHFFFAOYSA-N
SMILES: NC1=C(C(=NN1C1=C(Cl)C=C(C=C1Cl)C(F)(F)F)C#N)C(F)(F)F
RETENTIONTIME: 
CCS: -1
IONMODE: Negative
INSTRUMENTTYPE: LC-ESI-ITFT
INSTRUMENT: 
COLLISIONENERGY: 35
Comment: registered in MassBank
Num Peaks: 1
350.9877	1000

NAME: 3,5,6-Trichloro-2-pyridinol; LC-ESI-ITFT; MS2; CE
PRECURSORMZ: 195.91292
PRECURSORTYPE: [M-H]-
FORMULA: C5H2Cl3NO
Ontology: Polyhalopyridines
INCHIKEY: WCYYAQFQZQEUEN-UHFFFAOYSA-N
SMILES: OC1=C(Cl)C=C(Cl)C(Cl)=N1
RETENTIONTIME: 
CCS: 113.7514354
IONMODE: Negative
INSTRUMENTTYPE: LC-ESI-ITFT
INSTRUMENT: 
COLLISIONENERGY: 35
Comment: registered in MassBank
Num Peaks: 2
159.9366	9
195.9129	1000

NAME: 3,5,6-Trichloro-2-pyridinol; LC-ESI-ITFT; MS2; CE
PRECURSORMZ: 195.91292
PRECURSORTYPE: [M-H]-
FORMULA: C5H2Cl3NO
Ontology: Polyhalopyridines
INCHIKEY: WCYYAQFQZQEUEN-UHFFFAOYSA-N
SMILES: OC1=C(Cl)C=C(Cl)C(Cl)=N1
RETENTIONTIME: 
CCS: 113.7514354
IONMODE: Negative
INSTRUMENTTYPE: LC-ESI-ITFT
INSTRUMENT: 
COLLISIONENERGY: 35
Comment: registered in MassBank
Num Peaks: 2
159.9364	5
195.9129	1000

NAME: Imidacloprid; LC-ESI-ITFT; MS2; CE
PRECURSORMZ: 254.045026
PRECURSORTYPE: [M-H]-
FORMULA: C9H10ClN5O2
Ontology: Nitroguanidines
INCHIKEY: YWTYJOPNNQFBPC-UHFFFAOYSA-N
SMILES: ClC1=NC=C(CN2CCN=C2NN(=O)=O)C=C1
RETENTIONTIME: 
CCS: 154.0878118
IONMODE: Negative
INSTRUMENTTYPE: LC-ESI-ITFT
INSTRUMENT: 
COLLISIONENERGY: 35
Comment: registered in MassBank
Num Peaks: 3
153.02251	1000
207.0442	250
210.04401	180

NAME: Imidacloprid; LC-ESI-ITFT; MS2; CE
PRECURSORMZ: 254.045026
PRECURSORTYPE: [M-H]-
FORMULA: C9H10ClN5O2
Ontology: Nitroguanidines
INCHIKEY: YWTYJOPNNQFBPC-UHFFFAOYSA-N
SMILES: ClC1=NC=C(CN2CCN=C2NN(=O)=O)C=C1
RETENTIONTIME: 
CCS: 154.0878118
IONMODE: Negative
INSTRUMENTTYPE: LC-ESI-ITFT
INSTRUMENT: 
COLLISIONENERGY: 30
Comment: registered in MassBank
Num Peaks: 2
153.02229	103
254.045	1000

NAME: Imidacloprid; LC-ESI-ITFT; MS2; CE
PRECURSORMZ: 254.045026
PRECURSORTYPE: [M-H]-
FORMULA: C9H10ClN5O2
Ontology: Nitroguanidines
INCHIKEY: YWTYJOPNNQFBPC-UHFFFAOYSA-N
SMILES: ClC1=NC=C(CN2CCN=C2NN(=O)=O)C=C1
RETENTIONTIME: 
CCS: 154.0878118
IONMODE: Negative
INSTRUMENTTYPE: LC-ESI-ITFT
INSTRUMENT: 
COLLISIONENERGY: 60
Comment: registered in MassBank
Num Peaks: 1
85.9994	1000

NAME: Imidacloprid; LC-ESI-ITFT; MS2; CE
PRECURSORMZ: 254.045026
PRECURSORTYPE: [M-H]-
FORMULA: C9H10ClN5O2
Ontology: Nitroguanidines
INCHIKEY: YWTYJOPNNQFBPC-UHFFFAOYSA-N
SMILES: ClC1=NC=C(CN2CCN=C2NN(=O)=O)C=C1
RETENTIONTIME: 
CCS: 154.0878118
IONMODE: Negative
INSTRUMENTTYPE: LC-ESI-ITFT
INSTRUMENT: 
COLLISIONENERGY: 75
Comment: registered in MassBank
Num Peaks: 1
85.9993	1000

NAME: Imidacloprid; LC-ESI-ITFT; MS2; CE
PRECURSORMZ: 254.045026
PRECURSORTYPE: [M-H]-
FORMULA: C9H10ClN5O2
Ontology: Nitroguanidines
INCHIKEY: YWTYJOPNNQFBPC-UHFFFAOYSA-N
SMILES: ClC1=NC=C(CN2CCN=C2NN(=O)=O)C=C1
RETENTIONTIME: 
CCS: 154.0878118
IONMODE: Negative
INSTRUMENTTYPE: LC-ESI-ITFT
INSTRUMENT: 
COLLISIONENERGY: 15
Comment: registered in MassBank
Num Peaks: 2
153.0219	16
254.04469	1000

NAME: Imidacloprid; LC-ESI-ITFT; MS2; CE
PRECURSORMZ: 254.045026
PRECURSORTYPE: [M-H]-
FORMULA: C9H10ClN5O2
Ontology: Nitroguanidines
INCHIKEY: YWTYJOPNNQFBPC-UHFFFAOYSA-N
SMILES: ClC1=NC=C(CN2CCN=C2NN(=O)=O)C=C1
RETENTIONTIME: 
CCS: 154.0878118
IONMODE: Negative
INSTRUMENTTYPE: LC-ESI-ITFT
INSTRUMENT: 
COLLISIONENERGY: 30
Comment: registered in MassBank
Num Peaks: 2
153.0224	97
254.0446	1000

NAME: Imidacloprid; LC-ESI-ITFT; MS2; CE
PRECURSORMZ: 254.045026
PRECURSORTYPE: [M-H]-
FORMULA: C9H10ClN5O2
Ontology: Nitroguanidines
INCHIKEY: YWTYJOPNNQFBPC-UHFFFAOYSA-N
SMILES: ClC1=NC=C(CN2CCN=C2NN(=O)=O)C=C1
RETENTIONTIME: 
CCS: 154.0878118
IONMODE: Negative
INSTRUMENTTYPE: LC-ESI-ITFT
INSTRUMENT: 
COLLISIONENERGY: 35
Comment: registered in MassBank
Num Peaks: 3
153.02229	1000
207.0439	144
210.0435	158

NAME: MCPB; LC-ESI-ITFT; MS2; CE
PRECURSORMZ: 227.048046
PRECURSORTYPE: [M-H]-
FORMULA: C11H13ClO3
Ontology: Phenol ethers
INCHIKEY: LLWADFLAOKUBDR-UHFFFAOYSA-N
SMILES: CC1=CC(Cl)=CC=C1OCCCC(O)=O
RETENTIONTIME: 
CCS: 150.2833476
IONMODE: Negative
INSTRUMENTTYPE: LC-ESI-ITFT
INSTRUMENT: 
COLLISIONENERGY: 35
Comment: registered in MassBank
Num Peaks: 2
141.0112	1000
158.97861	306

NAME: MCPB; LC-ESI-ITFT; MS2; CE
PRECURSORMZ: 227.048046
PRECURSORTYPE: [M-H]-
FORMULA: C11H13ClO3
Ontology: Phenol ethers
INCHIKEY: LLWADFLAOKUBDR-UHFFFAOYSA-N
SMILES: CC1=CC(Cl)=CC=C1OCCCC(O)=O
RETENTIONTIME: 
CCS: 150.2833476
IONMODE: Negative
INSTRUMENTTYPE: LC-ESI-ITFT
INSTRUMENT: 
COLLISIONENERGY: 15
Comment: registered in MassBank
Num Peaks: 1
141.0114	1000

NAME: MCPB; LC-ESI-ITFT; MS2; CE
PRECURSORMZ: 227.048046
PRECURSORTYPE: [M-H]-
FORMULA: C11H13ClO3
Ontology: Phenol ethers
INCHIKEY: LLWADFLAOKUBDR-UHFFFAOYSA-N
SMILES: CC1=CC(Cl)=CC=C1OCCCC(O)=O
RETENTIONTIME: 
CCS: 150.2833476
IONMODE: Negative
INSTRUMENTTYPE: LC-ESI-ITFT
INSTRUMENT: 
COLLISIONENERGY: 30
Comment: registered in MassBank
Num Peaks: 1
141.011	1000

NAME: MCPB; LC-ESI-ITFT; MS2; CE
PRECURSORMZ: 227.048046
PRECURSORTYPE: [M-H]-
FORMULA: C11H13ClO3
Ontology: Phenol ethers
INCHIKEY: LLWADFLAOKUBDR-UHFFFAOYSA-N
SMILES: CC1=CC(Cl)=CC=C1OCCCC(O)=O
RETENTIONTIME: 
CCS: 150.2833476
IONMODE: Negative
INSTRUMENTTYPE: LC-ESI-ITFT
INSTRUMENT: 
COLLISIONENERGY: 45
Comment: registered in MassBank
Num Peaks: 1
141.01131	1000

NAME: MCPB; LC-ESI-ITFT; MS2; CE
PRECURSORMZ: 227.048046
PRECURSORTYPE: [M-H]-
FORMULA: C11H13ClO3
Ontology: Phenol ethers
INCHIKEY: LLWADFLAOKUBDR-UHFFFAOYSA-N
SMILES: CC1=CC(Cl)=CC=C1OCCCC(O)=O
RETENTIONTIME: 
CCS: 150.2833476
IONMODE: Negative
INSTRUMENTTYPE: LC-ESI-ITFT
INSTRUMENT: 
COLLISIONENERGY: 60
Comment: registered in MassBank
Num Peaks: 1
141.01109	1000

NAME: MCPB; LC-ESI-ITFT; MS2; CE
PRECURSORMZ: 227.048046
PRECURSORTYPE: [M-H]-
FORMULA: C11H13ClO3
Ontology: Phenol ethers
INCHIKEY: LLWADFLAOKUBDR-UHFFFAOYSA-N
SMILES: CC1=CC(Cl)=CC=C1OCCCC(O)=O
RETENTIONTIME: 
CCS: 150.2833476
IONMODE: Negative
INSTRUMENTTYPE: LC-ESI-ITFT
INSTRUMENT: 
COLLISIONENERGY: 75
Comment: registered in MassBank
Num Peaks: 1
141.0116	1000

NAME: MCPB; LC-ESI-ITFT; MS2; CE
PRECURSORMZ: 227.048046
PRECURSORTYPE: [M-H]-
FORMULA: C11H13ClO3
Ontology: Phenol ethers
INCHIKEY: LLWADFLAOKUBDR-UHFFFAOYSA-N
SMILES: CC1=CC(Cl)=CC=C1OCCCC(O)=O
RETENTIONTIME: 
CCS: 150.2833476
IONMODE: Negative
INSTRUMENTTYPE: LC-ESI-ITFT
INSTRUMENT: 
COLLISIONENERGY: 15
Comment: registered in MassBank
Num Peaks: 1
141.0112	1000

NAME: MCPB; LC-ESI-ITFT; MS2; CE
PRECURSORMZ: 227.048046
PRECURSORTYPE: [M-H]-
FORMULA: C11H13ClO3
Ontology: Phenol ethers
INCHIKEY: LLWADFLAOKUBDR-UHFFFAOYSA-N
SMILES: CC1=CC(Cl)=CC=C1OCCCC(O)=O
RETENTIONTIME: 
CCS: 150.2833476
IONMODE: Negative
INSTRUMENTTYPE: LC-ESI-ITFT
INSTRUMENT: 
COLLISIONENERGY: 30
Comment: registered in MassBank
Num Peaks: 1
141.01089	1000

NAME: MCPB; LC-ESI-ITFT; MS2; CE
PRECURSORMZ: 227.048046
PRECURSORTYPE: [M-H]-
FORMULA: C11H13ClO3
Ontology: Phenol ethers
INCHIKEY: LLWADFLAOKUBDR-UHFFFAOYSA-N
SMILES: CC1=CC(Cl)=CC=C1OCCCC(O)=O
RETENTIONTIME: 
CCS: 150.2833476
IONMODE: Negative
INSTRUMENTTYPE: LC-ESI-ITFT
INSTRUMENT: 
COLLISIONENERGY: 45
Comment: registered in MassBank
Num Peaks: 1
141.01109	1000

NAME: MCPB; LC-ESI-ITFT; MS2; CE
PRECURSORMZ: 227.048046
PRECURSORTYPE: [M-H]-
FORMULA: C11H13ClO3
Ontology: Phenol ethers
INCHIKEY: LLWADFLAOKUBDR-UHFFFAOYSA-N
SMILES: CC1=CC(Cl)=CC=C1OCCCC(O)=O
RETENTIONTIME: 
CCS: 150.2833476
IONMODE: Negative
INSTRUMENTTYPE: LC-ESI-ITFT
INSTRUMENT: 
COLLISIONENERGY: 35
Comment: registered in MassBank
Num Peaks: 2
141.01109	794
158.97839	1000

NAME: Perfluorobutyric acid; LC-ESI-ITFT; MS2; CE
PRECURSORMZ: 212.9792
PRECURSORTYPE: [M-H]-
FORMULA: C4HF7O2
Ontology: Perfluoroalkyl carboxylic acid and derivatives
INCHIKEY: YPJUNDFVDDCYIH-UHFFFAOYSA-N
SMILES: OC(=O)C(F)(F)C(F)(F)C(F)(F)F
RETENTIONTIME: 
CCS: -1
IONMODE: Negative
INSTRUMENTTYPE: LC-ESI-ITFT
INSTRUMENT: 
COLLISIONENERGY: 35
Comment: registered in MassBank
Num Peaks: 2
168.98959	1000
212.9789	18

NAME: Perfluorobutyric acid; LC-ESI-ITFT; MS2; CE
PRECURSORMZ: 212.9792
PRECURSORTYPE: [M-H]-
FORMULA: C4HF7O2
Ontology: Perfluoroalkyl carboxylic acid and derivatives
INCHIKEY: YPJUNDFVDDCYIH-UHFFFAOYSA-N
SMILES: OC(=O)C(F)(F)C(F)(F)C(F)(F)F
RETENTIONTIME: 
CCS: -1
IONMODE: Negative
INSTRUMENTTYPE: LC-ESI-ITFT
INSTRUMENT: 
COLLISIONENERGY: 15
Comment: registered in MassBank
Num Peaks: 2
168.98959	1000
212.9791	107

NAME: Perfluorobutyric acid; LC-ESI-ITFT; MS2; CE
PRECURSORMZ: 212.9792
PRECURSORTYPE: [M-H]-
FORMULA: C4HF7O2
Ontology: Perfluoroalkyl carboxylic acid and derivatives
INCHIKEY: YPJUNDFVDDCYIH-UHFFFAOYSA-N
SMILES: OC(=O)C(F)(F)C(F)(F)C(F)(F)F
RETENTIONTIME: 
CCS: -1
IONMODE: Negative
INSTRUMENTTYPE: LC-ESI-ITFT
INSTRUMENT: 
COLLISIONENERGY: 30
Comment: registered in MassBank
Num Peaks: 1
168.9897	1000

NAME: Perfluorobutyric acid; LC-ESI-ITFT; MS2; CE
PRECURSORMZ: 212.9792
PRECURSORTYPE: [M-H]-
FORMULA: C4HF7O2
Ontology: Perfluoroalkyl carboxylic acid and derivatives
INCHIKEY: YPJUNDFVDDCYIH-UHFFFAOYSA-N
SMILES: OC(=O)C(F)(F)C(F)(F)C(F)(F)F
RETENTIONTIME: 
CCS: -1
IONMODE: Negative
INSTRUMENTTYPE: LC-ESI-ITFT
INSTRUMENT: 
COLLISIONENERGY: 90
Comment: registered in MassBank
Num Peaks: 1
168.9897	1000

NAME: Perfluorobutyric acid; LC-ESI-ITFT; MS2; CE
PRECURSORMZ: 212.9792
PRECURSORTYPE: [M-H]-
FORMULA: C4HF7O2
Ontology: Perfluoroalkyl carboxylic acid and derivatives
INCHIKEY: YPJUNDFVDDCYIH-UHFFFAOYSA-N
SMILES: OC(=O)C(F)(F)C(F)(F)C(F)(F)F
RETENTIONTIME: 
CCS: -1
IONMODE: Negative
INSTRUMENTTYPE: LC-ESI-ITFT
INSTRUMENT: 
COLLISIONENERGY: 15
Comment: registered in MassBank
Num Peaks: 2
168.9893	1000
212.97839	86

NAME: Perfluorobutyric acid; LC-ESI-ITFT; MS2; CE
PRECURSORMZ: 212.9792
PRECURSORTYPE: [M-H]-
FORMULA: C4HF7O2
Ontology: Perfluoroalkyl carboxylic acid and derivatives
INCHIKEY: YPJUNDFVDDCYIH-UHFFFAOYSA-N
SMILES: OC(=O)C(F)(F)C(F)(F)C(F)(F)F
RETENTIONTIME: 
CCS: -1
IONMODE: Negative
INSTRUMENTTYPE: LC-ESI-ITFT
INSTRUMENT: 
COLLISIONENERGY: 30
Comment: registered in MassBank
Num Peaks: 1
168.9893	1000

NAME: Perfluorobutyric acid; LC-ESI-ITFT; MS2; CE
PRECURSORMZ: 212.9792
PRECURSORTYPE: [M-H]-
FORMULA: C4HF7O2
Ontology: Perfluoroalkyl carboxylic acid and derivatives
INCHIKEY: YPJUNDFVDDCYIH-UHFFFAOYSA-N
SMILES: OC(=O)C(F)(F)C(F)(F)C(F)(F)F
RETENTIONTIME: 
CCS: -1
IONMODE: Negative
INSTRUMENTTYPE: LC-ESI-ITFT
INSTRUMENT: 
COLLISIONENERGY: 45
Comment: registered in MassBank
Num Peaks: 1
168.9892	1000

NAME: Perfluoropentanoic acid; LC-ESI-ITFT; MS2; CE
PRECURSORMZ: 262.976007
PRECURSORTYPE: [M-H]-
FORMULA: C5HF9O2
Ontology: Perfluoroalkyl carboxylic acid and derivatives
INCHIKEY: CXZGQIAOTKWCDB-UHFFFAOYSA-N
SMILES: OC(=O)C(F)(F)C(F)(F)C(F)(F)C(F)(F)F
RETENTIONTIME: 
CCS: -1
IONMODE: Negative
INSTRUMENTTYPE: LC-ESI-ITFT
INSTRUMENT: 
COLLISIONENERGY: 35
Comment: registered in MassBank
Num Peaks: 1
218.98621	1000

NAME: Perfluoropentanoic acid; LC-ESI-ITFT; MS2; CE
PRECURSORMZ: 262.976007
PRECURSORTYPE: [M-H]-
FORMULA: C5HF9O2
Ontology: Perfluoroalkyl carboxylic acid and derivatives
INCHIKEY: CXZGQIAOTKWCDB-UHFFFAOYSA-N
SMILES: OC(=O)C(F)(F)C(F)(F)C(F)(F)C(F)(F)F
RETENTIONTIME: 
CCS: -1
IONMODE: Negative
INSTRUMENTTYPE: LC-ESI-ITFT
INSTRUMENT: 
COLLISIONENERGY: 15
Comment: registered in MassBank
Num Peaks: 1
218.98599	1000

NAME: Perfluoropentanoic acid; LC-ESI-ITFT; MS2; CE
PRECURSORMZ: 262.976007
PRECURSORTYPE: [M-H]-
FORMULA: C5HF9O2
Ontology: Perfluoroalkyl carboxylic acid and derivatives
INCHIKEY: CXZGQIAOTKWCDB-UHFFFAOYSA-N
SMILES: OC(=O)C(F)(F)C(F)(F)C(F)(F)C(F)(F)F
RETENTIONTIME: 
CCS: -1
IONMODE: Negative
INSTRUMENTTYPE: LC-ESI-ITFT
INSTRUMENT: 
COLLISIONENERGY: 90
Comment: registered in MassBank
Num Peaks: 1
218.9865	1000

NAME: Perfluoropentanoic acid; LC-ESI-ITFT; MS2; CE
PRECURSORMZ: 262.976007
PRECURSORTYPE: [M-H]-
FORMULA: C5HF9O2
Ontology: Perfluoroalkyl carboxylic acid and derivatives
INCHIKEY: CXZGQIAOTKWCDB-UHFFFAOYSA-N
SMILES: OC(=O)C(F)(F)C(F)(F)C(F)(F)C(F)(F)F
RETENTIONTIME: 
CCS: -1
IONMODE: Negative
INSTRUMENTTYPE: LC-ESI-ITFT
INSTRUMENT: 
COLLISIONENERGY: 15
Comment: registered in MassBank
Num Peaks: 2
196.9834	12
218.98579	1000

NAME: Perfluoropentanoic acid; LC-ESI-ITFT; MS2; CE
PRECURSORMZ: 262.976007
PRECURSORTYPE: [M-H]-
FORMULA: C5HF9O2
Ontology: Perfluoroalkyl carboxylic acid and derivatives
INCHIKEY: CXZGQIAOTKWCDB-UHFFFAOYSA-N
SMILES: OC(=O)C(F)(F)C(F)(F)C(F)(F)C(F)(F)F
RETENTIONTIME: 
CCS: -1
IONMODE: Negative
INSTRUMENTTYPE: LC-ESI-ITFT
INSTRUMENT: 
COLLISIONENERGY: 30
Comment: registered in MassBank
Num Peaks: 1
218.9857	1000

NAME: Perfluoropentanoic acid; LC-ESI-ITFT; MS2; CE
PRECURSORMZ: 262.976007
PRECURSORTYPE: [M-H]-
FORMULA: C5HF9O2
Ontology: Perfluoroalkyl carboxylic acid and derivatives
INCHIKEY: CXZGQIAOTKWCDB-UHFFFAOYSA-N
SMILES: OC(=O)C(F)(F)C(F)(F)C(F)(F)C(F)(F)F
RETENTIONTIME: 
CCS: -1
IONMODE: Negative
INSTRUMENTTYPE: LC-ESI-ITFT
INSTRUMENT: 
COLLISIONENERGY: 45
Comment: registered in MassBank
Num Peaks: 1
218.9865	1000

NAME: Perfluorohexanoic acid; LC-ESI-ITFT; MS2; CE
PRECURSORMZ: 312.972813
PRECURSORTYPE: [M-H]-
FORMULA: C6HF11O2
Ontology: Perfluoroalkyl carboxylic acid and derivatives
INCHIKEY: PXUULQAPEKKVAH-UHFFFAOYSA-N
SMILES: OC(=O)C(F)(F)C(F)(F)C(F)(F)C(F)(F)C(F)(F)F
RETENTIONTIME: 
CCS: 129.7092754
IONMODE: Negative
INSTRUMENTTYPE: LC-ESI-ITFT
INSTRUMENT: 
COLLISIONENERGY: 35
Comment: registered in MassBank
Num Peaks: 1
268.9834	1000

NAME: Perfluorohexanoic acid; LC-ESI-ITFT; MS2; CE
PRECURSORMZ: 312.972813
PRECURSORTYPE: [M-H]-
FORMULA: C6HF11O2
Ontology: Perfluoroalkyl carboxylic acid and derivatives
INCHIKEY: PXUULQAPEKKVAH-UHFFFAOYSA-N
SMILES: OC(=O)C(F)(F)C(F)(F)C(F)(F)C(F)(F)C(F)(F)F
RETENTIONTIME: 
CCS: 129.7092754
IONMODE: Negative
INSTRUMENTTYPE: LC-ESI-ITFT
INSTRUMENT: 
COLLISIONENERGY: 15
Comment: registered in MassBank
Num Peaks: 1
268.98331	1000

NAME: Perfluorohexanoic acid; LC-ESI-ITFT; MS2; CE
PRECURSORMZ: 312.972813
PRECURSORTYPE: [M-H]-
FORMULA: C6HF11O2
Ontology: Perfluoroalkyl carboxylic acid and derivatives
INCHIKEY: PXUULQAPEKKVAH-UHFFFAOYSA-N
SMILES: OC(=O)C(F)(F)C(F)(F)C(F)(F)C(F)(F)C(F)(F)F
RETENTIONTIME: 
CCS: 129.7092754
IONMODE: Negative
INSTRUMENTTYPE: LC-ESI-ITFT
INSTRUMENT: 
COLLISIONENERGY: 30
Comment: registered in MassBank
Num Peaks: 1
118.9928	1000

NAME: Perfluorohexanoic acid; LC-ESI-ITFT; MS2; CE
PRECURSORMZ: 312.972813
PRECURSORTYPE: [M-H]-
FORMULA: C6HF11O2
Ontology: Perfluoroalkyl carboxylic acid and derivatives
INCHIKEY: PXUULQAPEKKVAH-UHFFFAOYSA-N
SMILES: OC(=O)C(F)(F)C(F)(F)C(F)(F)C(F)(F)C(F)(F)F
RETENTIONTIME: 
CCS: 129.7092754
IONMODE: Negative
INSTRUMENTTYPE: LC-ESI-ITFT
INSTRUMENT: 
COLLISIONENERGY: 45
Comment: registered in MassBank
Num Peaks: 1
118.9921	1000

NAME: Perfluorohexanoic acid; LC-ESI-ITFT; MS2; CE
PRECURSORMZ: 312.972813
PRECURSORTYPE: [M-H]-
FORMULA: C6HF11O2
Ontology: Perfluoroalkyl carboxylic acid and derivatives
INCHIKEY: PXUULQAPEKKVAH-UHFFFAOYSA-N
SMILES: OC(=O)C(F)(F)C(F)(F)C(F)(F)C(F)(F)C(F)(F)F
RETENTIONTIME: 
CCS: 129.7092754
IONMODE: Negative
INSTRUMENTTYPE: LC-ESI-ITFT
INSTRUMENT: 
COLLISIONENERGY: 60
Comment: registered in MassBank
Num Peaks: 1
118.9927	1000

NAME: Perfluorohexanoic acid; LC-ESI-ITFT; MS2; CE
PRECURSORMZ: 312.972813
PRECURSORTYPE: [M-H]-
FORMULA: C6HF11O2
Ontology: Perfluoroalkyl carboxylic acid and derivatives
INCHIKEY: PXUULQAPEKKVAH-UHFFFAOYSA-N
SMILES: OC(=O)C(F)(F)C(F)(F)C(F)(F)C(F)(F)C(F)(F)F
RETENTIONTIME: 
CCS: 129.7092754
IONMODE: Negative
INSTRUMENTTYPE: LC-ESI-ITFT
INSTRUMENT: 
COLLISIONENERGY: 90
Comment: registered in MassBank
Num Peaks: 2
268.98361	1000
312.98279	276

NAME: Perfluorohexanoic acid; LC-ESI-ITFT; MS2; CE
PRECURSORMZ: 312.972813
PRECURSORTYPE: [M-H]-
FORMULA: C6HF11O2
Ontology: Perfluoroalkyl carboxylic acid and derivatives
INCHIKEY: PXUULQAPEKKVAH-UHFFFAOYSA-N
SMILES: OC(=O)C(F)(F)C(F)(F)C(F)(F)C(F)(F)C(F)(F)F
RETENTIONTIME: 
CCS: 129.7092754
IONMODE: Negative
INSTRUMENTTYPE: LC-ESI-ITFT
INSTRUMENT: 
COLLISIONENERGY: 15
Comment: registered in MassBank
Num Peaks: 2
268.98279	1000
312.97131	21

NAME: Perfluorohexanoic acid; LC-ESI-ITFT; MS2; CE
PRECURSORMZ: 312.972813
PRECURSORTYPE: [M-H]-
FORMULA: C6HF11O2
Ontology: Perfluoroalkyl carboxylic acid and derivatives
INCHIKEY: PXUULQAPEKKVAH-UHFFFAOYSA-N
SMILES: OC(=O)C(F)(F)C(F)(F)C(F)(F)C(F)(F)C(F)(F)F
RETENTIONTIME: 
CCS: 129.7092754
IONMODE: Negative
INSTRUMENTTYPE: LC-ESI-ITFT
INSTRUMENT: 
COLLISIONENERGY: 30
Comment: registered in MassBank
Num Peaks: 3
118.9926	422
268.98209	1000
312.9834	153

NAME: Perfluoroheptanoic acid; LC-ESI-ITFT; MS2; CE
PRECURSORMZ: 362.969619
PRECURSORTYPE: [M-H]-
FORMULA: C7HF13O2
Ontology: Perfluoroalkyl carboxylic acid and derivatives
INCHIKEY: ZWBAMYVPMDSJGQ-UHFFFAOYSA-N
SMILES: OC(=O)C(F)(F)C(F)(F)C(F)(F)C(F)(F)C(F)(F)C(F)(F)F
RETENTIONTIME: 
CCS: 146.340194
IONMODE: Negative
INSTRUMENTTYPE: LC-ESI-ITFT
INSTRUMENT: 
COLLISIONENERGY: 35
Comment: registered in MassBank
Num Peaks: 3
168.98911	29
318.9798	1000
362.98199	6

NAME: Perfluoroheptanoic acid; LC-ESI-ITFT; MS2; CE
PRECURSORMZ: 362.969619
PRECURSORTYPE: [M-H]-
FORMULA: C7HF13O2
Ontology: Perfluoroalkyl carboxylic acid and derivatives
INCHIKEY: ZWBAMYVPMDSJGQ-UHFFFAOYSA-N
SMILES: OC(=O)C(F)(F)C(F)(F)C(F)(F)C(F)(F)C(F)(F)C(F)(F)F
RETENTIONTIME: 
CCS: 146.340194
IONMODE: Negative
INSTRUMENTTYPE: LC-ESI-ITFT
INSTRUMENT: 
COLLISIONENERGY: 15
Comment: registered in MassBank
Num Peaks: 2
168.98911	88
318.97919	1000

NAME: Perfluoroheptanoic acid; LC-ESI-ITFT; MS2; CE
PRECURSORMZ: 362.969619
PRECURSORTYPE: [M-H]-
FORMULA: C7HF13O2
Ontology: Perfluoroalkyl carboxylic acid and derivatives
INCHIKEY: ZWBAMYVPMDSJGQ-UHFFFAOYSA-N
SMILES: OC(=O)C(F)(F)C(F)(F)C(F)(F)C(F)(F)C(F)(F)C(F)(F)F
RETENTIONTIME: 
CCS: 146.340194
IONMODE: Negative
INSTRUMENTTYPE: LC-ESI-ITFT
INSTRUMENT: 
COLLISIONENERGY: 30
Comment: registered in MassBank
Num Peaks: 2
118.9925	206
168.9894	1000

NAME: Perfluoroheptanoic acid; LC-ESI-ITFT; MS2; CE
PRECURSORMZ: 362.969619
PRECURSORTYPE: [M-H]-
FORMULA: C7HF13O2
Ontology: Perfluoroalkyl carboxylic acid and derivatives
INCHIKEY: ZWBAMYVPMDSJGQ-UHFFFAOYSA-N
SMILES: OC(=O)C(F)(F)C(F)(F)C(F)(F)C(F)(F)C(F)(F)C(F)(F)F
RETENTIONTIME: 
CCS: 146.340194
IONMODE: Negative
INSTRUMENTTYPE: LC-ESI-ITFT
INSTRUMENT: 
COLLISIONENERGY: 45
Comment: registered in MassBank
Num Peaks: 2
118.9921	610
168.9894	1000

NAME: Perfluoroheptanoic acid; LC-ESI-ITFT; MS2; CE
PRECURSORMZ: 362.969619
PRECURSORTYPE: [M-H]-
FORMULA: C7HF13O2
Ontology: Perfluoroalkyl carboxylic acid and derivatives
INCHIKEY: ZWBAMYVPMDSJGQ-UHFFFAOYSA-N
SMILES: OC(=O)C(F)(F)C(F)(F)C(F)(F)C(F)(F)C(F)(F)C(F)(F)F
RETENTIONTIME: 
CCS: 146.340194
IONMODE: Negative
INSTRUMENTTYPE: LC-ESI-ITFT
INSTRUMENT: 
COLLISIONENERGY: 60
Comment: registered in MassBank
Num Peaks: 1
318.98001	1000

NAME: Perfluoroheptanoic acid; LC-ESI-ITFT; MS2; CE
PRECURSORMZ: 362.969619
PRECURSORTYPE: [M-H]-
FORMULA: C7HF13O2
Ontology: Perfluoroalkyl carboxylic acid and derivatives
INCHIKEY: ZWBAMYVPMDSJGQ-UHFFFAOYSA-N
SMILES: OC(=O)C(F)(F)C(F)(F)C(F)(F)C(F)(F)C(F)(F)C(F)(F)F
RETENTIONTIME: 
CCS: 146.340194
IONMODE: Negative
INSTRUMENTTYPE: LC-ESI-ITFT
INSTRUMENT: 
COLLISIONENERGY: 15
Comment: registered in MassBank
Num Peaks: 2
168.98911	105
318.97989	1000

NAME: Perfluoroheptanoic acid; LC-ESI-ITFT; MS2; CE
PRECURSORMZ: 362.969619
PRECURSORTYPE: [M-H]-
FORMULA: C7HF13O2
Ontology: Perfluoroalkyl carboxylic acid and derivatives
INCHIKEY: ZWBAMYVPMDSJGQ-UHFFFAOYSA-N
SMILES: OC(=O)C(F)(F)C(F)(F)C(F)(F)C(F)(F)C(F)(F)C(F)(F)F
RETENTIONTIME: 
CCS: 146.340194
IONMODE: Negative
INSTRUMENTTYPE: LC-ESI-ITFT
INSTRUMENT: 
COLLISIONENERGY: 30
Comment: registered in MassBank
Num Peaks: 4
118.9925	134
168.9892	1000
318.97961	213
362.98029	131

NAME: Perfluorooctanoic acid; LC-ESI-ITFT; MS2; CE
PRECURSORMZ: 412.966426
PRECURSORTYPE: [M-H]-
FORMULA: C8HF15O2
Ontology: Perfluoroalkyl carboxylic acid and derivatives
INCHIKEY: SNGREZUHAYWORS-UHFFFAOYSA-N
SMILES: OC(=O)C(F)(F)C(F)(F)C(F)(F)C(F)(F)C(F)(F)C(F)(F)C(F)(F)F
RETENTIONTIME: 
CCS: 144.7009144
IONMODE: Negative
INSTRUMENTTYPE: LC-ESI-ITFT
INSTRUMENT: 
COLLISIONENERGY: 35
Comment: registered in MassBank
Num Peaks: 4
168.9893	41
218.9863	24
368.97711	1000
412.97711	8

NAME: Perfluorooctanoic acid; LC-ESI-ITFT; MS2; CE
PRECURSORMZ: 412.966426
PRECURSORTYPE: [M-H]-
FORMULA: C8HF15O2
Ontology: Perfluoroalkyl carboxylic acid and derivatives
INCHIKEY: SNGREZUHAYWORS-UHFFFAOYSA-N
SMILES: OC(=O)C(F)(F)C(F)(F)C(F)(F)C(F)(F)C(F)(F)C(F)(F)C(F)(F)F
RETENTIONTIME: 
CCS: 144.7009144
IONMODE: Negative
INSTRUMENTTYPE: LC-ESI-ITFT
INSTRUMENT: 
COLLISIONENERGY: 15
Comment: registered in MassBank
Num Peaks: 3
168.98911	276
218.9854	121
368.97559	1000

NAME: Perfluorooctanoic acid; LC-ESI-ITFT; MS2; CE
PRECURSORMZ: 412.966426
PRECURSORTYPE: [M-H]-
FORMULA: C8HF15O2
Ontology: Perfluoroalkyl carboxylic acid and derivatives
INCHIKEY: SNGREZUHAYWORS-UHFFFAOYSA-N
SMILES: OC(=O)C(F)(F)C(F)(F)C(F)(F)C(F)(F)C(F)(F)C(F)(F)C(F)(F)F
RETENTIONTIME: 
CCS: 144.7009144
IONMODE: Negative
INSTRUMENTTYPE: LC-ESI-ITFT
INSTRUMENT: 
COLLISIONENERGY: 30
Comment: registered in MassBank
Num Peaks: 1
168.9893	1000

NAME: Perfluorooctanoic acid; LC-ESI-ITFT; MS2; CE
PRECURSORMZ: 412.966426
PRECURSORTYPE: [M-H]-
FORMULA: C8HF15O2
Ontology: Perfluoroalkyl carboxylic acid and derivatives
INCHIKEY: SNGREZUHAYWORS-UHFFFAOYSA-N
SMILES: OC(=O)C(F)(F)C(F)(F)C(F)(F)C(F)(F)C(F)(F)C(F)(F)C(F)(F)F
RETENTIONTIME: 
CCS: 144.7009144
IONMODE: Negative
INSTRUMENTTYPE: LC-ESI-ITFT
INSTRUMENT: 
COLLISIONENERGY: 45
Comment: registered in MassBank
Num Peaks: 1
168.98959	1000

NAME: Perfluorooctanoic acid; LC-ESI-ITFT; MS2; CE
PRECURSORMZ: 412.966426
PRECURSORTYPE: [M-H]-
FORMULA: C8HF15O2
Ontology: Perfluoroalkyl carboxylic acid and derivatives
INCHIKEY: SNGREZUHAYWORS-UHFFFAOYSA-N
SMILES: OC(=O)C(F)(F)C(F)(F)C(F)(F)C(F)(F)C(F)(F)C(F)(F)C(F)(F)F
RETENTIONTIME: 
CCS: 144.7009144
IONMODE: Negative
INSTRUMENTTYPE: LC-ESI-ITFT
INSTRUMENT: 
COLLISIONENERGY: 90
Comment: registered in MassBank
Num Peaks: 2
368.97769	890
412.9758	1000

NAME: Perfluorooctanoic acid; LC-ESI-ITFT; MS2; CE
PRECURSORMZ: 412.966426
PRECURSORTYPE: [M-H]-
FORMULA: C8HF15O2
Ontology: Perfluoroalkyl carboxylic acid and derivatives
INCHIKEY: SNGREZUHAYWORS-UHFFFAOYSA-N
SMILES: OC(=O)C(F)(F)C(F)(F)C(F)(F)C(F)(F)C(F)(F)C(F)(F)C(F)(F)F
RETENTIONTIME: 
CCS: 144.7009144
IONMODE: Negative
INSTRUMENTTYPE: LC-ESI-ITFT
INSTRUMENT: 
COLLISIONENERGY: 15
Comment: registered in MassBank
Num Peaks: 4
168.98911	246
218.9856	83
368.97681	1000
412.9791	50

NAME: Perfluorooctanoic acid; LC-ESI-ITFT; MS2; CE
PRECURSORMZ: 412.966426
PRECURSORTYPE: [M-H]-
FORMULA: C8HF15O2
Ontology: Perfluoroalkyl carboxylic acid and derivatives
INCHIKEY: SNGREZUHAYWORS-UHFFFAOYSA-N
SMILES: OC(=O)C(F)(F)C(F)(F)C(F)(F)C(F)(F)C(F)(F)C(F)(F)C(F)(F)F
RETENTIONTIME: 
CCS: 144.7009144
IONMODE: Negative
INSTRUMENTTYPE: LC-ESI-ITFT
INSTRUMENT: 
COLLISIONENERGY: 30
Comment: registered in MassBank
Num Peaks: 2
168.98911	1000
218.98599	177

NAME: Perfluorooctanoic acid; LC-ESI-ITFT; MS2; CE
PRECURSORMZ: 412.966426
PRECURSORTYPE: [M-H]-
FORMULA: C8HF15O2
Ontology: Perfluoroalkyl carboxylic acid and derivatives
INCHIKEY: SNGREZUHAYWORS-UHFFFAOYSA-N
SMILES: OC(=O)C(F)(F)C(F)(F)C(F)(F)C(F)(F)C(F)(F)C(F)(F)C(F)(F)F
RETENTIONTIME: 
CCS: 144.7009144
IONMODE: Negative
INSTRUMENTTYPE: LC-ESI-ITFT
INSTRUMENT: 
COLLISIONENERGY: 45
Comment: registered in MassBank
Num Peaks: 2
168.989	1000
412.97711	868

NAME: Perfluorononanoic acid; LC-ESI-ITFT; MS2; CE
PRECURSORMZ: 462.963232
PRECURSORTYPE: [M-H]-
FORMULA: C9HF17O2
Ontology: Perfluorooctanoic acid and derivatives
INCHIKEY: UZUFPBIDKMEQEQ-UHFFFAOYSA-N
SMILES: OC(=O)C(F)(F)C(F)(F)C(F)(F)C(F)(F)C(F)(F)C(F)(F)C(F)(F)C(F)(F)F
RETENTIONTIME: 
CCS: 152.2715641
IONMODE: Negative
INSTRUMENTTYPE: LC-ESI-ITFT
INSTRUMENT: 
COLLISIONENERGY: 35
Comment: registered in MassBank
Num Peaks: 4
168.989	24
218.9859	79
268.9834	13
418.9733	1000

NAME: Perfluorononanoic acid; LC-ESI-ITFT; MS2; CE
PRECURSORMZ: 462.963232
PRECURSORTYPE: [M-H]-
FORMULA: C9HF17O2
Ontology: Perfluorooctanoic acid and derivatives
INCHIKEY: UZUFPBIDKMEQEQ-UHFFFAOYSA-N
SMILES: OC(=O)C(F)(F)C(F)(F)C(F)(F)C(F)(F)C(F)(F)C(F)(F)C(F)(F)C(F)(F)F
RETENTIONTIME: 
CCS: 152.2715641
IONMODE: Negative
INSTRUMENTTYPE: LC-ESI-ITFT
INSTRUMENT: 
COLLISIONENERGY: 15
Comment: registered in MassBank
Num Peaks: 2
218.9856	324
418.97189	1000

NAME: Perfluorononanoic acid; LC-ESI-ITFT; MS2; CE
PRECURSORMZ: 462.963232
PRECURSORTYPE: [M-H]-
FORMULA: C9HF17O2
Ontology: Perfluorooctanoic acid and derivatives
INCHIKEY: UZUFPBIDKMEQEQ-UHFFFAOYSA-N
SMILES: OC(=O)C(F)(F)C(F)(F)C(F)(F)C(F)(F)C(F)(F)C(F)(F)C(F)(F)C(F)(F)F
RETENTIONTIME: 
CCS: 152.2715641
IONMODE: Negative
INSTRUMENTTYPE: LC-ESI-ITFT
INSTRUMENT: 
COLLISIONENERGY: 30
Comment: registered in MassBank
Num Peaks: 2
168.98869	1000
218.9861	469

NAME: Perfluorononanoic acid; LC-ESI-ITFT; MS2; CE
PRECURSORMZ: 462.963232
PRECURSORTYPE: [M-H]-
FORMULA: C9HF17O2
Ontology: Perfluorooctanoic acid and derivatives
INCHIKEY: UZUFPBIDKMEQEQ-UHFFFAOYSA-N
SMILES: OC(=O)C(F)(F)C(F)(F)C(F)(F)C(F)(F)C(F)(F)C(F)(F)C(F)(F)C(F)(F)F
RETENTIONTIME: 
CCS: 152.2715641
IONMODE: Negative
INSTRUMENTTYPE: LC-ESI-ITFT
INSTRUMENT: 
COLLISIONENERGY: 45
Comment: registered in MassBank
Num Peaks: 1
168.9901	1000

NAME: Perfluorononanoic acid; LC-ESI-ITFT; MS2; CE
PRECURSORMZ: 462.963232
PRECURSORTYPE: [M-H]-
FORMULA: C9HF17O2
Ontology: Perfluorooctanoic acid and derivatives
INCHIKEY: UZUFPBIDKMEQEQ-UHFFFAOYSA-N
SMILES: OC(=O)C(F)(F)C(F)(F)C(F)(F)C(F)(F)C(F)(F)C(F)(F)C(F)(F)C(F)(F)F
RETENTIONTIME: 
CCS: 152.2715641
IONMODE: Negative
INSTRUMENTTYPE: LC-ESI-ITFT
INSTRUMENT: 
COLLISIONENERGY: 75
Comment: registered in MassBank
Num Peaks: 1
418.97269	1000

NAME: Perfluorononanoic acid; LC-ESI-ITFT; MS2; CE
PRECURSORMZ: 462.963232
PRECURSORTYPE: [M-H]-
FORMULA: C9HF17O2
Ontology: Perfluorooctanoic acid and derivatives
INCHIKEY: UZUFPBIDKMEQEQ-UHFFFAOYSA-N
SMILES: OC(=O)C(F)(F)C(F)(F)C(F)(F)C(F)(F)C(F)(F)C(F)(F)C(F)(F)C(F)(F)F
RETENTIONTIME: 
CCS: 152.2715641
IONMODE: Negative
INSTRUMENTTYPE: LC-ESI-ITFT
INSTRUMENT: 
COLLISIONENERGY: 90
Comment: registered in MassBank
Num Peaks: 1
418.97391	1000

NAME: Perfluorononanoic acid; LC-ESI-ITFT; MS2; CE
PRECURSORMZ: 462.963232
PRECURSORTYPE: [M-H]-
FORMULA: C9HF17O2
Ontology: Perfluorooctanoic acid and derivatives
INCHIKEY: UZUFPBIDKMEQEQ-UHFFFAOYSA-N
SMILES: OC(=O)C(F)(F)C(F)(F)C(F)(F)C(F)(F)C(F)(F)C(F)(F)C(F)(F)C(F)(F)F
RETENTIONTIME: 
CCS: 152.2715641
IONMODE: Negative
INSTRUMENTTYPE: LC-ESI-ITFT
INSTRUMENT: 
COLLISIONENERGY: 15
Comment: registered in MassBank
Num Peaks: 4
168.9892	292
218.98621	366
268.9834	143
418.9722	1000

NAME: Perfluorononanoic acid; LC-ESI-ITFT; MS2; CE
PRECURSORMZ: 462.963232
PRECURSORTYPE: [M-H]-
FORMULA: C9HF17O2
Ontology: Perfluorooctanoic acid and derivatives
INCHIKEY: UZUFPBIDKMEQEQ-UHFFFAOYSA-N
SMILES: OC(=O)C(F)(F)C(F)(F)C(F)(F)C(F)(F)C(F)(F)C(F)(F)C(F)(F)C(F)(F)F
RETENTIONTIME: 
CCS: 152.2715641
IONMODE: Negative
INSTRUMENTTYPE: LC-ESI-ITFT
INSTRUMENT: 
COLLISIONENERGY: 30
Comment: registered in MassBank
Num Peaks: 2
168.989	1000
218.98579	413

NAME: Perfluorodecanoic acid; LC-ESI-ITFT; MS2; CE
PRECURSORMZ: 512.960039
PRECURSORTYPE: [M-H]-
FORMULA: C10HF19O2
Ontology: Perfluoroalkyl carboxylic acid and derivatives
INCHIKEY: PCIUEQPBYFRTEM-UHFFFAOYSA-N
SMILES: OC(=O)C(F)(F)C(F)(F)C(F)(F)C(F)(F)C(F)(F)C(F)(F)C(F)(F)C(F)(F)C(F)(F)F
RETENTIONTIME: 
CCS: 159.2859971
IONMODE: Negative
INSTRUMENTTYPE: LC-ESI-ITFT
INSTRUMENT: 
COLLISIONENERGY: 35
Comment: registered in MassBank
Num Peaks: 3
218.98599	53
268.9826	44
468.97031	1000

NAME: Perfluorodecanoic acid; LC-ESI-ITFT; MS2; CE
PRECURSORMZ: 512.960039
PRECURSORTYPE: [M-H]-
FORMULA: C10HF19O2
Ontology: Perfluoroalkyl carboxylic acid and derivatives
INCHIKEY: PCIUEQPBYFRTEM-UHFFFAOYSA-N
SMILES: OC(=O)C(F)(F)C(F)(F)C(F)(F)C(F)(F)C(F)(F)C(F)(F)C(F)(F)C(F)(F)C(F)(F)F
RETENTIONTIME: 
CCS: 159.2859971
IONMODE: Negative
INSTRUMENTTYPE: LC-ESI-ITFT
INSTRUMENT: 
COLLISIONENERGY: 15
Comment: registered in MassBank
Num Peaks: 1
218.98621	1000

NAME: Perfluorodecanoic acid; LC-ESI-ITFT; MS2; CE
PRECURSORMZ: 512.960039
PRECURSORTYPE: [M-H]-
FORMULA: C10HF19O2
Ontology: Perfluoroalkyl carboxylic acid and derivatives
INCHIKEY: PCIUEQPBYFRTEM-UHFFFAOYSA-N
SMILES: OC(=O)C(F)(F)C(F)(F)C(F)(F)C(F)(F)C(F)(F)C(F)(F)C(F)(F)C(F)(F)C(F)(F)F
RETENTIONTIME: 
CCS: 159.2859971
IONMODE: Negative
INSTRUMENTTYPE: LC-ESI-ITFT
INSTRUMENT: 
COLLISIONENERGY: 30
Comment: registered in MassBank
Num Peaks: 1
468.96909	1000

NAME: Perfluorodecanoic acid; LC-ESI-ITFT; MS2; CE
PRECURSORMZ: 512.960039
PRECURSORTYPE: [M-H]-
FORMULA: C10HF19O2
Ontology: Perfluoroalkyl carboxylic acid and derivatives
INCHIKEY: PCIUEQPBYFRTEM-UHFFFAOYSA-N
SMILES: OC(=O)C(F)(F)C(F)(F)C(F)(F)C(F)(F)C(F)(F)C(F)(F)C(F)(F)C(F)(F)C(F)(F)F
RETENTIONTIME: 
CCS: 159.2859971
IONMODE: Negative
INSTRUMENTTYPE: LC-ESI-ITFT
INSTRUMENT: 
COLLISIONENERGY: 15
Comment: registered in MassBank
Num Peaks: 2
218.98579	832
268.9823	1000

NAME: Perfluoroundecanoic acid; LC-ESI-ITFT; MS2; CE
PRECURSORMZ: 562.956845
PRECURSORTYPE: [M-H]-
FORMULA: C11HF21O2
Ontology: Perfluoroalkyl carboxylic acid and derivatives
INCHIKEY: SIDINRCMMRKXGQ-UHFFFAOYSA-N
SMILES: OC(=O)C(F)(F)C(F)(F)C(F)(F)C(F)(F)C(F)(F)C(F)(F)C(F)(F)C(F)(F)C(F)(F)C(F)(F)F
RETENTIONTIME: 
CCS: 166.2714402
IONMODE: Negative
INSTRUMENTTYPE: LC-ESI-ITFT
INSTRUMENT: 
COLLISIONENERGY: 35
Comment: registered in MassBank
Num Peaks: 1
518.96582	1000

NAME: Perfluoroundecanoic acid; LC-ESI-ITFT; MS2; CE
PRECURSORMZ: 562.956845
PRECURSORTYPE: [M-H]-
FORMULA: C11HF21O2
Ontology: Perfluoroalkyl carboxylic acid and derivatives
INCHIKEY: SIDINRCMMRKXGQ-UHFFFAOYSA-N
SMILES: OC(=O)C(F)(F)C(F)(F)C(F)(F)C(F)(F)C(F)(F)C(F)(F)C(F)(F)C(F)(F)C(F)(F)C(F)(F)F
RETENTIONTIME: 
CCS: 166.2714402
IONMODE: Negative
INSTRUMENTTYPE: LC-ESI-ITFT
INSTRUMENT: 
COLLISIONENERGY: 15
Comment: registered in MassBank
Num Peaks: 1
518.96472	1000

NAME: N-Ethylperfluoroctansulfonamid (N-EtFOSA); LC-ESI-ITFT; MS2; CE
PRECURSORMZ: 525.977502
PRECURSORTYPE: [M-H]-
FORMULA: C10H6F17NO2S
Ontology: Perfluorooctane sulfonic acid and derivatives
INCHIKEY: CCEKAJIANROZEO-UHFFFAOYSA-N
SMILES: CCNS(=O)(=O)C(F)(F)C(F)(F)C(F)(F)C(F)(F)C(F)(F)C(F)(F)C(F)(F)C(F)(F)F
RETENTIONTIME: 
CCS: 175.3064163
IONMODE: Negative
INSTRUMENTTYPE: LC-ESI-ITFT
INSTRUMENT: 
COLLISIONENERGY: 35
Comment: registered in MassBank
Num Peaks: 5
168.9895	492
218.9863	1000
268.98279	261
361.98389	332
418.97269	153

NAME: N-Ethylperfluoroctansulfonamid (N-EtFOSA); LC-ESI-ITFT; MS2; CE
PRECURSORMZ: 525.977502
PRECURSORTYPE: [M-H]-
FORMULA: C10H6F17NO2S
Ontology: Perfluorooctane sulfonic acid and derivatives
INCHIKEY: CCEKAJIANROZEO-UHFFFAOYSA-N
SMILES: CCNS(=O)(=O)C(F)(F)C(F)(F)C(F)(F)C(F)(F)C(F)(F)C(F)(F)C(F)(F)C(F)(F)F
RETENTIONTIME: 
CCS: 175.3064163
IONMODE: Negative
INSTRUMENTTYPE: LC-ESI-ITFT
INSTRUMENT: 
COLLISIONENERGY: 30
Comment: registered in MassBank
Num Peaks: 1
218.9865	1000

NAME: 6
PRECURSORMZ: 356.979041
PRECURSORTYPE: [M-H]-
FORMULA: C8H2F12O2
Ontology: Medium-chain fatty acids
INCHIKEY: BKOBFLVYTXYFQZ-OWOJBTEDSA-N
SMILES: OC(=O)\C=C(\F)C(F)(F)C(F)(F)C(F)(F)C(F)(F)C(F)(F)F
RETENTIONTIME: 
CCS: -1
IONMODE: Negative
INSTRUMENTTYPE: LC-ESI-ITFT
INSTRUMENT: 
COLLISIONENERGY: 35
Comment: registered in MassBank
Num Peaks: 1
292.9837	1000

NAME: 6
PRECURSORMZ: 356.979041
PRECURSORTYPE: [M-H]-
FORMULA: C8H2F12O2
Ontology: Medium-chain fatty acids
INCHIKEY: BKOBFLVYTXYFQZ-OWOJBTEDSA-N
SMILES: OC(=O)\C=C(\F)C(F)(F)C(F)(F)C(F)(F)C(F)(F)C(F)(F)F
RETENTIONTIME: 
CCS: -1
IONMODE: Negative
INSTRUMENTTYPE: LC-ESI-ITFT
INSTRUMENT: 
COLLISIONENERGY: 15
Comment: registered in MassBank
Num Peaks: 1
292.98318	1000

NAME: 6
PRECURSORMZ: 356.979041
PRECURSORTYPE: [M-H]-
FORMULA: C8H2F12O2
Ontology: Medium-chain fatty acids
INCHIKEY: BKOBFLVYTXYFQZ-OWOJBTEDSA-N
SMILES: OC(=O)\C=C(\F)C(F)(F)C(F)(F)C(F)(F)C(F)(F)C(F)(F)F
RETENTIONTIME: 
CCS: -1
IONMODE: Negative
INSTRUMENTTYPE: LC-ESI-ITFT
INSTRUMENT: 
COLLISIONENERGY: 30
Comment: registered in MassBank
Num Peaks: 1
292.98291	1000

NAME: 6
PRECURSORMZ: 356.979041
PRECURSORTYPE: [M-H]-
FORMULA: C8H2F12O2
Ontology: Medium-chain fatty acids
INCHIKEY: BKOBFLVYTXYFQZ-OWOJBTEDSA-N
SMILES: OC(=O)\C=C(\F)C(F)(F)C(F)(F)C(F)(F)C(F)(F)C(F)(F)F
RETENTIONTIME: 
CCS: -1
IONMODE: Negative
INSTRUMENTTYPE: LC-ESI-ITFT
INSTRUMENT: 
COLLISIONENERGY: 45
Comment: registered in MassBank
Num Peaks: 1
292.9826	1000

NAME: 6
PRECURSORMZ: 356.979041
PRECURSORTYPE: [M-H]-
FORMULA: C8H2F12O2
Ontology: Medium-chain fatty acids
INCHIKEY: BKOBFLVYTXYFQZ-OWOJBTEDSA-N
SMILES: OC(=O)\C=C(\F)C(F)(F)C(F)(F)C(F)(F)C(F)(F)C(F)(F)F
RETENTIONTIME: 
CCS: -1
IONMODE: Negative
INSTRUMENTTYPE: LC-ESI-ITFT
INSTRUMENT: 
COLLISIONENERGY: 60
Comment: registered in MassBank
Num Peaks: 3
92.9958	137
242.987	317
292.98361	1000

NAME: 6
PRECURSORMZ: 356.979041
PRECURSORTYPE: [M-H]-
FORMULA: C8H2F12O2
Ontology: Medium-chain fatty acids
INCHIKEY: BKOBFLVYTXYFQZ-OWOJBTEDSA-N
SMILES: OC(=O)\C=C(\F)C(F)(F)C(F)(F)C(F)(F)C(F)(F)C(F)(F)F
RETENTIONTIME: 
CCS: -1
IONMODE: Negative
INSTRUMENTTYPE: LC-ESI-ITFT
INSTRUMENT: 
COLLISIONENERGY: 75
Comment: registered in MassBank
Num Peaks: 2
92.9962	567
242.98621	1000

NAME: 6
PRECURSORMZ: 356.979041
PRECURSORTYPE: [M-H]-
FORMULA: C8H2F12O2
Ontology: Medium-chain fatty acids
INCHIKEY: BKOBFLVYTXYFQZ-OWOJBTEDSA-N
SMILES: OC(=O)\C=C(\F)C(F)(F)C(F)(F)C(F)(F)C(F)(F)C(F)(F)F
RETENTIONTIME: 
CCS: -1
IONMODE: Negative
INSTRUMENTTYPE: LC-ESI-ITFT
INSTRUMENT: 
COLLISIONENERGY: 90
Comment: registered in MassBank
Num Peaks: 1
92.9958	1000

NAME: 6
PRECURSORMZ: 356.979041
PRECURSORTYPE: [M-H]-
FORMULA: C8H2F12O2
Ontology: Medium-chain fatty acids
INCHIKEY: BKOBFLVYTXYFQZ-OWOJBTEDSA-N
SMILES: OC(=O)\C=C(\F)C(F)(F)C(F)(F)C(F)(F)C(F)(F)C(F)(F)F
RETENTIONTIME: 
CCS: -1
IONMODE: Negative
INSTRUMENTTYPE: LC-ESI-ITFT
INSTRUMENT: 
COLLISIONENERGY: 15
Comment: registered in MassBank
Num Peaks: 1
292.98251	1000

NAME: 6
PRECURSORMZ: 356.979041
PRECURSORTYPE: [M-H]-
FORMULA: C8H2F12O2
Ontology: Medium-chain fatty acids
INCHIKEY: BKOBFLVYTXYFQZ-OWOJBTEDSA-N
SMILES: OC(=O)\C=C(\F)C(F)(F)C(F)(F)C(F)(F)C(F)(F)C(F)(F)F
RETENTIONTIME: 
CCS: -1
IONMODE: Negative
INSTRUMENTTYPE: LC-ESI-ITFT
INSTRUMENT: 
COLLISIONENERGY: 30
Comment: registered in MassBank
Num Peaks: 1
292.98279	1000

NAME: 6
PRECURSORMZ: 356.979041
PRECURSORTYPE: [M-H]-
FORMULA: C8H2F12O2
Ontology: Medium-chain fatty acids
INCHIKEY: BKOBFLVYTXYFQZ-OWOJBTEDSA-N
SMILES: OC(=O)\C=C(\F)C(F)(F)C(F)(F)C(F)(F)C(F)(F)C(F)(F)F
RETENTIONTIME: 
CCS: -1
IONMODE: Negative
INSTRUMENTTYPE: LC-ESI-ITFT
INSTRUMENT: 
COLLISIONENERGY: 45
Comment: registered in MassBank
Num Peaks: 2
242.98579	44
292.9827	1000

NAME: 6
PRECURSORMZ: 356.979041
PRECURSORTYPE: [M-H]-
FORMULA: C8H2F12O2
Ontology: Medium-chain fatty acids
INCHIKEY: BKOBFLVYTXYFQZ-OWOJBTEDSA-N
SMILES: OC(=O)\C=C(\F)C(F)(F)C(F)(F)C(F)(F)C(F)(F)C(F)(F)F
RETENTIONTIME: 
CCS: -1
IONMODE: Negative
INSTRUMENTTYPE: LC-ESI-ITFT
INSTRUMENT: 
COLLISIONENERGY: 60
Comment: registered in MassBank
Num Peaks: 3
92.996	110
242.9864	327
292.98349	1000

NAME: 6
PRECURSORMZ: 356.979041
PRECURSORTYPE: [M-H]-
FORMULA: C8H2F12O2
Ontology: Medium-chain fatty acids
INCHIKEY: BKOBFLVYTXYFQZ-OWOJBTEDSA-N
SMILES: OC(=O)\C=C(\F)C(F)(F)C(F)(F)C(F)(F)C(F)(F)C(F)(F)F
RETENTIONTIME: 
CCS: -1
IONMODE: Negative
INSTRUMENTTYPE: LC-ESI-ITFT
INSTRUMENT: 
COLLISIONENERGY: 75
Comment: registered in MassBank
Num Peaks: 2
92.9958	692
242.9863	1000

NAME: 6
PRECURSORMZ: 356.979041
PRECURSORTYPE: [M-H]-
FORMULA: C8H2F12O2
Ontology: Medium-chain fatty acids
INCHIKEY: BKOBFLVYTXYFQZ-OWOJBTEDSA-N
SMILES: OC(=O)\C=C(\F)C(F)(F)C(F)(F)C(F)(F)C(F)(F)C(F)(F)F
RETENTIONTIME: 
CCS: -1
IONMODE: Negative
INSTRUMENTTYPE: LC-ESI-ITFT
INSTRUMENT: 
COLLISIONENERGY: 90
Comment: registered in MassBank
Num Peaks: 1
92.9958	1000

NAME: 8
PRECURSORMZ: 456.972654
PRECURSORTYPE: [M-H]-
FORMULA: C10H2F16O2
Ontology: Medium-chain fatty acids
INCHIKEY: WHZXTVOEGZRRJM-UPHRSURJSA-N
SMILES: OC(=O)\C=C(/F)C(F)(F)C(F)(F)C(F)(F)C(F)(F)C(F)(F)C(F)(F)C(F)(F)F
RETENTIONTIME: 
CCS: -1
IONMODE: Negative
INSTRUMENTTYPE: LC-ESI-ITFT
INSTRUMENT: 
COLLISIONENERGY: 35
Comment: registered in MassBank
Num Peaks: 1
392.97549	1000

NAME: 8
PRECURSORMZ: 456.972654
PRECURSORTYPE: [M-H]-
FORMULA: C10H2F16O2
Ontology: Medium-chain fatty acids
INCHIKEY: WHZXTVOEGZRRJM-UPHRSURJSA-N
SMILES: OC(=O)\C=C(/F)C(F)(F)C(F)(F)C(F)(F)C(F)(F)C(F)(F)C(F)(F)C(F)(F)F
RETENTIONTIME: 
CCS: -1
IONMODE: Negative
INSTRUMENTTYPE: LC-ESI-ITFT
INSTRUMENT: 
COLLISIONENERGY: 30
Comment: registered in MassBank
Num Peaks: 1
392.97641	1000

NAME: 8
PRECURSORMZ: 456.972654
PRECURSORTYPE: [M-H]-
FORMULA: C10H2F16O2
Ontology: Medium-chain fatty acids
INCHIKEY: WHZXTVOEGZRRJM-UPHRSURJSA-N
SMILES: OC(=O)\C=C(/F)C(F)(F)C(F)(F)C(F)(F)C(F)(F)C(F)(F)C(F)(F)C(F)(F)F
RETENTIONTIME: 
CCS: -1
IONMODE: Negative
INSTRUMENTTYPE: LC-ESI-ITFT
INSTRUMENT: 
COLLISIONENERGY: 30
Comment: registered in MassBank
Num Peaks: 1
392.97601	1000

NAME: Azoxystrobin (free acid); LC-ESI-ITFT; MS2; CE
PRECURSORMZ: 388.093894
PRECURSORTYPE: [M-H]-
FORMULA: C21H15N3O5
Ontology: Diarylethers
INCHIKEY: IKCXDZCEWZARFL-VBKFSLOCSA-N
SMILES: CO\C=C(/C(O)=O)C1=CC=CC=C1OC1=NC=NC(OC2=CC=CC=C2C#N)=C1
RETENTIONTIME: 
CCS: -1
IONMODE: Negative
INSTRUMENTTYPE: LC-ESI-ITFT
INSTRUMENT: 
COLLISIONENERGY: 35
Comment: registered in MassBank
Num Peaks: 4
142.041	251
168.05659	153
212.0466	1000
312.0784	10

NAME: Azoxystrobin (free acid); LC-ESI-ITFT; MS2; CE
PRECURSORMZ: 388.093894
PRECURSORTYPE: [M-H]-
FORMULA: C21H15N3O5
Ontology: Diarylethers
INCHIKEY: IKCXDZCEWZARFL-VBKFSLOCSA-N
SMILES: CO\C=C(/C(O)=O)C1=CC=CC=C1OC1=NC=NC(OC2=CC=CC=C2C#N)=C1
RETENTIONTIME: 
CCS: -1
IONMODE: Negative
INSTRUMENTTYPE: LC-ESI-ITFT
INSTRUMENT: 
COLLISIONENERGY: 15
Comment: registered in MassBank
Num Peaks: 2
212.0461	1000
312.07739	363

NAME: Azoxystrobin (free acid); LC-ESI-ITFT; MS2; CE
PRECURSORMZ: 388.093894
PRECURSORTYPE: [M-H]-
FORMULA: C21H15N3O5
Ontology: Diarylethers
INCHIKEY: IKCXDZCEWZARFL-VBKFSLOCSA-N
SMILES: CO\C=C(/C(O)=O)C1=CC=CC=C1OC1=NC=NC(OC2=CC=CC=C2C#N)=C1
RETENTIONTIME: 
CCS: -1
IONMODE: Negative
INSTRUMENTTYPE: LC-ESI-ITFT
INSTRUMENT: 
COLLISIONENERGY: 30
Comment: registered in MassBank
Num Peaks: 2
142.04111	675
168.05679	1000

NAME: Azoxystrobin (free acid); LC-ESI-ITFT; MS2; CE
PRECURSORMZ: 388.093894
PRECURSORTYPE: [M-H]-
FORMULA: C21H15N3O5
Ontology: Diarylethers
INCHIKEY: IKCXDZCEWZARFL-VBKFSLOCSA-N
SMILES: CO\C=C(/C(O)=O)C1=CC=CC=C1OC1=NC=NC(OC2=CC=CC=C2C#N)=C1
RETENTIONTIME: 
CCS: -1
IONMODE: Negative
INSTRUMENTTYPE: LC-ESI-ITFT
INSTRUMENT: 
COLLISIONENERGY: 15
Comment: registered in MassBank
Num Peaks: 4
142.0405	136
168.0564	92
212.0462	1000
312.07791	239

NAME: Azoxystrobin (free acid); LC-ESI-ITFT; MS2; CE
PRECURSORMZ: 388.093894
PRECURSORTYPE: [M-H]-
FORMULA: C21H15N3O5
Ontology: Diarylethers
INCHIKEY: IKCXDZCEWZARFL-VBKFSLOCSA-N
SMILES: CO\C=C(/C(O)=O)C1=CC=CC=C1OC1=NC=NC(OC2=CC=CC=C2C#N)=C1
RETENTIONTIME: 
CCS: -1
IONMODE: Negative
INSTRUMENTTYPE: LC-ESI-ITFT
INSTRUMENT: 
COLLISIONENERGY: 30
Comment: registered in MassBank
Num Peaks: 4
142.0408	668
168.05611	700
212.04671	1000
312.07761	528

NAME: Ranitidine-S-oxide; LC-ESI-ITFT; MS2; CE
PRECURSORMZ: 329.128899
PRECURSORTYPE: [M-H]-
FORMULA: C13H22N4O4S
Ontology: Aralkylamines
INCHIKEY: SKHXRNHSZTXSLP-UKTHLTGXNA-N
SMILES: CN\C(NCCS(=O)CC1=CC=C(CN(C)C)O1)=C/N(=O)=O
RETENTIONTIME: 
CCS: -1
IONMODE: Negative
INSTRUMENTTYPE: LC-ESI-ITFT
INSTRUMENT: 
COLLISIONENERGY: 35
Comment: registered in MassBank
Num Peaks: 4
116.0467	1000
142.06239	106
144.03619	339
191.0369	413

NAME: Ranitidine-S-oxide; LC-ESI-ITFT; MS2; CE
PRECURSORMZ: 329.128899
PRECURSORTYPE: [M-H]-
FORMULA: C13H22N4O4S
Ontology: Aralkylamines
INCHIKEY: SKHXRNHSZTXSLP-UKTHLTGXNA-N
SMILES: CN\C(NCCS(=O)CC1=CC=C(CN(C)C)O1)=C/N(=O)=O
RETENTIONTIME: 
CCS: -1
IONMODE: Negative
INSTRUMENTTYPE: LC-ESI-ITFT
INSTRUMENT: 
COLLISIONENERGY: 60
Comment: registered in MassBank
Num Peaks: 1
116.0462	1000

NAME: Ranitidine-S-oxide; LC-ESI-ITFT; MS2; CE
PRECURSORMZ: 329.128899
PRECURSORTYPE: [M-H]-
FORMULA: C13H22N4O4S
Ontology: Aralkylamines
INCHIKEY: SKHXRNHSZTXSLP-UKTHLTGXNA-N
SMILES: CN\C(NCCS(=O)CC1=CC=C(CN(C)C)O1)=C/N(=O)=O
RETENTIONTIME: 
CCS: -1
IONMODE: Negative
INSTRUMENTTYPE: LC-ESI-ITFT
INSTRUMENT: 
COLLISIONENERGY: 15
Comment: registered in MassBank
Num Peaks: 3
116.0466	1000
144.036	665
174.95821	691

NAME: Ranitidine-S-oxide; LC-ESI-ITFT; MS2; CE
PRECURSORMZ: 329.128899
PRECURSORTYPE: [M-H]-
FORMULA: C13H22N4O4S
Ontology: Aralkylamines
INCHIKEY: SKHXRNHSZTXSLP-UKTHLTGXNA-N
SMILES: CN\C(NCCS(=O)CC1=CC=C(CN(C)C)O1)=C/N(=O)=O
RETENTIONTIME: 
CCS: -1
IONMODE: Negative
INSTRUMENTTYPE: LC-ESI-ITFT
INSTRUMENT: 
COLLISIONENERGY: 30
Comment: registered in MassBank
Num Peaks: 1
116.0464	1000

NAME: Ranitidine N-oxide; LC-ESI-ITFT; MS2; CE
PRECURSORMZ: 329.128899
PRECURSORTYPE: [M-H]-
FORMULA: C13H22N4O4S
Ontology: Heteroaromatic compounds
INCHIKEY: DFJVUWAHTQPQCV-MDWZMJQESA-N
SMILES: CN\C(NCCSCC1=CC=C(CN(C)(C)=O)O1)=C/N(=O)=O
RETENTIONTIME: 
CCS: -1
IONMODE: Negative
INSTRUMENTTYPE: LC-ESI-ITFT
INSTRUMENT: 
COLLISIONENERGY: 35
Comment: registered in MassBank
Num Peaks: 4
125.0067	136
142.06219	309
222.0833	1000
329.12961	78

NAME: Climbazol; LC-ESI-ITFT; MS2; CE
PRECURSORMZ: 291.090579
PRECURSORTYPE: [M-H]-
FORMULA: C15H17ClN2O2
Ontology: Phenol ethers
INCHIKEY: OWEGWHBOCFMBLP-UHFFFAOYNA-N
SMILES: CC(C)(C)C(=O)C(OC1=CC=C(Cl)C=C1)N1C=CN=C1
RETENTIONTIME: 
CCS: -1
IONMODE: Negative
INSTRUMENTTYPE: LC-ESI-ITFT
INSTRUMENT: 
COLLISIONENERGY: 35
Comment: registered in MassBank
Num Peaks: 5
221.0125	182
223.05299	164
233.0117	177
234.02	1000
263.0957	170

NAME: Climbazol; LC-ESI-ITFT; MS2; CE
PRECURSORMZ: 291.090579
PRECURSORTYPE: [M-H]-
FORMULA: C15H17ClN2O2
Ontology: Phenol ethers
INCHIKEY: OWEGWHBOCFMBLP-UHFFFAOYNA-N
SMILES: CC(C)(C)C(=O)C(OC1=CC=C(Cl)C=C1)N1C=CN=C1
RETENTIONTIME: 
CCS: -1
IONMODE: Negative
INSTRUMENTTYPE: LC-ESI-ITFT
INSTRUMENT: 
COLLISIONENERGY: 15
Comment: registered in MassBank
Num Peaks: 1
67.0304	1000

NAME: Climbazol; LC-ESI-ITFT; MS2; CE
PRECURSORMZ: 291.090579
PRECURSORTYPE: [M-H]-
FORMULA: C15H17ClN2O2
Ontology: Phenol ethers
INCHIKEY: OWEGWHBOCFMBLP-UHFFFAOYNA-N
SMILES: CC(C)(C)C(=O)C(OC1=CC=C(Cl)C=C1)N1C=CN=C1
RETENTIONTIME: 
CCS: -1
IONMODE: Negative
INSTRUMENTTYPE: LC-ESI-ITFT
INSTRUMENT: 
COLLISIONENERGY: 30
Comment: registered in MassBank
Num Peaks: 1
67.0303	1000

NAME: Climbazol; LC-ESI-ITFT; MS2; CE
PRECURSORMZ: 291.090579
PRECURSORTYPE: [M-H]-
FORMULA: C15H17ClN2O2
Ontology: Phenol ethers
INCHIKEY: OWEGWHBOCFMBLP-UHFFFAOYNA-N
SMILES: CC(C)(C)C(=O)C(OC1=CC=C(Cl)C=C1)N1C=CN=C1
RETENTIONTIME: 
CCS: -1
IONMODE: Negative
INSTRUMENTTYPE: LC-ESI-ITFT
INSTRUMENT: 
COLLISIONENERGY: 45
Comment: registered in MassBank
Num Peaks: 1
67.0304	1000

NAME: Climbazol; LC-ESI-ITFT; MS2; CE
PRECURSORMZ: 291.090579
PRECURSORTYPE: [M-H]-
FORMULA: C15H17ClN2O2
Ontology: Phenol ethers
INCHIKEY: OWEGWHBOCFMBLP-UHFFFAOYNA-N
SMILES: CC(C)(C)C(=O)C(OC1=CC=C(Cl)C=C1)N1C=CN=C1
RETENTIONTIME: 
CCS: -1
IONMODE: Negative
INSTRUMENTTYPE: LC-ESI-ITFT
INSTRUMENT: 
COLLISIONENERGY: 60
Comment: registered in MassBank
Num Peaks: 1
67.0303	1000

NAME: Climbazol; LC-ESI-ITFT; MS2; CE
PRECURSORMZ: 291.090579
PRECURSORTYPE: [M-H]-
FORMULA: C15H17ClN2O2
Ontology: Phenol ethers
INCHIKEY: OWEGWHBOCFMBLP-UHFFFAOYNA-N
SMILES: CC(C)(C)C(=O)C(OC1=CC=C(Cl)C=C1)N1C=CN=C1
RETENTIONTIME: 
CCS: -1
IONMODE: Negative
INSTRUMENTTYPE: LC-ESI-ITFT
INSTRUMENT: 
COLLISIONENERGY: 75
Comment: registered in MassBank
Num Peaks: 1
67.0302	1000

NAME: Climbazol; LC-ESI-ITFT; MS2; CE
PRECURSORMZ: 291.090579
PRECURSORTYPE: [M-H]-
FORMULA: C15H17ClN2O2
Ontology: Phenol ethers
INCHIKEY: OWEGWHBOCFMBLP-UHFFFAOYNA-N
SMILES: CC(C)(C)C(=O)C(OC1=CC=C(Cl)C=C1)N1C=CN=C1
RETENTIONTIME: 
CCS: -1
IONMODE: Negative
INSTRUMENTTYPE: LC-ESI-ITFT
INSTRUMENT: 
COLLISIONENERGY: 90
Comment: registered in MassBank
Num Peaks: 1
67.0302	1000

NAME: Climbazol; LC-ESI-ITFT; MS2; CE
PRECURSORMZ: 291.090579
PRECURSORTYPE: [M-H]-
FORMULA: C15H17ClN2O2
Ontology: Phenol ethers
INCHIKEY: OWEGWHBOCFMBLP-UHFFFAOYNA-N
SMILES: CC(C)(C)C(=O)C(OC1=CC=C(Cl)C=C1)N1C=CN=C1
RETENTIONTIME: 
CCS: -1
IONMODE: Negative
INSTRUMENTTYPE: LC-ESI-ITFT
INSTRUMENT: 
COLLISIONENERGY: 15
Comment: registered in MassBank
Num Peaks: 1
67.0303	1000

NAME: Climbazol; LC-ESI-ITFT; MS2; CE
PRECURSORMZ: 291.090579
PRECURSORTYPE: [M-H]-
FORMULA: C15H17ClN2O2
Ontology: Phenol ethers
INCHIKEY: OWEGWHBOCFMBLP-UHFFFAOYNA-N
SMILES: CC(C)(C)C(=O)C(OC1=CC=C(Cl)C=C1)N1C=CN=C1
RETENTIONTIME: 
CCS: -1
IONMODE: Negative
INSTRUMENTTYPE: LC-ESI-ITFT
INSTRUMENT: 
COLLISIONENERGY: 30
Comment: registered in MassBank
Num Peaks: 1
67.0302	1000

NAME: Climbazol; LC-ESI-ITFT; MS2; CE
PRECURSORMZ: 291.090579
PRECURSORTYPE: [M-H]-
FORMULA: C15H17ClN2O2
Ontology: Phenol ethers
INCHIKEY: OWEGWHBOCFMBLP-UHFFFAOYNA-N
SMILES: CC(C)(C)C(=O)C(OC1=CC=C(Cl)C=C1)N1C=CN=C1
RETENTIONTIME: 
CCS: -1
IONMODE: Negative
INSTRUMENTTYPE: LC-ESI-ITFT
INSTRUMENT: 
COLLISIONENERGY: 45
Comment: registered in MassBank
Num Peaks: 1
67.0302	1000

NAME: Climbazol; LC-ESI-ITFT; MS2; CE
PRECURSORMZ: 291.090579
PRECURSORTYPE: [M-H]-
FORMULA: C15H17ClN2O2
Ontology: Phenol ethers
INCHIKEY: OWEGWHBOCFMBLP-UHFFFAOYNA-N
SMILES: CC(C)(C)C(=O)C(OC1=CC=C(Cl)C=C1)N1C=CN=C1
RETENTIONTIME: 
CCS: -1
IONMODE: Negative
INSTRUMENTTYPE: LC-ESI-ITFT
INSTRUMENT: 
COLLISIONENERGY: 60
Comment: registered in MassBank
Num Peaks: 1
67.0302	1000

NAME: Climbazol; LC-ESI-ITFT; MS2; CE
PRECURSORMZ: 291.090579
PRECURSORTYPE: [M-H]-
FORMULA: C15H17ClN2O2
Ontology: Phenol ethers
INCHIKEY: OWEGWHBOCFMBLP-UHFFFAOYNA-N
SMILES: CC(C)(C)C(=O)C(OC1=CC=C(Cl)C=C1)N1C=CN=C1
RETENTIONTIME: 
CCS: -1
IONMODE: Negative
INSTRUMENTTYPE: LC-ESI-ITFT
INSTRUMENT: 
COLLISIONENERGY: 75
Comment: registered in MassBank
Num Peaks: 1
67.0303	1000

NAME: Climbazol; LC-ESI-ITFT; MS2; CE
PRECURSORMZ: 291.090579
PRECURSORTYPE: [M-H]-
FORMULA: C15H17ClN2O2
Ontology: Phenol ethers
INCHIKEY: OWEGWHBOCFMBLP-UHFFFAOYNA-N
SMILES: CC(C)(C)C(=O)C(OC1=CC=C(Cl)C=C1)N1C=CN=C1
RETENTIONTIME: 
CCS: -1
IONMODE: Negative
INSTRUMENTTYPE: LC-ESI-ITFT
INSTRUMENT: 
COLLISIONENERGY: 35
Comment: registered in MassBank
Num Peaks: 5
221.0126	157
223.0536	121
233.0117	114
234.02	1000
263.0954	174

NAME: Tritosulfuron; LC-ESI-ITFT; MS2; CE
PRECURSORMZ: 444.020667
PRECURSORTYPE: [M-H]-
FORMULA: C13H9F6N5O4S
Ontology: S-triazinyl-2-sulfonylureas
INCHIKEY: KVEQCVKVIFQSGC-UHFFFAOYSA-N
SMILES: COC1=NC(=NC(N1)=NC(O)=NS(=O)(=O)C1=CC=CC=C1C(F)(F)F)C(F)(F)F
RETENTIONTIME: 
CCS: -1
IONMODE: Negative
INSTRUMENTTYPE: LC-ESI-ITFT
INSTRUMENT: 
COLLISIONENERGY: 35
Comment: registered in MassBank
Num Peaks: 2
193.03461	1000
224.00011	33

NAME: Tritosulfuron; LC-ESI-ITFT; MS2; CE
PRECURSORMZ: 444.020667
PRECURSORTYPE: [M-H]-
FORMULA: C13H9F6N5O4S
Ontology: S-triazinyl-2-sulfonylureas
INCHIKEY: KVEQCVKVIFQSGC-UHFFFAOYSA-N
SMILES: COC1=NC(=NC(N1)=NC(O)=NS(=O)(=O)C1=CC=CC=C1C(F)(F)F)C(F)(F)F
RETENTIONTIME: 
CCS: -1
IONMODE: Negative
INSTRUMENTTYPE: LC-ESI-ITFT
INSTRUMENT: 
COLLISIONENERGY: 15
Comment: registered in MassBank
Num Peaks: 3
193.03481	1000
224.00101	5
444.0192	14

NAME: Tritosulfuron; LC-ESI-ITFT; MS2; CE
PRECURSORMZ: 444.020667
PRECURSORTYPE: [M-H]-
FORMULA: C13H9F6N5O4S
Ontology: S-triazinyl-2-sulfonylureas
INCHIKEY: KVEQCVKVIFQSGC-UHFFFAOYSA-N
SMILES: COC1=NC(=NC(N1)=NC(O)=NS(=O)(=O)C1=CC=CC=C1C(F)(F)F)C(F)(F)F
RETENTIONTIME: 
CCS: -1
IONMODE: Negative
INSTRUMENTTYPE: LC-ESI-ITFT
INSTRUMENT: 
COLLISIONENERGY: 30
Comment: registered in MassBank
Num Peaks: 2
193.0347	1000
224.00031	5

NAME: Tritosulfuron; LC-ESI-ITFT; MS2; CE
PRECURSORMZ: 444.020667
PRECURSORTYPE: [M-H]-
FORMULA: C13H9F6N5O4S
Ontology: S-triazinyl-2-sulfonylureas
INCHIKEY: KVEQCVKVIFQSGC-UHFFFAOYSA-N
SMILES: COC1=NC(=NC(N1)=NC(O)=NS(=O)(=O)C1=CC=CC=C1C(F)(F)F)C(F)(F)F
RETENTIONTIME: 
CCS: -1
IONMODE: Negative
INSTRUMENTTYPE: LC-ESI-ITFT
INSTRUMENT: 
COLLISIONENERGY: 45
Comment: registered in MassBank
Num Peaks: 3
66.0098	10
136.0126	12
193.0347	1000

NAME: Tritosulfuron; LC-ESI-ITFT; MS2; CE
PRECURSORMZ: 444.020667
PRECURSORTYPE: [M-H]-
FORMULA: C13H9F6N5O4S
Ontology: S-triazinyl-2-sulfonylureas
INCHIKEY: KVEQCVKVIFQSGC-UHFFFAOYSA-N
SMILES: COC1=NC(=NC(N1)=NC(O)=NS(=O)(=O)C1=CC=CC=C1C(F)(F)F)C(F)(F)F
RETENTIONTIME: 
CCS: -1
IONMODE: Negative
INSTRUMENTTYPE: LC-ESI-ITFT
INSTRUMENT: 
COLLISIONENERGY: 60
Comment: registered in MassBank
Num Peaks: 7
66.0099	121
123.0316	35
136.013	70
161.00841	108
163.02431	5
178.01109	12
193.03481	1000

NAME: Tritosulfuron; LC-ESI-ITFT; MS2; CE
PRECURSORMZ: 444.020667
PRECURSORTYPE: [M-H]-
FORMULA: C13H9F6N5O4S
Ontology: S-triazinyl-2-sulfonylureas
INCHIKEY: KVEQCVKVIFQSGC-UHFFFAOYSA-N
SMILES: COC1=NC(=NC(N1)=NC(O)=NS(=O)(=O)C1=CC=CC=C1C(F)(F)F)C(F)(F)F
RETENTIONTIME: 
CCS: -1
IONMODE: Negative
INSTRUMENTTYPE: LC-ESI-ITFT
INSTRUMENT: 
COLLISIONENERGY: 75
Comment: registered in MassBank
Num Peaks: 7
66.0099	836
123.0315	321
136.013	420
161.0083	723
178.0114	29
179.0173	32
193.03461	1000

NAME: Tritosulfuron; LC-ESI-ITFT; MS2; CE
PRECURSORMZ: 444.020667
PRECURSORTYPE: [M-H]-
FORMULA: C13H9F6N5O4S
Ontology: S-triazinyl-2-sulfonylureas
INCHIKEY: KVEQCVKVIFQSGC-UHFFFAOYSA-N
SMILES: COC1=NC(=NC(N1)=NC(O)=NS(=O)(=O)C1=CC=CC=C1C(F)(F)F)C(F)(F)F
RETENTIONTIME: 
CCS: -1
IONMODE: Negative
INSTRUMENTTYPE: LC-ESI-ITFT
INSTRUMENT: 
COLLISIONENERGY: 90
Comment: registered in MassBank
Num Peaks: 5
66.0099	1000
123.0314	261
136.01311	317
161.0083	730
193.03481	183

NAME: Tritosulfuron; LC-ESI-ITFT; MS2; CE
PRECURSORMZ: 444.020667
PRECURSORTYPE: [M-H]-
FORMULA: C13H9F6N5O4S
Ontology: S-triazinyl-2-sulfonylureas
INCHIKEY: KVEQCVKVIFQSGC-UHFFFAOYSA-N
SMILES: COC1=NC(=NC(N1)=NC(O)=NS(=O)(=O)C1=CC=CC=C1C(F)(F)F)C(F)(F)F
RETENTIONTIME: 
CCS: -1
IONMODE: Negative
INSTRUMENTTYPE: LC-ESI-ITFT
INSTRUMENT: 
COLLISIONENERGY: 15
Comment: registered in MassBank
Num Peaks: 2
193.0347	1000
444.021	12

NAME: Tritosulfuron; LC-ESI-ITFT; MS2; CE
PRECURSORMZ: 444.020667
PRECURSORTYPE: [M-H]-
FORMULA: C13H9F6N5O4S
Ontology: S-triazinyl-2-sulfonylureas
INCHIKEY: KVEQCVKVIFQSGC-UHFFFAOYSA-N
SMILES: COC1=NC(=NC(N1)=NC(O)=NS(=O)(=O)C1=CC=CC=C1C(F)(F)F)C(F)(F)F
RETENTIONTIME: 
CCS: -1
IONMODE: Negative
INSTRUMENTTYPE: LC-ESI-ITFT
INSTRUMENT: 
COLLISIONENERGY: 30
Comment: registered in MassBank
Num Peaks: 1
193.0347	1000

NAME: Tritosulfuron; LC-ESI-ITFT; MS2; CE
PRECURSORMZ: 444.020667
PRECURSORTYPE: [M-H]-
FORMULA: C13H9F6N5O4S
Ontology: S-triazinyl-2-sulfonylureas
INCHIKEY: KVEQCVKVIFQSGC-UHFFFAOYSA-N
SMILES: COC1=NC(=NC(N1)=NC(O)=NS(=O)(=O)C1=CC=CC=C1C(F)(F)F)C(F)(F)F
RETENTIONTIME: 
CCS: -1
IONMODE: Negative
INSTRUMENTTYPE: LC-ESI-ITFT
INSTRUMENT: 
COLLISIONENERGY: 45
Comment: registered in MassBank
Num Peaks: 4
66.0098	9
136.01311	10
161.00841	10
193.0347	1000

NAME: Tritosulfuron; LC-ESI-ITFT; MS2; CE
PRECURSORMZ: 444.020667
PRECURSORTYPE: [M-H]-
FORMULA: C13H9F6N5O4S
Ontology: S-triazinyl-2-sulfonylureas
INCHIKEY: KVEQCVKVIFQSGC-UHFFFAOYSA-N
SMILES: COC1=NC(=NC(N1)=NC(O)=NS(=O)(=O)C1=CC=CC=C1C(F)(F)F)C(F)(F)F
RETENTIONTIME: 
CCS: -1
IONMODE: Negative
INSTRUMENTTYPE: LC-ESI-ITFT
INSTRUMENT: 
COLLISIONENERGY: 60
Comment: registered in MassBank
Num Peaks: 9
66.0098	85
123.0315	34
136.01289	63
136.99699	5
150.02879	6
161.0083	75
163.02409	8
178.01131	6
193.03461	1000

NAME: Tritosulfuron; LC-ESI-ITFT; MS2; CE
PRECURSORMZ: 444.020667
PRECURSORTYPE: [M-H]-
FORMULA: C13H9F6N5O4S
Ontology: S-triazinyl-2-sulfonylureas
INCHIKEY: KVEQCVKVIFQSGC-UHFFFAOYSA-N
SMILES: COC1=NC(=NC(N1)=NC(O)=NS(=O)(=O)C1=CC=CC=C1C(F)(F)F)C(F)(F)F
RETENTIONTIME: 
CCS: -1
IONMODE: Negative
INSTRUMENTTYPE: LC-ESI-ITFT
INSTRUMENT: 
COLLISIONENERGY: 75
Comment: registered in MassBank
Num Peaks: 8
66.0098	702
123.0314	221
136.01289	346
136.9967	23
161.0083	641
178.0097	27
179.01891	57
193.0345	1000

NAME: Tritosulfuron; LC-ESI-ITFT; MS2; CE
PRECURSORMZ: 444.020667
PRECURSORTYPE: [M-H]-
FORMULA: C13H9F6N5O4S
Ontology: S-triazinyl-2-sulfonylureas
INCHIKEY: KVEQCVKVIFQSGC-UHFFFAOYSA-N
SMILES: COC1=NC(=NC(N1)=NC(O)=NS(=O)(=O)C1=CC=CC=C1C(F)(F)F)C(F)(F)F
RETENTIONTIME: 
CCS: -1
IONMODE: Negative
INSTRUMENTTYPE: LC-ESI-ITFT
INSTRUMENT: 
COLLISIONENERGY: 90
Comment: registered in MassBank
Num Peaks: 5
50.0046	23
66.0099	1000
123.0307	116
136.013	222
161.00819	532

NAME: Tritosulfuron; LC-ESI-ITFT; MS2; CE
PRECURSORMZ: 444.020667
PRECURSORTYPE: [M-H]-
FORMULA: C13H9F6N5O4S
Ontology: S-triazinyl-2-sulfonylureas
INCHIKEY: KVEQCVKVIFQSGC-UHFFFAOYSA-N
SMILES: COC1=NC(=NC(N1)=NC(O)=NS(=O)(=O)C1=CC=CC=C1C(F)(F)F)C(F)(F)F
RETENTIONTIME: 
CCS: -1
IONMODE: Negative
INSTRUMENTTYPE: LC-ESI-ITFT
INSTRUMENT: 
COLLISIONENERGY: 35
Comment: registered in MassBank
Num Peaks: 2
193.0345	1000
224	26

NAME: Thiopental; LC-ESI-ITFT; MS2; CE
PRECURSORMZ: 241.101622
PRECURSORTYPE: [M-H]-
FORMULA: C11H18N2O2S
Ontology: Thiobarbituric acid derivatives
INCHIKEY: IUJDSEJGGMCXSG-UHFFFAOYNA-N
SMILES: CCCC(C)C1(CC)C(O)=NC(=S)N=C1O
RETENTIONTIME: 
CCS: 158.0819008
IONMODE: Negative
INSTRUMENTTYPE: LC-ESI-ITFT
INSTRUMENT: 
COLLISIONENERGY: 35
Comment: registered in MassBank
Num Peaks: 2
100.9816	1000
138.12891	442

NAME: Thiopental; LC-ESI-ITFT; MS2; CE
PRECURSORMZ: 241.101622
PRECURSORTYPE: [M-H]-
FORMULA: C11H18N2O2S
Ontology: Thiobarbituric acid derivatives
INCHIKEY: IUJDSEJGGMCXSG-UHFFFAOYNA-N
SMILES: CCCC(C)C1(CC)C(O)=NC(=S)N=C1O
RETENTIONTIME: 
CCS: 158.0819008
IONMODE: Negative
INSTRUMENTTYPE: LC-ESI-ITFT
INSTRUMENT: 
COLLISIONENERGY: 15
Comment: registered in MassBank
Num Peaks: 2
57.9757	38
241.1017	1000

NAME: Thiopental; LC-ESI-ITFT; MS2; CE
PRECURSORMZ: 241.101622
PRECURSORTYPE: [M-H]-
FORMULA: C11H18N2O2S
Ontology: Thiobarbituric acid derivatives
INCHIKEY: IUJDSEJGGMCXSG-UHFFFAOYNA-N
SMILES: CCCC(C)C1(CC)C(O)=NC(=S)N=C1O
RETENTIONTIME: 
CCS: 158.0819008
IONMODE: Negative
INSTRUMENTTYPE: LC-ESI-ITFT
INSTRUMENT: 
COLLISIONENERGY: 30
Comment: registered in MassBank
Num Peaks: 2
57.9758	473
241.1015	1000

NAME: Thiopental; LC-ESI-ITFT; MS2; CE
PRECURSORMZ: 241.101622
PRECURSORTYPE: [M-H]-
FORMULA: C11H18N2O2S
Ontology: Thiobarbituric acid derivatives
INCHIKEY: IUJDSEJGGMCXSG-UHFFFAOYNA-N
SMILES: CCCC(C)C1(CC)C(O)=NC(=S)N=C1O
RETENTIONTIME: 
CCS: 158.0819008
IONMODE: Negative
INSTRUMENTTYPE: LC-ESI-ITFT
INSTRUMENT: 
COLLISIONENERGY: 45
Comment: registered in MassBank
Num Peaks: 2
57.9758	1000
241.1011	116

NAME: Thiopental; LC-ESI-ITFT; MS2; CE
PRECURSORMZ: 241.101622
PRECURSORTYPE: [M-H]-
FORMULA: C11H18N2O2S
Ontology: Thiobarbituric acid derivatives
INCHIKEY: IUJDSEJGGMCXSG-UHFFFAOYNA-N
SMILES: CCCC(C)C1(CC)C(O)=NC(=S)N=C1O
RETENTIONTIME: 
CCS: 158.0819008
IONMODE: Negative
INSTRUMENTTYPE: LC-ESI-ITFT
INSTRUMENT: 
COLLISIONENERGY: 60
Comment: registered in MassBank
Num Peaks: 1
57.9757	1000

NAME: Thiopental; LC-ESI-ITFT; MS2; CE
PRECURSORMZ: 241.101622
PRECURSORTYPE: [M-H]-
FORMULA: C11H18N2O2S
Ontology: Thiobarbituric acid derivatives
INCHIKEY: IUJDSEJGGMCXSG-UHFFFAOYNA-N
SMILES: CCCC(C)C1(CC)C(O)=NC(=S)N=C1O
RETENTIONTIME: 
CCS: 158.0819008
IONMODE: Negative
INSTRUMENTTYPE: LC-ESI-ITFT
INSTRUMENT: 
COLLISIONENERGY: 75
Comment: registered in MassBank
Num Peaks: 1
57.9758	1000

NAME: Thiopental; LC-ESI-ITFT; MS2; CE
PRECURSORMZ: 241.101622
PRECURSORTYPE: [M-H]-
FORMULA: C11H18N2O2S
Ontology: Thiobarbituric acid derivatives
INCHIKEY: IUJDSEJGGMCXSG-UHFFFAOYNA-N
SMILES: CCCC(C)C1(CC)C(O)=NC(=S)N=C1O
RETENTIONTIME: 
CCS: 158.0819008
IONMODE: Negative
INSTRUMENTTYPE: LC-ESI-ITFT
INSTRUMENT: 
COLLISIONENERGY: 90
Comment: registered in MassBank
Num Peaks: 1
57.9758	1000

NAME: Thiopental; LC-ESI-ITFT; MS2; CE
PRECURSORMZ: 241.101622
PRECURSORTYPE: [M-H]-
FORMULA: C11H18N2O2S
Ontology: Thiobarbituric acid derivatives
INCHIKEY: IUJDSEJGGMCXSG-UHFFFAOYNA-N
SMILES: CCCC(C)C1(CC)C(O)=NC(=S)N=C1O
RETENTIONTIME: 
CCS: 158.0819008
IONMODE: Negative
INSTRUMENTTYPE: LC-ESI-ITFT
INSTRUMENT: 
COLLISIONENERGY: 15
Comment: registered in MassBank
Num Peaks: 2
57.9757	25
241.1017	1000

NAME: Thiopental; LC-ESI-ITFT; MS2; CE
PRECURSORMZ: 241.101622
PRECURSORTYPE: [M-H]-
FORMULA: C11H18N2O2S
Ontology: Thiobarbituric acid derivatives
INCHIKEY: IUJDSEJGGMCXSG-UHFFFAOYNA-N
SMILES: CCCC(C)C1(CC)C(O)=NC(=S)N=C1O
RETENTIONTIME: 
CCS: 158.0819008
IONMODE: Negative
INSTRUMENTTYPE: LC-ESI-ITFT
INSTRUMENT: 
COLLISIONENERGY: 30
Comment: registered in MassBank
Num Peaks: 2
57.9758	471
241.10139	1000

NAME: Thiopental; LC-ESI-ITFT; MS2; CE
PRECURSORMZ: 241.101622
PRECURSORTYPE: [M-H]-
FORMULA: C11H18N2O2S
Ontology: Thiobarbituric acid derivatives
INCHIKEY: IUJDSEJGGMCXSG-UHFFFAOYNA-N
SMILES: CCCC(C)C1(CC)C(O)=NC(=S)N=C1O
RETENTIONTIME: 
CCS: 158.0819008
IONMODE: Negative
INSTRUMENTTYPE: LC-ESI-ITFT
INSTRUMENT: 
COLLISIONENERGY: 45
Comment: registered in MassBank
Num Peaks: 2
57.9758	1000
241.1013	66

NAME: Thiopental; LC-ESI-ITFT; MS2; CE
PRECURSORMZ: 241.101622
PRECURSORTYPE: [M-H]-
FORMULA: C11H18N2O2S
Ontology: Thiobarbituric acid derivatives
INCHIKEY: IUJDSEJGGMCXSG-UHFFFAOYNA-N
SMILES: CCCC(C)C1(CC)C(O)=NC(=S)N=C1O
RETENTIONTIME: 
CCS: 158.0819008
IONMODE: Negative
INSTRUMENTTYPE: LC-ESI-ITFT
INSTRUMENT: 
COLLISIONENERGY: 60
Comment: registered in MassBank
Num Peaks: 1
57.9758	1000

NAME: Thiopental; LC-ESI-ITFT; MS2; CE
PRECURSORMZ: 241.101622
PRECURSORTYPE: [M-H]-
FORMULA: C11H18N2O2S
Ontology: Thiobarbituric acid derivatives
INCHIKEY: IUJDSEJGGMCXSG-UHFFFAOYNA-N
SMILES: CCCC(C)C1(CC)C(O)=NC(=S)N=C1O
RETENTIONTIME: 
CCS: 158.0819008
IONMODE: Negative
INSTRUMENTTYPE: LC-ESI-ITFT
INSTRUMENT: 
COLLISIONENERGY: 75
Comment: registered in MassBank
Num Peaks: 1
57.9757	1000

NAME: Thiopental; LC-ESI-ITFT; MS2; CE
PRECURSORMZ: 241.101622
PRECURSORTYPE: [M-H]-
FORMULA: C11H18N2O2S
Ontology: Thiobarbituric acid derivatives
INCHIKEY: IUJDSEJGGMCXSG-UHFFFAOYNA-N
SMILES: CCCC(C)C1(CC)C(O)=NC(=S)N=C1O
RETENTIONTIME: 
CCS: 158.0819008
IONMODE: Negative
INSTRUMENTTYPE: LC-ESI-ITFT
INSTRUMENT: 
COLLISIONENERGY: 90
Comment: registered in MassBank
Num Peaks: 1
57.9757	1000

NAME: Thiopental; LC-ESI-ITFT; MS2; CE
PRECURSORMZ: 241.101622
PRECURSORTYPE: [M-H]-
FORMULA: C11H18N2O2S
Ontology: Thiobarbituric acid derivatives
INCHIKEY: IUJDSEJGGMCXSG-UHFFFAOYNA-N
SMILES: CCCC(C)C1(CC)C(O)=NC(=S)N=C1O
RETENTIONTIME: 
CCS: 158.0819008
IONMODE: Negative
INSTRUMENTTYPE: LC-ESI-ITFT
INSTRUMENT: 
COLLISIONENERGY: 35
Comment: registered in MassBank
Num Peaks: 2
100.9815	1000
138.129	379

NAME: Oxazepam; LC-ESI-ITFT; MS2; CE
PRECURSORMZ: 285.043629
PRECURSORTYPE: [M-H]-
FORMULA: C15H11ClN2O2
Ontology: 1,4-benzodiazepines
INCHIKEY: ADIMAYPTOBDMTL-UHFFFAOYNA-N
SMILES: OC1N=C(C2=CC=CC=C2)C2=C(C=CC(Cl)=C2)N=C1O
RETENTIONTIME: 
CCS: 163.0905624
IONMODE: Negative
INSTRUMENTTYPE: LC-ESI-ITFT
INSTRUMENT: 
COLLISIONENERGY: 35
Comment: registered in MassBank
Num Peaks: 3
179.0018	9
242.0378	12
257.0488	1000

NAME: Oxazepam; LC-ESI-ITFT; MS2; CE
PRECURSORMZ: 285.043629
PRECURSORTYPE: [M-H]-
FORMULA: C15H11ClN2O2
Ontology: 1,4-benzodiazepines
INCHIKEY: ADIMAYPTOBDMTL-UHFFFAOYNA-N
SMILES: OC1N=C(C2=CC=CC=C2)C2=C(C=CC(Cl)=C2)N=C1O
RETENTIONTIME: 
CCS: 163.0905624
IONMODE: Negative
INSTRUMENTTYPE: LC-ESI-ITFT
INSTRUMENT: 
COLLISIONENERGY: 15
Comment: registered in MassBank
Num Peaks: 2
257.04849	48
285.0437	1000

NAME: Oxazepam; LC-ESI-ITFT; MS2; CE
PRECURSORMZ: 285.043629
PRECURSORTYPE: [M-H]-
FORMULA: C15H11ClN2O2
Ontology: 1,4-benzodiazepines
INCHIKEY: ADIMAYPTOBDMTL-UHFFFAOYNA-N
SMILES: OC1N=C(C2=CC=CC=C2)C2=C(C=CC(Cl)=C2)N=C1O
RETENTIONTIME: 
CCS: 163.0905624
IONMODE: Negative
INSTRUMENTTYPE: LC-ESI-ITFT
INSTRUMENT: 
COLLISIONENERGY: 30
Comment: registered in MassBank
Num Peaks: 3
242.0383	51
257.04849	247
285.04349	1000

NAME: Oxazepam; LC-ESI-ITFT; MS2; CE
PRECURSORMZ: 285.043629
PRECURSORTYPE: [M-H]-
FORMULA: C15H11ClN2O2
Ontology: 1,4-benzodiazepines
INCHIKEY: ADIMAYPTOBDMTL-UHFFFAOYNA-N
SMILES: OC1N=C(C2=CC=CC=C2)C2=C(C=CC(Cl)=C2)N=C1O
RETENTIONTIME: 
CCS: 163.0905624
IONMODE: Negative
INSTRUMENTTYPE: LC-ESI-ITFT
INSTRUMENT: 
COLLISIONENERGY: 45
Comment: registered in MassBank
Num Peaks: 3
179.00169	844
241.03	783
242.03819	1000

NAME: Oxazepam; LC-ESI-ITFT; MS2; CE
PRECURSORMZ: 285.043629
PRECURSORTYPE: [M-H]-
FORMULA: C15H11ClN2O2
Ontology: 1,4-benzodiazepines
INCHIKEY: ADIMAYPTOBDMTL-UHFFFAOYNA-N
SMILES: OC1N=C(C2=CC=CC=C2)C2=C(C=CC(Cl)=C2)N=C1O
RETENTIONTIME: 
CCS: 163.0905624
IONMODE: Negative
INSTRUMENTTYPE: LC-ESI-ITFT
INSTRUMENT: 
COLLISIONENERGY: 75
Comment: registered in MassBank
Num Peaks: 1
151.0065	1000

NAME: Oxazepam; LC-ESI-ITFT; MS2; CE
PRECURSORMZ: 285.043629
PRECURSORTYPE: [M-H]-
FORMULA: C15H11ClN2O2
Ontology: 1,4-benzodiazepines
INCHIKEY: ADIMAYPTOBDMTL-UHFFFAOYNA-N
SMILES: OC1N=C(C2=CC=CC=C2)C2=C(C=CC(Cl)=C2)N=C1O
RETENTIONTIME: 
CCS: 163.0905624
IONMODE: Negative
INSTRUMENTTYPE: LC-ESI-ITFT
INSTRUMENT: 
COLLISIONENERGY: 15
Comment: registered in MassBank
Num Peaks: 2
257.04849	39
285.04361	1000

NAME: Oxazepam; LC-ESI-ITFT; MS2; CE
PRECURSORMZ: 285.043629
PRECURSORTYPE: [M-H]-
FORMULA: C15H11ClN2O2
Ontology: 1,4-benzodiazepines
INCHIKEY: ADIMAYPTOBDMTL-UHFFFAOYNA-N
SMILES: OC1N=C(C2=CC=CC=C2)C2=C(C=CC(Cl)=C2)N=C1O
RETENTIONTIME: 
CCS: 163.0905624
IONMODE: Negative
INSTRUMENTTYPE: LC-ESI-ITFT
INSTRUMENT: 
COLLISIONENERGY: 30
Comment: registered in MassBank
Num Peaks: 5
179.00211	35
241.02921	15
242.0381	32
257.04831	206
285.0434	1000

NAME: Oxazepam; LC-ESI-ITFT; MS2; CE
PRECURSORMZ: 285.043629
PRECURSORTYPE: [M-H]-
FORMULA: C15H11ClN2O2
Ontology: 1,4-benzodiazepines
INCHIKEY: ADIMAYPTOBDMTL-UHFFFAOYNA-N
SMILES: OC1N=C(C2=CC=CC=C2)C2=C(C=CC(Cl)=C2)N=C1O
RETENTIONTIME: 
CCS: 163.0905624
IONMODE: Negative
INSTRUMENTTYPE: LC-ESI-ITFT
INSTRUMENT: 
COLLISIONENERGY: 45
Comment: registered in MassBank
Num Peaks: 2
241.02969	1000
257.048	707

NAME: Oxazepam; LC-ESI-ITFT; MS2; CE
PRECURSORMZ: 285.043629
PRECURSORTYPE: [M-H]-
FORMULA: C15H11ClN2O2
Ontology: 1,4-benzodiazepines
INCHIKEY: ADIMAYPTOBDMTL-UHFFFAOYNA-N
SMILES: OC1N=C(C2=CC=CC=C2)C2=C(C=CC(Cl)=C2)N=C1O
RETENTIONTIME: 
CCS: 163.0905624
IONMODE: Negative
INSTRUMENTTYPE: LC-ESI-ITFT
INSTRUMENT: 
COLLISIONENERGY: 60
Comment: registered in MassBank
Num Peaks: 2
151.00729	1000
241.0305	902

NAME: Oxazepam; LC-ESI-ITFT; MS2; CE
PRECURSORMZ: 285.043629
PRECURSORTYPE: [M-H]-
FORMULA: C15H11ClN2O2
Ontology: 1,4-benzodiazepines
INCHIKEY: ADIMAYPTOBDMTL-UHFFFAOYNA-N
SMILES: OC1N=C(C2=CC=CC=C2)C2=C(C=CC(Cl)=C2)N=C1O
RETENTIONTIME: 
CCS: 163.0905624
IONMODE: Negative
INSTRUMENTTYPE: LC-ESI-ITFT
INSTRUMENT: 
COLLISIONENERGY: 75
Comment: registered in MassBank
Num Peaks: 1
241.0305	1000

NAME: Oxazepam; LC-ESI-ITFT; MS2; CE
PRECURSORMZ: 285.043629
PRECURSORTYPE: [M-H]-
FORMULA: C15H11ClN2O2
Ontology: 1,4-benzodiazepines
INCHIKEY: ADIMAYPTOBDMTL-UHFFFAOYNA-N
SMILES: OC1N=C(C2=CC=CC=C2)C2=C(C=CC(Cl)=C2)N=C1O
RETENTIONTIME: 
CCS: 163.0905624
IONMODE: Negative
INSTRUMENTTYPE: LC-ESI-ITFT
INSTRUMENT: 
COLLISIONENERGY: 35
Comment: registered in MassBank
Num Peaks: 2
242.0374	6
257.04871	1000

NAME: Acesulfame; LC-ESI-ITFT; MS2; CE
PRECURSORMZ: 161.986652
PRECURSORTYPE: [M-H]-
FORMULA: C4H5NO4S
Ontology: Organic sulfuric acids and derivatives
INCHIKEY: YGCFIWIQZPHFLU-UHFFFAOYSA-N
SMILES: CC1=CC(O)=NS(=O)(=O)O1
RETENTIONTIME: 
CCS: 130.6549768
IONMODE: Negative
INSTRUMENTTYPE: LC-ESI-ITFT
INSTRUMENT: 
COLLISIONENERGY: 35
Comment: registered in MassBank
Num Peaks: 5
82.0299	1000
98.0248	15
101.9656	17
119.9763	7
161.987	153

NAME: Acesulfame; LC-ESI-ITFT; MS2; CE
PRECURSORMZ: 161.986652
PRECURSORTYPE: [M-H]-
FORMULA: C4H5NO4S
Ontology: Organic sulfuric acids and derivatives
INCHIKEY: YGCFIWIQZPHFLU-UHFFFAOYSA-N
SMILES: CC1=CC(O)=NS(=O)(=O)O1
RETENTIONTIME: 
CCS: 130.6549768
IONMODE: Negative
INSTRUMENTTYPE: LC-ESI-ITFT
INSTRUMENT: 
COLLISIONENERGY: 15
Comment: registered in MassBank
Num Peaks: 2
82.0298	115
161.9868	1000

NAME: Acesulfame; LC-ESI-ITFT; MS2; CE
PRECURSORMZ: 161.986652
PRECURSORTYPE: [M-H]-
FORMULA: C4H5NO4S
Ontology: Organic sulfuric acids and derivatives
INCHIKEY: YGCFIWIQZPHFLU-UHFFFAOYSA-N
SMILES: CC1=CC(O)=NS(=O)(=O)O1
RETENTIONTIME: 
CCS: 130.6549768
IONMODE: Negative
INSTRUMENTTYPE: LC-ESI-ITFT
INSTRUMENT: 
COLLISIONENERGY: 30
Comment: registered in MassBank
Num Peaks: 5
70.0298	6
77.9655	16
82.0299	651
98.0248	8
161.9868	1000

NAME: Acesulfame; LC-ESI-ITFT; MS2; CE
PRECURSORMZ: 161.986652
PRECURSORTYPE: [M-H]-
FORMULA: C4H5NO4S
Ontology: Organic sulfuric acids and derivatives
INCHIKEY: YGCFIWIQZPHFLU-UHFFFAOYSA-N
SMILES: CC1=CC(O)=NS(=O)(=O)O1
RETENTIONTIME: 
CCS: 130.6549768
IONMODE: Negative
INSTRUMENTTYPE: LC-ESI-ITFT
INSTRUMENT: 
COLLISIONENERGY: 45
Comment: registered in MassBank
Num Peaks: 5
70.0299	11
77.9654	66
82.0299	1000
98.025	6
161.98669	246

NAME: Acesulfame; LC-ESI-ITFT; MS2; CE
PRECURSORMZ: 161.986652
PRECURSORTYPE: [M-H]-
FORMULA: C4H5NO4S
Ontology: Organic sulfuric acids and derivatives
INCHIKEY: YGCFIWIQZPHFLU-UHFFFAOYSA-N
SMILES: CC1=CC(O)=NS(=O)(=O)O1
RETENTIONTIME: 
CCS: 130.6549768
IONMODE: Negative
INSTRUMENTTYPE: LC-ESI-ITFT
INSTRUMENT: 
COLLISIONENERGY: 60
Comment: registered in MassBank
Num Peaks: 4
70.0297	17
77.9655	160
82.0299	1000
161.9863	36

NAME: Acesulfame; LC-ESI-ITFT; MS2; CE
PRECURSORMZ: 161.986652
PRECURSORTYPE: [M-H]-
FORMULA: C4H5NO4S
Ontology: Organic sulfuric acids and derivatives
INCHIKEY: YGCFIWIQZPHFLU-UHFFFAOYSA-N
SMILES: CC1=CC(O)=NS(=O)(=O)O1
RETENTIONTIME: 
CCS: 130.6549768
IONMODE: Negative
INSTRUMENTTYPE: LC-ESI-ITFT
INSTRUMENT: 
COLLISIONENERGY: 75
Comment: registered in MassBank
Num Peaks: 2
77.9656	393
82.0299	1000

NAME: Acesulfame; LC-ESI-ITFT; MS2; CE
PRECURSORMZ: 161.986652
PRECURSORTYPE: [M-H]-
FORMULA: C4H5NO4S
Ontology: Organic sulfuric acids and derivatives
INCHIKEY: YGCFIWIQZPHFLU-UHFFFAOYSA-N
SMILES: CC1=CC(O)=NS(=O)(=O)O1
RETENTIONTIME: 
CCS: 130.6549768
IONMODE: Negative
INSTRUMENTTYPE: LC-ESI-ITFT
INSTRUMENT: 
COLLISIONENERGY: 90
Comment: registered in MassBank
Num Peaks: 2
77.9656	957
82.0299	1000

NAME: Acesulfame; LC-ESI-ITFT; MS2; CE
PRECURSORMZ: 161.986652
PRECURSORTYPE: [M-H]-
FORMULA: C4H5NO4S
Ontology: Organic sulfuric acids and derivatives
INCHIKEY: YGCFIWIQZPHFLU-UHFFFAOYSA-N
SMILES: CC1=CC(O)=NS(=O)(=O)O1
RETENTIONTIME: 
CCS: 130.6549768
IONMODE: Negative
INSTRUMENTTYPE: LC-ESI-ITFT
INSTRUMENT: 
COLLISIONENERGY: 15
Comment: registered in MassBank
Num Peaks: 2
82.0298	101
161.9868	1000

NAME: Acesulfame; LC-ESI-ITFT; MS2; CE
PRECURSORMZ: 161.986652
PRECURSORTYPE: [M-H]-
FORMULA: C4H5NO4S
Ontology: Organic sulfuric acids and derivatives
INCHIKEY: YGCFIWIQZPHFLU-UHFFFAOYSA-N
SMILES: CC1=CC(O)=NS(=O)(=O)O1
RETENTIONTIME: 
CCS: 130.6549768
IONMODE: Negative
INSTRUMENTTYPE: LC-ESI-ITFT
INSTRUMENT: 
COLLISIONENERGY: 30
Comment: registered in MassBank
Num Peaks: 3
77.9653	14
82.0299	656
161.9868	1000

NAME: Acesulfame; LC-ESI-ITFT; MS2; CE
PRECURSORMZ: 161.986652
PRECURSORTYPE: [M-H]-
FORMULA: C4H5NO4S
Ontology: Organic sulfuric acids and derivatives
INCHIKEY: YGCFIWIQZPHFLU-UHFFFAOYSA-N
SMILES: CC1=CC(O)=NS(=O)(=O)O1
RETENTIONTIME: 
CCS: 130.6549768
IONMODE: Negative
INSTRUMENTTYPE: LC-ESI-ITFT
INSTRUMENT: 
COLLISIONENERGY: 45
Comment: registered in MassBank
Num Peaks: 4
70.0298	10
77.9655	53
82.0299	1000
161.9866	216

NAME: Acesulfame; LC-ESI-ITFT; MS2; CE
PRECURSORMZ: 161.986652
PRECURSORTYPE: [M-H]-
FORMULA: C4H5NO4S
Ontology: Organic sulfuric acids and derivatives
INCHIKEY: YGCFIWIQZPHFLU-UHFFFAOYSA-N
SMILES: CC1=CC(O)=NS(=O)(=O)O1
RETENTIONTIME: 
CCS: 130.6549768
IONMODE: Negative
INSTRUMENTTYPE: LC-ESI-ITFT
INSTRUMENT: 
COLLISIONENERGY: 60
Comment: registered in MassBank
Num Peaks: 4
70.0298	5
77.9655	139
82.0299	1000
161.9866	31

NAME: Acesulfame; LC-ESI-ITFT; MS2; CE
PRECURSORMZ: 161.986652
PRECURSORTYPE: [M-H]-
FORMULA: C4H5NO4S
Ontology: Organic sulfuric acids and derivatives
INCHIKEY: YGCFIWIQZPHFLU-UHFFFAOYSA-N
SMILES: CC1=CC(O)=NS(=O)(=O)O1
RETENTIONTIME: 
CCS: 130.6549768
IONMODE: Negative
INSTRUMENTTYPE: LC-ESI-ITFT
INSTRUMENT: 
COLLISIONENERGY: 75
Comment: registered in MassBank
Num Peaks: 4
70.0298	8
77.9655	373
82.0298	1000
161.98621	8

NAME: Acesulfame; LC-ESI-ITFT; MS2; CE
PRECURSORMZ: 161.986652
PRECURSORTYPE: [M-H]-
FORMULA: C4H5NO4S
Ontology: Organic sulfuric acids and derivatives
INCHIKEY: YGCFIWIQZPHFLU-UHFFFAOYSA-N
SMILES: CC1=CC(O)=NS(=O)(=O)O1
RETENTIONTIME: 
CCS: 130.6549768
IONMODE: Negative
INSTRUMENTTYPE: LC-ESI-ITFT
INSTRUMENT: 
COLLISIONENERGY: 90
Comment: registered in MassBank
Num Peaks: 2
77.9655	958
82.0298	1000

NAME: Acesulfame; LC-ESI-ITFT; MS2; CE
PRECURSORMZ: 161.986652
PRECURSORTYPE: [M-H]-
FORMULA: C4H5NO4S
Ontology: Organic sulfuric acids and derivatives
INCHIKEY: YGCFIWIQZPHFLU-UHFFFAOYSA-N
SMILES: CC1=CC(O)=NS(=O)(=O)O1
RETENTIONTIME: 
CCS: 130.6549768
IONMODE: Negative
INSTRUMENTTYPE: LC-ESI-ITFT
INSTRUMENT: 
COLLISIONENERGY: 35
Comment: registered in MassBank
Num Peaks: 3
82.0299	1000
101.9655	7
161.9866	57

NAME: Aspartame; LC-ESI-ITFT; MS2; CE
PRECURSORMZ: 293.114295
PRECURSORTYPE: [M-H]-
FORMULA: C14H18N2O5
Ontology: Peptides
INCHIKEY: IAOZJIPTCAWIRG-UHFFFAOYNA-N
SMILES: COC(=O)C(CC1=CC=CC=C1)N=C(O)C(N)CC(O)=O
RETENTIONTIME: 
CCS: 167.8659072
IONMODE: Negative
INSTRUMENTTYPE: LC-ESI-ITFT
INSTRUMENT: 
COLLISIONENERGY: 35
Comment: registered in MassBank
Num Peaks: 5
174.0562	20
200.07201	193
217.0986	74
261.08829	1000
275.10391	59

NAME: Aspartame; LC-ESI-ITFT; MS2; CE
PRECURSORMZ: 293.114295
PRECURSORTYPE: [M-H]-
FORMULA: C14H18N2O5
Ontology: Peptides
INCHIKEY: IAOZJIPTCAWIRG-UHFFFAOYNA-N
SMILES: COC(=O)C(CC1=CC=CC=C1)N=C(O)C(N)CC(O)=O
RETENTIONTIME: 
CCS: 167.8659072
IONMODE: Negative
INSTRUMENTTYPE: LC-ESI-ITFT
INSTRUMENT: 
COLLISIONENERGY: 15
Comment: registered in MassBank
Num Peaks: 8
146.0609	21
173.1089	14
174.0556	27
200.0719	291
217.0984	89
261.0881	891
275.104	76
293.1145	1000

NAME: Aspartame; LC-ESI-ITFT; MS2; CE
PRECURSORMZ: 293.114295
PRECURSORTYPE: [M-H]-
FORMULA: C14H18N2O5
Ontology: Peptides
INCHIKEY: IAOZJIPTCAWIRG-UHFFFAOYNA-N
SMILES: COC(=O)C(CC1=CC=CC=C1)N=C(O)C(N)CC(O)=O
RETENTIONTIME: 
CCS: 167.8659072
IONMODE: Negative
INSTRUMENTTYPE: LC-ESI-ITFT
INSTRUMENT: 
COLLISIONENERGY: 30
Comment: registered in MassBank
Num Peaks: 14
70.0298	49
97.0404	40
126.0437	52
146.061	337
173.10851	197
174.0565	112
189.1037	27
199.0878	110
200.0719	1000
201.0676	46
217.0985	553
243.07761	90
261.0881	495
275.10349	99

NAME: Aspartame; LC-ESI-ITFT; MS2; CE
PRECURSORMZ: 293.114295
PRECURSORTYPE: [M-H]-
FORMULA: C14H18N2O5
Ontology: Peptides
INCHIKEY: IAOZJIPTCAWIRG-UHFFFAOYNA-N
SMILES: COC(=O)C(CC1=CC=CC=C1)N=C(O)C(N)CC(O)=O
RETENTIONTIME: 
CCS: 167.8659072
IONMODE: Negative
INSTRUMENTTYPE: LC-ESI-ITFT
INSTRUMENT: 
COLLISIONENERGY: 45
Comment: registered in MassBank
Num Peaks: 12
70.0299	105
81.0222	48
97.0407	542
118.0663	101
126.0439	100
146.06129	299
173.1089	187
174.056	130
189.10381	244
200.07179	1000
201.0674	187
217.0981	291

NAME: Aspartame; LC-ESI-ITFT; MS2; CE
PRECURSORMZ: 293.114295
PRECURSORTYPE: [M-H]-
FORMULA: C14H18N2O5
Ontology: Peptides
INCHIKEY: IAOZJIPTCAWIRG-UHFFFAOYNA-N
SMILES: COC(=O)C(CC1=CC=CC=C1)N=C(O)C(N)CC(O)=O
RETENTIONTIME: 
CCS: 167.8659072
IONMODE: Negative
INSTRUMENTTYPE: LC-ESI-ITFT
INSTRUMENT: 
COLLISIONENERGY: 60
Comment: registered in MassBank
Num Peaks: 4
81.0222	151
97.0408	1000
118.0666	561
200.07159	491

NAME: Aspartame; LC-ESI-ITFT; MS2; CE
PRECURSORMZ: 293.114295
PRECURSORTYPE: [M-H]-
FORMULA: C14H18N2O5
Ontology: Peptides
INCHIKEY: IAOZJIPTCAWIRG-UHFFFAOYNA-N
SMILES: COC(=O)C(CC1=CC=CC=C1)N=C(O)C(N)CC(O)=O
RETENTIONTIME: 
CCS: 167.8659072
IONMODE: Negative
INSTRUMENTTYPE: LC-ESI-ITFT
INSTRUMENT: 
COLLISIONENERGY: 75
Comment: registered in MassBank
Num Peaks: 2
97.0405	974
118.0662	1000

NAME: Aspartame; LC-ESI-ITFT; MS2; CE
PRECURSORMZ: 293.114295
PRECURSORTYPE: [M-H]-
FORMULA: C14H18N2O5
Ontology: Peptides
INCHIKEY: IAOZJIPTCAWIRG-UHFFFAOYNA-N
SMILES: COC(=O)C(CC1=CC=CC=C1)N=C(O)C(N)CC(O)=O
RETENTIONTIME: 
CCS: 167.8659072
IONMODE: Negative
INSTRUMENTTYPE: LC-ESI-ITFT
INSTRUMENT: 
COLLISIONENERGY: 90
Comment: registered in MassBank
Num Peaks: 2
97.0409	557
118.0663	1000

NAME: Aspartame; LC-ESI-ITFT; MS2; CE
PRECURSORMZ: 293.114295
PRECURSORTYPE: [M-H]-
FORMULA: C14H18N2O5
Ontology: Peptides
INCHIKEY: IAOZJIPTCAWIRG-UHFFFAOYNA-N
SMILES: COC(=O)C(CC1=CC=CC=C1)N=C(O)C(N)CC(O)=O
RETENTIONTIME: 
CCS: 167.8659072
IONMODE: Negative
INSTRUMENTTYPE: LC-ESI-ITFT
INSTRUMENT: 
COLLISIONENERGY: 15
Comment: registered in MassBank
Num Peaks: 6
174.05569	28
200.0717	259
217.0979	83
261.08801	1000
275.1037	54
293.11441	977

NAME: Aspartame; LC-ESI-ITFT; MS2; CE
PRECURSORMZ: 293.114295
PRECURSORTYPE: [M-H]-
FORMULA: C14H18N2O5
Ontology: Peptides
INCHIKEY: IAOZJIPTCAWIRG-UHFFFAOYNA-N
SMILES: COC(=O)C(CC1=CC=CC=C1)N=C(O)C(N)CC(O)=O
RETENTIONTIME: 
CCS: 167.8659072
IONMODE: Negative
INSTRUMENTTYPE: LC-ESI-ITFT
INSTRUMENT: 
COLLISIONENERGY: 30
Comment: registered in MassBank
Num Peaks: 10
146.0611	326
173.10809	183
174.05589	140
199.08749	97
200.07179	1000
217.0981	558
243.0769	82
261.0881	483
275.10471	99
293.11411	106

NAME: Aspartame; LC-ESI-ITFT; MS2; CE
PRECURSORMZ: 293.114295
PRECURSORTYPE: [M-H]-
FORMULA: C14H18N2O5
Ontology: Peptides
INCHIKEY: IAOZJIPTCAWIRG-UHFFFAOYNA-N
SMILES: COC(=O)C(CC1=CC=CC=C1)N=C(O)C(N)CC(O)=O
RETENTIONTIME: 
CCS: 167.8659072
IONMODE: Negative
INSTRUMENTTYPE: LC-ESI-ITFT
INSTRUMENT: 
COLLISIONENERGY: 45
Comment: registered in MassBank
Num Peaks: 6
70.03	145
97.0406	356
146.061	295
189.1033	117
200.0717	1000
217.09821	196

NAME: Aspartame; LC-ESI-ITFT; MS2; CE
PRECURSORMZ: 293.114295
PRECURSORTYPE: [M-H]-
FORMULA: C14H18N2O5
Ontology: Peptides
INCHIKEY: IAOZJIPTCAWIRG-UHFFFAOYNA-N
SMILES: COC(=O)C(CC1=CC=CC=C1)N=C(O)C(N)CC(O)=O
RETENTIONTIME: 
CCS: 167.8659072
IONMODE: Negative
INSTRUMENTTYPE: LC-ESI-ITFT
INSTRUMENT: 
COLLISIONENERGY: 60
Comment: registered in MassBank
Num Peaks: 3
97.0407	1000
189.1037	367
200.0719	493

NAME: Aspartame; LC-ESI-ITFT; MS2; CE
PRECURSORMZ: 293.114295
PRECURSORTYPE: [M-H]-
FORMULA: C14H18N2O5
Ontology: Peptides
INCHIKEY: IAOZJIPTCAWIRG-UHFFFAOYNA-N
SMILES: COC(=O)C(CC1=CC=CC=C1)N=C(O)C(N)CC(O)=O
RETENTIONTIME: 
CCS: 167.8659072
IONMODE: Negative
INSTRUMENTTYPE: LC-ESI-ITFT
INSTRUMENT: 
COLLISIONENERGY: 75
Comment: registered in MassBank
Num Peaks: 1
118.0658	1000

NAME: Aspartame; LC-ESI-ITFT; MS2; CE
PRECURSORMZ: 293.114295
PRECURSORTYPE: [M-H]-
FORMULA: C14H18N2O5
Ontology: Peptides
INCHIKEY: IAOZJIPTCAWIRG-UHFFFAOYNA-N
SMILES: COC(=O)C(CC1=CC=CC=C1)N=C(O)C(N)CC(O)=O
RETENTIONTIME: 
CCS: 167.8659072
IONMODE: Negative
INSTRUMENTTYPE: LC-ESI-ITFT
INSTRUMENT: 
COLLISIONENERGY: 35
Comment: registered in MassBank
Num Peaks: 5
174.05589	8
200.07159	111
217.0985	33
261.08789	1000
275.1037	34

NAME: Cetirizine; LC-ESI-ITFT; MS2; CE
PRECURSORMZ: 387.148094
PRECURSORTYPE: [M-H]-
FORMULA: C21H25ClN2O3
Ontology: Diphenylmethanes
INCHIKEY: ZKLPARSLTMPFCP-UHFFFAOYNA-N
SMILES: OC(=O)COCCN1CCN(CC1)C(C1=CC=CC=C1)C1=CC=C(Cl)C=C1
RETENTIONTIME: 
CCS: 192.9612085
IONMODE: Negative
INSTRUMENTTYPE: LC-ESI-ITFT
INSTRUMENT: 
COLLISIONENERGY: 35
Comment: registered in MassBank
Num Peaks: 2
185.0934	1000
199.0318	700

NAME: Cetirizine; LC-ESI-ITFT; MS2; CE
PRECURSORMZ: 387.148094
PRECURSORTYPE: [M-H]-
FORMULA: C21H25ClN2O3
Ontology: Diphenylmethanes
INCHIKEY: ZKLPARSLTMPFCP-UHFFFAOYNA-N
SMILES: OC(=O)COCCN1CCN(CC1)C(C1=CC=CC=C1)C1=CC=C(Cl)C=C1
RETENTIONTIME: 
CCS: 192.9612085
IONMODE: Negative
INSTRUMENTTYPE: LC-ESI-ITFT
INSTRUMENT: 
COLLISIONENERGY: 30
Comment: registered in MassBank
Num Peaks: 2
75.0089	36
387.14828	1000

NAME: Cetirizine; LC-ESI-ITFT; MS2; CE
PRECURSORMZ: 387.148094
PRECURSORTYPE: [M-H]-
FORMULA: C21H25ClN2O3
Ontology: Diphenylmethanes
INCHIKEY: ZKLPARSLTMPFCP-UHFFFAOYNA-N
SMILES: OC(=O)COCCN1CCN(CC1)C(C1=CC=CC=C1)C1=CC=C(Cl)C=C1
RETENTIONTIME: 
CCS: 192.9612085
IONMODE: Negative
INSTRUMENTTYPE: LC-ESI-ITFT
INSTRUMENT: 
COLLISIONENERGY: 45
Comment: registered in MassBank
Num Peaks: 2
75.0085	1000
387.1481	715

NAME: Cetirizine; LC-ESI-ITFT; MS2; CE
PRECURSORMZ: 387.148094
PRECURSORTYPE: [M-H]-
FORMULA: C21H25ClN2O3
Ontology: Diphenylmethanes
INCHIKEY: ZKLPARSLTMPFCP-UHFFFAOYNA-N
SMILES: OC(=O)COCCN1CCN(CC1)C(C1=CC=CC=C1)C1=CC=C(Cl)C=C1
RETENTIONTIME: 
CCS: 192.9612085
IONMODE: Negative
INSTRUMENTTYPE: LC-ESI-ITFT
INSTRUMENT: 
COLLISIONENERGY: 35
Comment: registered in MassBank
Num Peaks: 2
185.0934	991
199.0311	1000

NAME: Irbesartan; LC-ESI-ITFT; MS2; CE
PRECURSORMZ: 427.225183
PRECURSORTYPE: [M-H]-
FORMULA: C25H28N6O
Ontology: Biphenyls and derivatives
INCHIKEY: YOSHYTLCDANDAN-UHFFFAOYSA-N
SMILES: CCCCC1=NC2(CCCC2)C(=O)N1CC1=CC=C(C=C1)C1=CC=CC=C1C1=NNN=N1
RETENTIONTIME: 
CCS: 201.3458624
IONMODE: Negative
INSTRUMENTTYPE: LC-ESI-ITFT
INSTRUMENT: 
COLLISIONENERGY: 35
Comment: registered in MassBank
Num Peaks: 7
164.09531	6
177.07111	9
193.1346	1000
287.1553	32
353.2023	17
371.21271	57
399.21899	855

NAME: Irbesartan; LC-ESI-ITFT; MS2; CE
PRECURSORMZ: 427.225183
PRECURSORTYPE: [M-H]-
FORMULA: C25H28N6O
Ontology: Biphenyls and derivatives
INCHIKEY: YOSHYTLCDANDAN-UHFFFAOYSA-N
SMILES: CCCCC1=NC2(CCCC2)C(=O)N1CC1=CC=C(C=C1)C1=CC=CC=C1C1=NNN=N1
RETENTIONTIME: 
CCS: 201.3458624
IONMODE: Negative
INSTRUMENTTYPE: LC-ESI-ITFT
INSTRUMENT: 
COLLISIONENERGY: 30
Comment: registered in MassBank
Num Peaks: 4
193.1347	1000
371.21399	8
399.21909	87
427.2251	118

NAME: Irbesartan; LC-ESI-ITFT; MS2; CE
PRECURSORMZ: 427.225183
PRECURSORTYPE: [M-H]-
FORMULA: C25H28N6O
Ontology: Biphenyls and derivatives
INCHIKEY: YOSHYTLCDANDAN-UHFFFAOYSA-N
SMILES: CCCCC1=NC2(CCCC2)C(=O)N1CC1=CC=C(C=C1)C1=CC=CC=C1C1=NNN=N1
RETENTIONTIME: 
CCS: 201.3458624
IONMODE: Negative
INSTRUMENTTYPE: LC-ESI-ITFT
INSTRUMENT: 
COLLISIONENERGY: 45
Comment: registered in MassBank
Num Peaks: 1
193.1346	1000

NAME: Irbesartan; LC-ESI-ITFT; MS2; CE
PRECURSORMZ: 427.225183
PRECURSORTYPE: [M-H]-
FORMULA: C25H28N6O
Ontology: Biphenyls and derivatives
INCHIKEY: YOSHYTLCDANDAN-UHFFFAOYSA-N
SMILES: CCCCC1=NC2(CCCC2)C(=O)N1CC1=CC=C(C=C1)C1=CC=CC=C1C1=NNN=N1
RETENTIONTIME: 
CCS: 201.3458624
IONMODE: Negative
INSTRUMENTTYPE: LC-ESI-ITFT
INSTRUMENT: 
COLLISIONENERGY: 60
Comment: registered in MassBank
Num Peaks: 4
121.041	26
138.08009	38
164.0957	93
193.1347	1000

NAME: Irbesartan; LC-ESI-ITFT; MS2; CE
PRECURSORMZ: 427.225183
PRECURSORTYPE: [M-H]-
FORMULA: C25H28N6O
Ontology: Biphenyls and derivatives
INCHIKEY: YOSHYTLCDANDAN-UHFFFAOYSA-N
SMILES: CCCCC1=NC2(CCCC2)C(=O)N1CC1=CC=C(C=C1)C1=CC=CC=C1C1=NNN=N1
RETENTIONTIME: 
CCS: 201.3458624
IONMODE: Negative
INSTRUMENTTYPE: LC-ESI-ITFT
INSTRUMENT: 
COLLISIONENERGY: 75
Comment: registered in MassBank
Num Peaks: 6
95.0255	46
121.0407	326
138.08	76
151.08749	59
164.0957	475
193.1347	1000

NAME: Irbesartan; LC-ESI-ITFT; MS2; CE
PRECURSORMZ: 427.225183
PRECURSORTYPE: [M-H]-
FORMULA: C25H28N6O
Ontology: Biphenyls and derivatives
INCHIKEY: YOSHYTLCDANDAN-UHFFFAOYSA-N
SMILES: CCCCC1=NC2(CCCC2)C(=O)N1CC1=CC=C(C=C1)C1=CC=CC=C1C1=NNN=N1
RETENTIONTIME: 
CCS: 201.3458624
IONMODE: Negative
INSTRUMENTTYPE: LC-ESI-ITFT
INSTRUMENT: 
COLLISIONENERGY: 90
Comment: registered in MassBank
Num Peaks: 4
95.0254	117
121.0407	1000
164.0957	343
193.1347	293

NAME: Irbesartan; LC-ESI-ITFT; MS2; CE
PRECURSORMZ: 427.225183
PRECURSORTYPE: [M-H]-
FORMULA: C25H28N6O
Ontology: Biphenyls and derivatives
INCHIKEY: YOSHYTLCDANDAN-UHFFFAOYSA-N
SMILES: CCCCC1=NC2(CCCC2)C(=O)N1CC1=CC=C(C=C1)C1=CC=CC=C1C1=NNN=N1
RETENTIONTIME: 
CCS: 201.3458624
IONMODE: Negative
INSTRUMENTTYPE: LC-ESI-ITFT
INSTRUMENT: 
COLLISIONENERGY: 15
Comment: registered in MassBank
Num Peaks: 2
193.1355	9
427.22531	1000

NAME: Irbesartan; LC-ESI-ITFT; MS2; CE
PRECURSORMZ: 427.225183
PRECURSORTYPE: [M-H]-
FORMULA: C25H28N6O
Ontology: Biphenyls and derivatives
INCHIKEY: YOSHYTLCDANDAN-UHFFFAOYSA-N
SMILES: CCCCC1=NC2(CCCC2)C(=O)N1CC1=CC=C(C=C1)C1=CC=CC=C1C1=NNN=N1
RETENTIONTIME: 
CCS: 201.3458624
IONMODE: Negative
INSTRUMENTTYPE: LC-ESI-ITFT
INSTRUMENT: 
COLLISIONENERGY: 30
Comment: registered in MassBank
Num Peaks: 5
193.1347	1000
287.15549	7
371.21109	14
399.2193	90
427.2254	104

NAME: Irbesartan; LC-ESI-ITFT; MS2; CE
PRECURSORMZ: 427.225183
PRECURSORTYPE: [M-H]-
FORMULA: C25H28N6O
Ontology: Biphenyls and derivatives
INCHIKEY: YOSHYTLCDANDAN-UHFFFAOYSA-N
SMILES: CCCCC1=NC2(CCCC2)C(=O)N1CC1=CC=C(C=C1)C1=CC=CC=C1C1=NNN=N1
RETENTIONTIME: 
CCS: 201.3458624
IONMODE: Negative
INSTRUMENTTYPE: LC-ESI-ITFT
INSTRUMENT: 
COLLISIONENERGY: 45
Comment: registered in MassBank
Num Peaks: 3
164.0959	7
193.1346	1000
195.08099	5

NAME: Irbesartan; LC-ESI-ITFT; MS2; CE
PRECURSORMZ: 427.225183
PRECURSORTYPE: [M-H]-
FORMULA: C25H28N6O
Ontology: Biphenyls and derivatives
INCHIKEY: YOSHYTLCDANDAN-UHFFFAOYSA-N
SMILES: CCCCC1=NC2(CCCC2)C(=O)N1CC1=CC=C(C=C1)C1=CC=CC=C1C1=NNN=N1
RETENTIONTIME: 
CCS: 201.3458624
IONMODE: Negative
INSTRUMENTTYPE: LC-ESI-ITFT
INSTRUMENT: 
COLLISIONENERGY: 60
Comment: registered in MassBank
Num Peaks: 4
121.0408	16
138.0802	36
164.0956	105
193.1347	1000

NAME: Irbesartan; LC-ESI-ITFT; MS2; CE
PRECURSORMZ: 427.225183
PRECURSORTYPE: [M-H]-
FORMULA: C25H28N6O
Ontology: Biphenyls and derivatives
INCHIKEY: YOSHYTLCDANDAN-UHFFFAOYSA-N
SMILES: CCCCC1=NC2(CCCC2)C(=O)N1CC1=CC=C(C=C1)C1=CC=CC=C1C1=NNN=N1
RETENTIONTIME: 
CCS: 201.3458624
IONMODE: Negative
INSTRUMENTTYPE: LC-ESI-ITFT
INSTRUMENT: 
COLLISIONENERGY: 75
Comment: registered in MassBank
Num Peaks: 5
95.0252	40
121.0407	330
138.07941	114
164.0954	447
193.1346	1000

NAME: Irbesartan; LC-ESI-ITFT; MS2; CE
PRECURSORMZ: 427.225183
PRECURSORTYPE: [M-H]-
FORMULA: C25H28N6O
Ontology: Biphenyls and derivatives
INCHIKEY: YOSHYTLCDANDAN-UHFFFAOYSA-N
SMILES: CCCCC1=NC2(CCCC2)C(=O)N1CC1=CC=C(C=C1)C1=CC=CC=C1C1=NNN=N1
RETENTIONTIME: 
CCS: 201.3458624
IONMODE: Negative
INSTRUMENTTYPE: LC-ESI-ITFT
INSTRUMENT: 
COLLISIONENERGY: 90
Comment: registered in MassBank
Num Peaks: 4
95.0247	86
121.0407	1000
164.0954	492
193.1346	416

NAME: Irbesartan; LC-ESI-ITFT; MS2; CE
PRECURSORMZ: 427.225183
PRECURSORTYPE: [M-H]-
FORMULA: C25H28N6O
Ontology: Biphenyls and derivatives
INCHIKEY: YOSHYTLCDANDAN-UHFFFAOYSA-N
SMILES: CCCCC1=NC2(CCCC2)C(=O)N1CC1=CC=C(C=C1)C1=CC=CC=C1C1=NNN=N1
RETENTIONTIME: 
CCS: 201.3458624
IONMODE: Negative
INSTRUMENTTYPE: LC-ESI-ITFT
INSTRUMENT: 
COLLISIONENERGY: 35
Comment: registered in MassBank
Num Peaks: 6
177.071	6
193.13451	1000
287.155	22
353.2019	11
371.2124	40
399.21869	875

NAME: Eprosartan; LC-ESI-ITFT; MS2; CE
PRECURSORMZ: 423.138402
PRECURSORTYPE: [M-H]-
FORMULA: C23H24N2O4S
Ontology: Benzoic acids
INCHIKEY: OROAFUQRIXKEMV-LDADJPATSA-N
SMILES: CCCCC1=NC=C(\C=C(/CC2=CC=CS2)C(O)=O)N1CC1=CC=C(C=C1)C(O)=O
RETENTIONTIME: 
CCS: 198.7505926
IONMODE: Negative
INSTRUMENTTYPE: LC-ESI-ITFT
INSTRUMENT: 
COLLISIONENERGY: 35
Comment: registered in MassBank
Num Peaks: 6
237.1394	8
243.04871	7
281.1293	56
335.15851	30
379.14859	1000
405.1275	50

NAME: Eprosartan; LC-ESI-ITFT; MS2; CE
PRECURSORMZ: 423.138402
PRECURSORTYPE: [M-H]-
FORMULA: C23H24N2O4S
Ontology: Benzoic acids
INCHIKEY: OROAFUQRIXKEMV-LDADJPATSA-N
SMILES: CCCCC1=NC=C(\C=C(/CC2=CC=CS2)C(O)=O)N1CC1=CC=C(C=C1)C(O)=O
RETENTIONTIME: 
CCS: 198.7505926
IONMODE: Negative
INSTRUMENTTYPE: LC-ESI-ITFT
INSTRUMENT: 
COLLISIONENERGY: 15
Comment: registered in MassBank
Num Peaks: 3
379.14871	301
405.1268	13
423.13879	1000

NAME: Eprosartan; LC-ESI-ITFT; MS2; CE
PRECURSORMZ: 423.138402
PRECURSORTYPE: [M-H]-
FORMULA: C23H24N2O4S
Ontology: Benzoic acids
INCHIKEY: OROAFUQRIXKEMV-LDADJPATSA-N
SMILES: CCCCC1=NC=C(\C=C(/CC2=CC=CS2)C(O)=O)N1CC1=CC=C(C=C1)C(O)=O
RETENTIONTIME: 
CCS: 198.7505926
IONMODE: Negative
INSTRUMENTTYPE: LC-ESI-ITFT
INSTRUMENT: 
COLLISIONENERGY: 30
Comment: registered in MassBank
Num Peaks: 14
97.0119	49
135.045	88
137.10851	61
197.04311	39
199.0584	232
215.06461	94
237.1396	285
244.1041	736
245.11121	70
281.12949	381
301.16751	39
335.15881	619
379.1489	1000
405.12781	36

NAME: Eprosartan; LC-ESI-ITFT; MS2; CE
PRECURSORMZ: 423.138402
PRECURSORTYPE: [M-H]-
FORMULA: C23H24N2O4S
Ontology: Benzoic acids
INCHIKEY: OROAFUQRIXKEMV-LDADJPATSA-N
SMILES: CCCCC1=NC=C(\C=C(/CC2=CC=CS2)C(O)=O)N1CC1=CC=C(C=C1)C(O)=O
RETENTIONTIME: 
CCS: 198.7505926
IONMODE: Negative
INSTRUMENTTYPE: LC-ESI-ITFT
INSTRUMENT: 
COLLISIONENERGY: 45
Comment: registered in MassBank
Num Peaks: 8
121.0292	191
135.0457	156
199.05859	381
215.065	630
237.1403	245
244.1041	1000
245.11169	451
335.15921	86

NAME: Eprosartan; LC-ESI-ITFT; MS2; CE
PRECURSORMZ: 423.138402
PRECURSORTYPE: [M-H]-
FORMULA: C23H24N2O4S
Ontology: Benzoic acids
INCHIKEY: OROAFUQRIXKEMV-LDADJPATSA-N
SMILES: CCCCC1=NC=C(\C=C(/CC2=CC=CS2)C(O)=O)N1CC1=CC=C(C=C1)C(O)=O
RETENTIONTIME: 
CCS: 198.7505926
IONMODE: Negative
INSTRUMENTTYPE: LC-ESI-ITFT
INSTRUMENT: 
COLLISIONENERGY: 60
Comment: registered in MassBank
Num Peaks: 11
82.9961	296
96.0041	158
121.0294	209
123.0933	203
135.04581	105
199.0587	98
201.05	325
215.0648	1000
237.1395	99
244.1041	186
245.1123	703

NAME: Eprosartan; LC-ESI-ITFT; MS2; CE
PRECURSORMZ: 423.138402
PRECURSORTYPE: [M-H]-
FORMULA: C23H24N2O4S
Ontology: Benzoic acids
INCHIKEY: OROAFUQRIXKEMV-LDADJPATSA-N
SMILES: CCCCC1=NC=C(\C=C(/CC2=CC=CS2)C(O)=O)N1CC1=CC=C(C=C1)C(O)=O
RETENTIONTIME: 
CCS: 198.7505926
IONMODE: Negative
INSTRUMENTTYPE: LC-ESI-ITFT
INSTRUMENT: 
COLLISIONENERGY: 75
Comment: registered in MassBank
Num Peaks: 3
82.9961	1000
123.0925	275
215.0649	672

NAME: Eprosartan; LC-ESI-ITFT; MS2; CE
PRECURSORMZ: 423.138402
PRECURSORTYPE: [M-H]-
FORMULA: C23H24N2O4S
Ontology: Benzoic acids
INCHIKEY: OROAFUQRIXKEMV-LDADJPATSA-N
SMILES: CCCCC1=NC=C(\C=C(/CC2=CC=CS2)C(O)=O)N1CC1=CC=C(C=C1)C(O)=O
RETENTIONTIME: 
CCS: 198.7505926
IONMODE: Negative
INSTRUMENTTYPE: LC-ESI-ITFT
INSTRUMENT: 
COLLISIONENERGY: 90
Comment: registered in MassBank
Num Peaks: 2
82.9962	1000
148.02271	164

NAME: Eprosartan; LC-ESI-ITFT; MS2; CE
PRECURSORMZ: 423.138402
PRECURSORTYPE: [M-H]-
FORMULA: C23H24N2O4S
Ontology: Benzoic acids
INCHIKEY: OROAFUQRIXKEMV-LDADJPATSA-N
SMILES: CCCCC1=NC=C(\C=C(/CC2=CC=CS2)C(O)=O)N1CC1=CC=C(C=C1)C(O)=O
RETENTIONTIME: 
CCS: 198.7505926
IONMODE: Negative
INSTRUMENTTYPE: LC-ESI-ITFT
INSTRUMENT: 
COLLISIONENERGY: 15
Comment: registered in MassBank
Num Peaks: 2
379.14859	286
423.1384	1000

NAME: Eprosartan; LC-ESI-ITFT; MS2; CE
PRECURSORMZ: 423.138402
PRECURSORTYPE: [M-H]-
FORMULA: C23H24N2O4S
Ontology: Benzoic acids
INCHIKEY: OROAFUQRIXKEMV-LDADJPATSA-N
SMILES: CCCCC1=NC=C(\C=C(/CC2=CC=CS2)C(O)=O)N1CC1=CC=C(C=C1)C(O)=O
RETENTIONTIME: 
CCS: 198.7505926
IONMODE: Negative
INSTRUMENTTYPE: LC-ESI-ITFT
INSTRUMENT: 
COLLISIONENERGY: 30
Comment: registered in MassBank
Num Peaks: 11
97.0121	48
135.0451	131
199.05859	250
215.06419	94
237.13969	348
244.1037	927
245.11121	74
281.12939	452
301.16971	43
335.15829	734
379.1485	1000

NAME: Eprosartan; LC-ESI-ITFT; MS2; CE
PRECURSORMZ: 423.138402
PRECURSORTYPE: [M-H]-
FORMULA: C23H24N2O4S
Ontology: Benzoic acids
INCHIKEY: OROAFUQRIXKEMV-LDADJPATSA-N
SMILES: CCCCC1=NC=C(\C=C(/CC2=CC=CS2)C(O)=O)N1CC1=CC=C(C=C1)C(O)=O
RETENTIONTIME: 
CCS: 198.7505926
IONMODE: Negative
INSTRUMENTTYPE: LC-ESI-ITFT
INSTRUMENT: 
COLLISIONENERGY: 45
Comment: registered in MassBank
Num Peaks: 9
121.0295	159
123.0926	101
135.0451	212
199.0587	367
201.04871	86
215.065	612
237.1398	292
244.104	1000
245.11121	552

NAME: Eprosartan; LC-ESI-ITFT; MS2; CE
PRECURSORMZ: 423.138402
PRECURSORTYPE: [M-H]-
FORMULA: C23H24N2O4S
Ontology: Benzoic acids
INCHIKEY: OROAFUQRIXKEMV-LDADJPATSA-N
SMILES: CCCCC1=NC=C(\C=C(/CC2=CC=CS2)C(O)=O)N1CC1=CC=C(C=C1)C(O)=O
RETENTIONTIME: 
CCS: 198.7505926
IONMODE: Negative
INSTRUMENTTYPE: LC-ESI-ITFT
INSTRUMENT: 
COLLISIONENERGY: 60
Comment: registered in MassBank
Num Peaks: 7
82.9961	289
96.004	150
121.0296	215
201.0491	397
215.065	1000
244.1051	194
245.1114	545

NAME: Eprosartan; LC-ESI-ITFT; MS2; CE
PRECURSORMZ: 423.138402
PRECURSORTYPE: [M-H]-
FORMULA: C23H24N2O4S
Ontology: Benzoic acids
INCHIKEY: OROAFUQRIXKEMV-LDADJPATSA-N
SMILES: CCCCC1=NC=C(\C=C(/CC2=CC=CS2)C(O)=O)N1CC1=CC=C(C=C1)C(O)=O
RETENTIONTIME: 
CCS: 198.7505926
IONMODE: Negative
INSTRUMENTTYPE: LC-ESI-ITFT
INSTRUMENT: 
COLLISIONENERGY: 75
Comment: registered in MassBank
Num Peaks: 3
82.9962	1000
123.0923	333
215.0648	457

NAME: Eprosartan; LC-ESI-ITFT; MS2; CE
PRECURSORMZ: 423.138402
PRECURSORTYPE: [M-H]-
FORMULA: C23H24N2O4S
Ontology: Benzoic acids
INCHIKEY: OROAFUQRIXKEMV-LDADJPATSA-N
SMILES: CCCCC1=NC=C(\C=C(/CC2=CC=CS2)C(O)=O)N1CC1=CC=C(C=C1)C(O)=O
RETENTIONTIME: 
CCS: 198.7505926
IONMODE: Negative
INSTRUMENTTYPE: LC-ESI-ITFT
INSTRUMENT: 
COLLISIONENERGY: 90
Comment: registered in MassBank
Num Peaks: 2
82.9959	1000
148.0228	486

NAME: Eprosartan; LC-ESI-ITFT; MS2; CE
PRECURSORMZ: 423.138402
PRECURSORTYPE: [M-H]-
FORMULA: C23H24N2O4S
Ontology: Benzoic acids
INCHIKEY: OROAFUQRIXKEMV-LDADJPATSA-N
SMILES: CCCCC1=NC=C(\C=C(/CC2=CC=CS2)C(O)=O)N1CC1=CC=C(C=C1)C(O)=O
RETENTIONTIME: 
CCS: 198.7505926
IONMODE: Negative
INSTRUMENTTYPE: LC-ESI-ITFT
INSTRUMENT: 
COLLISIONENERGY: 35
Comment: registered in MassBank
Num Peaks: 4
281.12939	41
335.15851	16
379.14828	1000
405.12741	27

NAME: Foramsulfuron; LC-ESI-ITFT; MS2; CE
PRECURSORMZ: 451.104141
PRECURSORTYPE: [M-H]-
FORMULA: C17H20N6O7S
Ontology: Pyrimidinyl-2-sulfonylureas
INCHIKEY: PXDNXJSDGQBLKS-UHFFFAOYSA-N
SMILES: COC1=CC(OC)=NC(N=C(O)NS(=O)(=O)C2=C(C=CC(=C2)N=CO)C(=O)N(C)C)=N1
RETENTIONTIME: 
CCS: 223.1282987
IONMODE: Negative
INSTRUMENTTYPE: LC-ESI-ITFT
INSTRUMENT: 
COLLISIONENERGY: 35
Comment: registered in MassBank
Num Peaks: 4
252.0448	14
268.03979	366
270.0553	43
296.03491	1000

NAME: Foramsulfuron; LC-ESI-ITFT; MS2; CE
PRECURSORMZ: 451.104141
PRECURSORTYPE: [M-H]-
FORMULA: C17H20N6O7S
Ontology: Pyrimidinyl-2-sulfonylureas
INCHIKEY: PXDNXJSDGQBLKS-UHFFFAOYSA-N
SMILES: COC1=CC(OC)=NC(N=C(O)NS(=O)(=O)C2=C(C=CC(=C2)N=CO)C(=O)N(C)C)=N1
RETENTIONTIME: 
CCS: 223.1282987
IONMODE: Negative
INSTRUMENTTYPE: LC-ESI-ITFT
INSTRUMENT: 
COLLISIONENERGY: 15
Comment: registered in MassBank
Num Peaks: 5
252.04539	17
268.04031	340
270.05551	66
296.03519	1000
451.1051	136

NAME: Foramsulfuron; LC-ESI-ITFT; MS2; CE
PRECURSORMZ: 451.104141
PRECURSORTYPE: [M-H]-
FORMULA: C17H20N6O7S
Ontology: Pyrimidinyl-2-sulfonylureas
INCHIKEY: PXDNXJSDGQBLKS-UHFFFAOYSA-N
SMILES: COC1=CC(OC)=NC(N=C(O)NS(=O)(=O)C2=C(C=CC(=C2)N=CO)C(=O)N(C)C)=N1
RETENTIONTIME: 
CCS: 223.1282987
IONMODE: Negative
INSTRUMENTTYPE: LC-ESI-ITFT
INSTRUMENT: 
COLLISIONENERGY: 30
Comment: registered in MassBank
Num Peaks: 6
154.0625	65
224.99989	14
252.0453	55
268.0401	1000
270.05579	93
296.03479	182

NAME: Foramsulfuron; LC-ESI-ITFT; MS2; CE
PRECURSORMZ: 451.104141
PRECURSORTYPE: [M-H]-
FORMULA: C17H20N6O7S
Ontology: Pyrimidinyl-2-sulfonylureas
INCHIKEY: PXDNXJSDGQBLKS-UHFFFAOYSA-N
SMILES: COC1=CC(OC)=NC(N=C(O)NS(=O)(=O)C2=C(C=CC(=C2)N=CO)C(=O)N(C)C)=N1
RETENTIONTIME: 
CCS: 223.1282987
IONMODE: Negative
INSTRUMENTTYPE: LC-ESI-ITFT
INSTRUMENT: 
COLLISIONENERGY: 45
Comment: registered in MassBank
Num Peaks: 5
154.0625	188
205.0621	41
224.99719	65
252.04539	72
268.04001	1000

NAME: Foramsulfuron; LC-ESI-ITFT; MS2; CE
PRECURSORMZ: 451.104141
PRECURSORTYPE: [M-H]-
FORMULA: C17H20N6O7S
Ontology: Pyrimidinyl-2-sulfonylureas
INCHIKEY: PXDNXJSDGQBLKS-UHFFFAOYSA-N
SMILES: COC1=CC(OC)=NC(N=C(O)NS(=O)(=O)C2=C(C=CC(=C2)N=CO)C(=O)N(C)C)=N1
RETENTIONTIME: 
CCS: 223.1282987
IONMODE: Negative
INSTRUMENTTYPE: LC-ESI-ITFT
INSTRUMENT: 
COLLISIONENERGY: 60
Comment: registered in MassBank
Num Peaks: 6
122.0362	123
139.039	70
154.0625	434
224.998	104
252.04671	79
268.0397	1000

NAME: Foramsulfuron; LC-ESI-ITFT; MS2; CE
PRECURSORMZ: 451.104141
PRECURSORTYPE: [M-H]-
FORMULA: C17H20N6O7S
Ontology: Pyrimidinyl-2-sulfonylureas
INCHIKEY: PXDNXJSDGQBLKS-UHFFFAOYSA-N
SMILES: COC1=CC(OC)=NC(N=C(O)NS(=O)(=O)C2=C(C=CC(=C2)N=CO)C(=O)N(C)C)=N1
RETENTIONTIME: 
CCS: 223.1282987
IONMODE: Negative
INSTRUMENTTYPE: LC-ESI-ITFT
INSTRUMENT: 
COLLISIONENERGY: 75
Comment: registered in MassBank
Num Peaks: 6
65.9986	1000
122.0364	925
139.0388	348
154.06219	963
224.99809	328
268.03989	297

NAME: Foramsulfuron; LC-ESI-ITFT; MS2; CE
PRECURSORMZ: 451.104141
PRECURSORTYPE: [M-H]-
FORMULA: C17H20N6O7S
Ontology: Pyrimidinyl-2-sulfonylureas
INCHIKEY: PXDNXJSDGQBLKS-UHFFFAOYSA-N
SMILES: COC1=CC(OC)=NC(N=C(O)NS(=O)(=O)C2=C(C=CC(=C2)N=CO)C(=O)N(C)C)=N1
RETENTIONTIME: 
CCS: 223.1282987
IONMODE: Negative
INSTRUMENTTYPE: LC-ESI-ITFT
INSTRUMENT: 
COLLISIONENERGY: 90
Comment: registered in MassBank
Num Peaks: 2
65.9986	1000
122.0356	395

NAME: Foramsulfuron; LC-ESI-ITFT; MS2; CE
PRECURSORMZ: 451.104141
PRECURSORTYPE: [M-H]-
FORMULA: C17H20N6O7S
Ontology: Pyrimidinyl-2-sulfonylureas
INCHIKEY: PXDNXJSDGQBLKS-UHFFFAOYSA-N
SMILES: COC1=CC(OC)=NC(N=C(O)NS(=O)(=O)C2=C(C=CC(=C2)N=CO)C(=O)N(C)C)=N1
RETENTIONTIME: 
CCS: 223.1282987
IONMODE: Negative
INSTRUMENTTYPE: LC-ESI-ITFT
INSTRUMENT: 
COLLISIONENERGY: 15
Comment: registered in MassBank
Num Peaks: 5
252.04469	17
268.0401	335
270.05579	70
296.035	1000
451.10431	136

NAME: Foramsulfuron; LC-ESI-ITFT; MS2; CE
PRECURSORMZ: 451.104141
PRECURSORTYPE: [M-H]-
FORMULA: C17H20N6O7S
Ontology: Pyrimidinyl-2-sulfonylureas
INCHIKEY: PXDNXJSDGQBLKS-UHFFFAOYSA-N
SMILES: COC1=CC(OC)=NC(N=C(O)NS(=O)(=O)C2=C(C=CC(=C2)N=CO)C(=O)N(C)C)=N1
RETENTIONTIME: 
CCS: 223.1282987
IONMODE: Negative
INSTRUMENTTYPE: LC-ESI-ITFT
INSTRUMENT: 
COLLISIONENERGY: 30
Comment: registered in MassBank
Num Peaks: 5
154.06239	51
252.0451	46
268.0401	1000
270.0556	84
296.03491	199

NAME: Foramsulfuron; LC-ESI-ITFT; MS2; CE
PRECURSORMZ: 451.104141
PRECURSORTYPE: [M-H]-
FORMULA: C17H20N6O7S
Ontology: Pyrimidinyl-2-sulfonylureas
INCHIKEY: PXDNXJSDGQBLKS-UHFFFAOYSA-N
SMILES: COC1=CC(OC)=NC(N=C(O)NS(=O)(=O)C2=C(C=CC(=C2)N=CO)C(=O)N(C)C)=N1
RETENTIONTIME: 
CCS: 223.1282987
IONMODE: Negative
INSTRUMENTTYPE: LC-ESI-ITFT
INSTRUMENT: 
COLLISIONENERGY: 45
Comment: registered in MassBank
Num Peaks: 6
154.0625	169
205.0621	30
224.998	56
252.045	76
268.0401	1000
270.05551	11

NAME: Foramsulfuron; LC-ESI-ITFT; MS2; CE
PRECURSORMZ: 451.104141
PRECURSORTYPE: [M-H]-
FORMULA: C17H20N6O7S
Ontology: Pyrimidinyl-2-sulfonylureas
INCHIKEY: PXDNXJSDGQBLKS-UHFFFAOYSA-N
SMILES: COC1=CC(OC)=NC(N=C(O)NS(=O)(=O)C2=C(C=CC(=C2)N=CO)C(=O)N(C)C)=N1
RETENTIONTIME: 
CCS: 223.1282987
IONMODE: Negative
INSTRUMENTTYPE: LC-ESI-ITFT
INSTRUMENT: 
COLLISIONENERGY: 60
Comment: registered in MassBank
Num Peaks: 3
154.0625	490
224.9978	201
268.0397	1000

NAME: Foramsulfuron; LC-ESI-ITFT; MS2; CE
PRECURSORMZ: 451.104141
PRECURSORTYPE: [M-H]-
FORMULA: C17H20N6O7S
Ontology: Pyrimidinyl-2-sulfonylureas
INCHIKEY: PXDNXJSDGQBLKS-UHFFFAOYSA-N
SMILES: COC1=CC(OC)=NC(N=C(O)NS(=O)(=O)C2=C(C=CC(=C2)N=CO)C(=O)N(C)C)=N1
RETENTIONTIME: 
CCS: 223.1282987
IONMODE: Negative
INSTRUMENTTYPE: LC-ESI-ITFT
INSTRUMENT: 
COLLISIONENERGY: 90
Comment: registered in MassBank
Num Peaks: 1
65.9986	1000

NAME: Foramsulfuron; LC-ESI-ITFT; MS2; CE
PRECURSORMZ: 451.104141
PRECURSORTYPE: [M-H]-
FORMULA: C17H20N6O7S
Ontology: Pyrimidinyl-2-sulfonylureas
INCHIKEY: PXDNXJSDGQBLKS-UHFFFAOYSA-N
SMILES: COC1=CC(OC)=NC(N=C(O)NS(=O)(=O)C2=C(C=CC(=C2)N=CO)C(=O)N(C)C)=N1
RETENTIONTIME: 
CCS: 223.1282987
IONMODE: Negative
INSTRUMENTTYPE: LC-ESI-ITFT
INSTRUMENT: 
COLLISIONENERGY: 35
Comment: registered in MassBank
Num Peaks: 4
252.0451	9
268.03979	268
270.0553	24
296.03461	1000

NAME: Rosuvastatin; LC-ESI-ITFT; MS2; CE
PRECURSORMZ: 480.161008
PRECURSORTYPE: [M-H]-
FORMULA: C22H28FN3O6S
Ontology: Phenylpyrimidines
INCHIKEY: BPRHUIZQVSMCRT-YXWZHEERSA-N
SMILES: CC(C)C1=C(\C=C\[C@H](O)C[C@@H](O)CC(O)=O)C(=NC(=N1)N(C)S(C)(=O)=O)C1=CC=C(F)C=C1
RETENTIONTIME: 
CCS: 234.2873326
IONMODE: Negative
INSTRUMENTTYPE: LC-ESI-ITFT
INSTRUMENT: 
COLLISIONENERGY: 35
Comment: registered in MassBank
Num Peaks: 14
296.11938	8
298.13611	9
312.15131	36
320.177	10
322.1026	13
323.15631	15
338.1669	33
340.18231	40
376.11279	46
392.1442	95
398.15369	99
402.12869	14
418.16	1000
462.15079	12

NAME: Rosuvastatin; LC-ESI-ITFT; MS2; CE
PRECURSORMZ: 480.161008
PRECURSORTYPE: [M-H]-
FORMULA: C22H28FN3O6S
Ontology: Phenylpyrimidines
INCHIKEY: BPRHUIZQVSMCRT-YXWZHEERSA-N
SMILES: CC(C)C1=C(\C=C\[C@H](O)C[C@@H](O)CC(O)=O)C(=NC(=N1)N(C)S(C)(=O)=O)C1=CC=C(F)C=C1
RETENTIONTIME: 
CCS: 234.2873326
IONMODE: Negative
INSTRUMENTTYPE: LC-ESI-ITFT
INSTRUMENT: 
COLLISIONENERGY: 15
Comment: registered in MassBank
Num Peaks: 5
78.986	33
87.0088	65
392.14401	121
418.16061	788
480.16141	1000

NAME: Rosuvastatin; LC-ESI-ITFT; MS2; CE
PRECURSORMZ: 480.161008
PRECURSORTYPE: [M-H]-
FORMULA: C22H28FN3O6S
Ontology: Phenylpyrimidines
INCHIKEY: BPRHUIZQVSMCRT-YXWZHEERSA-N
SMILES: CC(C)C1=C(\C=C\[C@H](O)C[C@@H](O)CC(O)=O)C(=NC(=N1)N(C)S(C)(=O)=O)C1=CC=C(F)C=C1
RETENTIONTIME: 
CCS: 234.2873326
IONMODE: Negative
INSTRUMENTTYPE: LC-ESI-ITFT
INSTRUMENT: 
COLLISIONENERGY: 30
Comment: registered in MassBank
Num Peaks: 14
63.9624	234
76.9702	115
78.9859	416
85.0293	132
87.0089	176
244.1257	194
296.12219	64
298.13571	747
314.1684	211
320.17709	98
322.10291	69
338.168	199
340.18301	1000
418.15829	132

NAME: Rosuvastatin; LC-ESI-ITFT; MS2; CE
PRECURSORMZ: 480.161008
PRECURSORTYPE: [M-H]-
FORMULA: C22H28FN3O6S
Ontology: Phenylpyrimidines
INCHIKEY: BPRHUIZQVSMCRT-YXWZHEERSA-N
SMILES: CC(C)C1=C(\C=C\[C@H](O)C[C@@H](O)CC(O)=O)C(=NC(=N1)N(C)S(C)(=O)=O)C1=CC=C(F)C=C1
RETENTIONTIME: 
CCS: 234.2873326
IONMODE: Negative
INSTRUMENTTYPE: LC-ESI-ITFT
INSTRUMENT: 
COLLISIONENERGY: 45
Comment: registered in MassBank
Num Peaks: 7
63.9625	250
76.9704	69
78.9858	281
85.0293	129
87.0086	97
244.1259	514
298.13589	1000

NAME: Rosuvastatin; LC-ESI-ITFT; MS2; CE
PRECURSORMZ: 480.161008
PRECURSORTYPE: [M-H]-
FORMULA: C22H28FN3O6S
Ontology: Phenylpyrimidines
INCHIKEY: BPRHUIZQVSMCRT-YXWZHEERSA-N
SMILES: CC(C)C1=C(\C=C\[C@H](O)C[C@@H](O)CC(O)=O)C(=NC(=N1)N(C)S(C)(=O)=O)C1=CC=C(F)C=C1
RETENTIONTIME: 
CCS: 234.2873326
IONMODE: Negative
INSTRUMENTTYPE: LC-ESI-ITFT
INSTRUMENT: 
COLLISIONENERGY: 60
Comment: registered in MassBank
Num Peaks: 7
63.9626	948
76.9703	246
78.9858	707
216.09531	338
244.1252	821
268.12811	290
298.1355	1000

NAME: Rosuvastatin; LC-ESI-ITFT; MS2; CE
PRECURSORMZ: 480.161008
PRECURSORTYPE: [M-H]-
FORMULA: C22H28FN3O6S
Ontology: Phenylpyrimidines
INCHIKEY: BPRHUIZQVSMCRT-YXWZHEERSA-N
SMILES: CC(C)C1=C(\C=C\[C@H](O)C[C@@H](O)CC(O)=O)C(=NC(=N1)N(C)S(C)(=O)=O)C1=CC=C(F)C=C1
RETENTIONTIME: 
CCS: 234.2873326
IONMODE: Negative
INSTRUMENTTYPE: LC-ESI-ITFT
INSTRUMENT: 
COLLISIONENERGY: 75
Comment: registered in MassBank
Num Peaks: 1
63.9625	1000

NAME: Rosuvastatin; LC-ESI-ITFT; MS2; CE
PRECURSORMZ: 480.161008
PRECURSORTYPE: [M-H]-
FORMULA: C22H28FN3O6S
Ontology: Phenylpyrimidines
INCHIKEY: BPRHUIZQVSMCRT-YXWZHEERSA-N
SMILES: CC(C)C1=C(\C=C\[C@H](O)C[C@@H](O)CC(O)=O)C(=NC(=N1)N(C)S(C)(=O)=O)C1=CC=C(F)C=C1
RETENTIONTIME: 
CCS: 234.2873326
IONMODE: Negative
INSTRUMENTTYPE: LC-ESI-ITFT
INSTRUMENT: 
COLLISIONENERGY: 90
Comment: registered in MassBank
Num Peaks: 1
63.9625	1000

NAME: Rosuvastatin; LC-ESI-ITFT; MS2; CE
PRECURSORMZ: 480.161008
PRECURSORTYPE: [M-H]-
FORMULA: C22H28FN3O6S
Ontology: Phenylpyrimidines
INCHIKEY: BPRHUIZQVSMCRT-YXWZHEERSA-N
SMILES: CC(C)C1=C(\C=C\[C@H](O)C[C@@H](O)CC(O)=O)C(=NC(=N1)N(C)S(C)(=O)=O)C1=CC=C(F)C=C1
RETENTIONTIME: 
CCS: 234.2873326
IONMODE: Negative
INSTRUMENTTYPE: LC-ESI-ITFT
INSTRUMENT: 
COLLISIONENERGY: 15
Comment: registered in MassBank
Num Peaks: 6
63.9625	31
78.9861	31
87.009	42
392.14359	147
418.15979	741
480.16101	1000

NAME: Rosuvastatin; LC-ESI-ITFT; MS2; CE
PRECURSORMZ: 480.161008
PRECURSORTYPE: [M-H]-
FORMULA: C22H28FN3O6S
Ontology: Phenylpyrimidines
INCHIKEY: BPRHUIZQVSMCRT-YXWZHEERSA-N
SMILES: CC(C)C1=C(\C=C\[C@H](O)C[C@@H](O)CC(O)=O)C(=NC(=N1)N(C)S(C)(=O)=O)C1=CC=C(F)C=C1
RETENTIONTIME: 
CCS: 234.2873326
IONMODE: Negative
INSTRUMENTTYPE: LC-ESI-ITFT
INSTRUMENT: 
COLLISIONENERGY: 30
Comment: registered in MassBank
Num Peaks: 10
63.9623	244
76.97	120
78.9859	422
87.0086	83
244.1255	278
298.13571	841
314.16721	185
338.16681	274
340.1832	1000
418.16089	112

NAME: Rosuvastatin; LC-ESI-ITFT; MS2; CE
PRECURSORMZ: 480.161008
PRECURSORTYPE: [M-H]-
FORMULA: C22H28FN3O6S
Ontology: Phenylpyrimidines
INCHIKEY: BPRHUIZQVSMCRT-YXWZHEERSA-N
SMILES: CC(C)C1=C(\C=C\[C@H](O)C[C@@H](O)CC(O)=O)C(=NC(=N1)N(C)S(C)(=O)=O)C1=CC=C(F)C=C1
RETENTIONTIME: 
CCS: 234.2873326
IONMODE: Negative
INSTRUMENTTYPE: LC-ESI-ITFT
INSTRUMENT: 
COLLISIONENERGY: 45
Comment: registered in MassBank
Num Peaks: 10
63.9625	206
76.9704	68
78.9859	321
85.0295	78
87.0084	58
216.09489	61
244.12511	405
296.1214	54
298.13599	1000
340.1821	80

NAME: Rosuvastatin; LC-ESI-ITFT; MS2; CE
PRECURSORMZ: 480.161008
PRECURSORTYPE: [M-H]-
FORMULA: C22H28FN3O6S
Ontology: Phenylpyrimidines
INCHIKEY: BPRHUIZQVSMCRT-YXWZHEERSA-N
SMILES: CC(C)C1=C(\C=C\[C@H](O)C[C@@H](O)CC(O)=O)C(=NC(=N1)N(C)S(C)(=O)=O)C1=CC=C(F)C=C1
RETENTIONTIME: 
CCS: 234.2873326
IONMODE: Negative
INSTRUMENTTYPE: LC-ESI-ITFT
INSTRUMENT: 
COLLISIONENERGY: 60
Comment: registered in MassBank
Num Peaks: 6
63.9624	515
76.9702	272
78.9859	585
244.12511	979
268.1272	415
298.13571	1000

NAME: Rosuvastatin; LC-ESI-ITFT; MS2; CE
PRECURSORMZ: 480.161008
PRECURSORTYPE: [M-H]-
FORMULA: C22H28FN3O6S
Ontology: Phenylpyrimidines
INCHIKEY: BPRHUIZQVSMCRT-YXWZHEERSA-N
SMILES: CC(C)C1=C(\C=C\[C@H](O)C[C@@H](O)CC(O)=O)C(=NC(=N1)N(C)S(C)(=O)=O)C1=CC=C(F)C=C1
RETENTIONTIME: 
CCS: 234.2873326
IONMODE: Negative
INSTRUMENTTYPE: LC-ESI-ITFT
INSTRUMENT: 
COLLISIONENERGY: 75
Comment: registered in MassBank
Num Peaks: 3
63.9626	927
78.9858	1000
244.12511	647

NAME: Rosuvastatin; LC-ESI-ITFT; MS2; CE
PRECURSORMZ: 480.161008
PRECURSORTYPE: [M-H]-
FORMULA: C22H28FN3O6S
Ontology: Phenylpyrimidines
INCHIKEY: BPRHUIZQVSMCRT-YXWZHEERSA-N
SMILES: CC(C)C1=C(\C=C\[C@H](O)C[C@@H](O)CC(O)=O)C(=NC(=N1)N(C)S(C)(=O)=O)C1=CC=C(F)C=C1
RETENTIONTIME: 
CCS: 234.2873326
IONMODE: Negative
INSTRUMENTTYPE: LC-ESI-ITFT
INSTRUMENT: 
COLLISIONENERGY: 90
Comment: registered in MassBank
Num Peaks: 2
63.9626	1000
76.9703	527

NAME: Rosuvastatin; LC-ESI-ITFT; MS2; CE
PRECURSORMZ: 480.161008
PRECURSORTYPE: [M-H]-
FORMULA: C22H28FN3O6S
Ontology: Phenylpyrimidines
INCHIKEY: BPRHUIZQVSMCRT-YXWZHEERSA-N
SMILES: CC(C)C1=C(\C=C\[C@H](O)C[C@@H](O)CC(O)=O)C(=NC(=N1)N(C)S(C)(=O)=O)C1=CC=C(F)C=C1
RETENTIONTIME: 
CCS: 234.2873326
IONMODE: Negative
INSTRUMENTTYPE: LC-ESI-ITFT
INSTRUMENT: 
COLLISIONENERGY: 35
Comment: registered in MassBank
Num Peaks: 13
296.11969	6
298.13599	6
312.15149	21
320.17661	5
322.10281	7
338.16721	21
340.18271	27
376.1131	32
392.14441	73
398.15359	86
402.12891	9
418.16	1000
462.15039	6

NAME: Candesartan; LC-ESI-ITFT; MS2; CE
PRECURSORMZ: 439.152412
PRECURSORTYPE: [M-H]-
FORMULA: C24H20N6O3
Ontology: Biphenyls and derivatives
INCHIKEY: HTQMVQVXFRQIKW-UHFFFAOYSA-N
SMILES: CCOC1=NC2=CC=CC(C(O)=O)=C2N1CC1=CC=C(C=C1)C1=CC=CC=C1C1=NNN=N1
RETENTIONTIME: 
CCS: 202.1656868
IONMODE: Negative
INSTRUMENTTYPE: LC-ESI-ITFT
INSTRUMENT: 
COLLISIONENERGY: 35
Comment: registered in MassBank
Num Peaks: 15
132.0331	6
133.0407	10
161.0722	5
176.0226	11
205.0618	10
293.1084	30
309.10321	1000
310.1105	37
311.1196	11
324.11292	7
354.10071	111
367.15601	51
395.16251	24
396.13519	42
411.147	58

NAME: Candesartan; LC-ESI-ITFT; MS2; CE
PRECURSORMZ: 439.152412
PRECURSORTYPE: [M-H]-
FORMULA: C24H20N6O3
Ontology: Biphenyls and derivatives
INCHIKEY: HTQMVQVXFRQIKW-UHFFFAOYSA-N
SMILES: CCOC1=NC2=CC=CC(C(O)=O)=C2N1CC1=CC=C(C=C1)C1=CC=CC=C1C1=NNN=N1
RETENTIONTIME: 
CCS: 202.1656868
IONMODE: Negative
INSTRUMENTTYPE: LC-ESI-ITFT
INSTRUMENT: 
COLLISIONENERGY: 15
Comment: registered in MassBank
Num Peaks: 2
309.10391	47
439.15259	1000

NAME: Candesartan; LC-ESI-ITFT; MS2; CE
PRECURSORMZ: 439.152412
PRECURSORTYPE: [M-H]-
FORMULA: C24H20N6O3
Ontology: Biphenyls and derivatives
INCHIKEY: HTQMVQVXFRQIKW-UHFFFAOYSA-N
SMILES: CCOC1=NC2=CC=CC(C(O)=O)=C2N1CC1=CC=C(C=C1)C1=CC=CC=C1C1=NNN=N1
RETENTIONTIME: 
CCS: 202.1656868
IONMODE: Negative
INSTRUMENTTYPE: LC-ESI-ITFT
INSTRUMENT: 
COLLISIONENERGY: 30
Comment: registered in MassBank
Num Peaks: 16
132.0331	195
133.0408	200
147.02029	55
161.0724	92
176.0226	80
195.08231	27
205.0614	69
293.10831	250
306.10489	87
309.10349	1000
310.1102	106
311.1203	66
324.1138	37
339.14819	27
352.14719	39
367.15579	42

NAME: Candesartan; LC-ESI-ITFT; MS2; CE
PRECURSORMZ: 439.152412
PRECURSORTYPE: [M-H]-
FORMULA: C24H20N6O3
Ontology: Biphenyls and derivatives
INCHIKEY: HTQMVQVXFRQIKW-UHFFFAOYSA-N
SMILES: CCOC1=NC2=CC=CC(C(O)=O)=C2N1CC1=CC=C(C=C1)C1=CC=CC=C1C1=NNN=N1
RETENTIONTIME: 
CCS: 202.1656868
IONMODE: Negative
INSTRUMENTTYPE: LC-ESI-ITFT
INSTRUMENT: 
COLLISIONENERGY: 45
Comment: registered in MassBank
Num Peaks: 11
117.046	91
132.033	802
133.0408	793
147.0199	241
161.07269	261
190.0667	86
205.0616	81
293.10831	449
306.10391	240
309.10361	1000
324.11499	178

NAME: Candesartan; LC-ESI-ITFT; MS2; CE
PRECURSORMZ: 439.152412
PRECURSORTYPE: [M-H]-
FORMULA: C24H20N6O3
Ontology: Biphenyls and derivatives
INCHIKEY: HTQMVQVXFRQIKW-UHFFFAOYSA-N
SMILES: CCOC1=NC2=CC=CC(C(O)=O)=C2N1CC1=CC=C(C=C1)C1=CC=CC=C1C1=NNN=N1
RETENTIONTIME: 
CCS: 202.1656868
IONMODE: Negative
INSTRUMENTTYPE: LC-ESI-ITFT
INSTRUMENT: 
COLLISIONENERGY: 60
Comment: registered in MassBank
Num Peaks: 7
132.0329	1000
133.0406	806
147.01981	121
190.06641	171
292.1011	135
293.10779	83
309.10339	268

NAME: Candesartan; LC-ESI-ITFT; MS2; CE
PRECURSORMZ: 439.152412
PRECURSORTYPE: [M-H]-
FORMULA: C24H20N6O3
Ontology: Biphenyls and derivatives
INCHIKEY: HTQMVQVXFRQIKW-UHFFFAOYSA-N
SMILES: CCOC1=NC2=CC=CC(C(O)=O)=C2N1CC1=CC=C(C=C1)C1=CC=CC=C1C1=NNN=N1
RETENTIONTIME: 
CCS: 202.1656868
IONMODE: Negative
INSTRUMENTTYPE: LC-ESI-ITFT
INSTRUMENT: 
COLLISIONENERGY: 75
Comment: registered in MassBank
Num Peaks: 2
132.0331	1000
133.04089	883

NAME: Candesartan; LC-ESI-ITFT; MS2; CE
PRECURSORMZ: 439.152412
PRECURSORTYPE: [M-H]-
FORMULA: C24H20N6O3
Ontology: Biphenyls and derivatives
INCHIKEY: HTQMVQVXFRQIKW-UHFFFAOYSA-N
SMILES: CCOC1=NC2=CC=CC(C(O)=O)=C2N1CC1=CC=C(C=C1)C1=CC=CC=C1C1=NNN=N1
RETENTIONTIME: 
CCS: 202.1656868
IONMODE: Negative
INSTRUMENTTYPE: LC-ESI-ITFT
INSTRUMENT: 
COLLISIONENERGY: 90
Comment: registered in MassBank
Num Peaks: 2
132.03281	1000
133.0408	751

NAME: Candesartan; LC-ESI-ITFT; MS2; CE
PRECURSORMZ: 439.152412
PRECURSORTYPE: [M-H]-
FORMULA: C24H20N6O3
Ontology: Biphenyls and derivatives
INCHIKEY: HTQMVQVXFRQIKW-UHFFFAOYSA-N
SMILES: CCOC1=NC2=CC=CC(C(O)=O)=C2N1CC1=CC=C(C=C1)C1=CC=CC=C1C1=NNN=N1
RETENTIONTIME: 
CCS: 202.1656868
IONMODE: Negative
INSTRUMENTTYPE: LC-ESI-ITFT
INSTRUMENT: 
COLLISIONENERGY: 15
Comment: registered in MassBank
Num Peaks: 4
309.07291	16
309.103	57
354.1019	24
439.15231	1000

NAME: Candesartan; LC-ESI-ITFT; MS2; CE
PRECURSORMZ: 439.152412
PRECURSORTYPE: [M-H]-
FORMULA: C24H20N6O3
Ontology: Biphenyls and derivatives
INCHIKEY: HTQMVQVXFRQIKW-UHFFFAOYSA-N
SMILES: CCOC1=NC2=CC=CC(C(O)=O)=C2N1CC1=CC=C(C=C1)C1=CC=CC=C1C1=NNN=N1
RETENTIONTIME: 
CCS: 202.1656868
IONMODE: Negative
INSTRUMENTTYPE: LC-ESI-ITFT
INSTRUMENT: 
COLLISIONENERGY: 30
Comment: registered in MassBank
Num Peaks: 11
132.0327	196
133.0406	178
161.07201	90
176.022	45
205.06219	64
293.10791	244
306.1044	61
309.10321	1000
310.11069	131
311.11829	67
324.11279	56

NAME: Candesartan; LC-ESI-ITFT; MS2; CE
PRECURSORMZ: 439.152412
PRECURSORTYPE: [M-H]-
FORMULA: C24H20N6O3
Ontology: Biphenyls and derivatives
INCHIKEY: HTQMVQVXFRQIKW-UHFFFAOYSA-N
SMILES: CCOC1=NC2=CC=CC(C(O)=O)=C2N1CC1=CC=C(C=C1)C1=CC=CC=C1C1=NNN=N1
RETENTIONTIME: 
CCS: 202.1656868
IONMODE: Negative
INSTRUMENTTYPE: LC-ESI-ITFT
INSTRUMENT: 
COLLISIONENERGY: 45
Comment: registered in MassBank
Num Peaks: 14
132.03281	1000
133.0407	975
147.02029	232
161.07179	219
176.0228	102
190.0659	103
195.08231	70
205.06261	136
281.10818	92
292.0997	163
293.10809	547
306.10269	162
309.10291	916
324.11511	134

NAME: Candesartan; LC-ESI-ITFT; MS2; CE
PRECURSORMZ: 439.152412
PRECURSORTYPE: [M-H]-
FORMULA: C24H20N6O3
Ontology: Biphenyls and derivatives
INCHIKEY: HTQMVQVXFRQIKW-UHFFFAOYSA-N
SMILES: CCOC1=NC2=CC=CC(C(O)=O)=C2N1CC1=CC=C(C=C1)C1=CC=CC=C1C1=NNN=N1
RETENTIONTIME: 
CCS: 202.1656868
IONMODE: Negative
INSTRUMENTTYPE: LC-ESI-ITFT
INSTRUMENT: 
COLLISIONENERGY: 60
Comment: registered in MassBank
Num Peaks: 10
117.0454	70
132.0329	1000
133.0406	745
147.0201	226
161.07249	51
190.0663	145
281.10861	88
292.10059	138
293.108	74
309.1033	270

NAME: Candesartan; LC-ESI-ITFT; MS2; CE
PRECURSORMZ: 439.152412
PRECURSORTYPE: [M-H]-
FORMULA: C24H20N6O3
Ontology: Biphenyls and derivatives
INCHIKEY: HTQMVQVXFRQIKW-UHFFFAOYSA-N
SMILES: CCOC1=NC2=CC=CC(C(O)=O)=C2N1CC1=CC=C(C=C1)C1=CC=CC=C1C1=NNN=N1
RETENTIONTIME: 
CCS: 202.1656868
IONMODE: Negative
INSTRUMENTTYPE: LC-ESI-ITFT
INSTRUMENT: 
COLLISIONENERGY: 75
Comment: registered in MassBank
Num Peaks: 6
132.03281	1000
133.0408	940
147.01961	106
190.06619	92
281.10889	111
309.07501	81

NAME: Candesartan; LC-ESI-ITFT; MS2; CE
PRECURSORMZ: 439.152412
PRECURSORTYPE: [M-H]-
FORMULA: C24H20N6O3
Ontology: Biphenyls and derivatives
INCHIKEY: HTQMVQVXFRQIKW-UHFFFAOYSA-N
SMILES: CCOC1=NC2=CC=CC(C(O)=O)=C2N1CC1=CC=C(C=C1)C1=CC=CC=C1C1=NNN=N1
RETENTIONTIME: 
CCS: 202.1656868
IONMODE: Negative
INSTRUMENTTYPE: LC-ESI-ITFT
INSTRUMENT: 
COLLISIONENERGY: 90
Comment: registered in MassBank
Num Peaks: 4
132.03281	892
133.0407	1000
147.01981	140
190.06599	278

NAME: Candesartan; LC-ESI-ITFT; MS2; CE
PRECURSORMZ: 439.152412
PRECURSORTYPE: [M-H]-
FORMULA: C24H20N6O3
Ontology: Biphenyls and derivatives
INCHIKEY: HTQMVQVXFRQIKW-UHFFFAOYSA-N
SMILES: CCOC1=NC2=CC=CC(C(O)=O)=C2N1CC1=CC=C(C=C1)C1=CC=CC=C1C1=NNN=N1
RETENTIONTIME: 
CCS: 202.1656868
IONMODE: Negative
INSTRUMENTTYPE: LC-ESI-ITFT
INSTRUMENT: 
COLLISIONENERGY: 35
Comment: registered in MassBank
Num Peaks: 12
133.0407	7
176.0226	8
205.0621	6
293.10818	20
309.10309	1000
310.1105	27
311.11801	7
354.10059	98
367.15601	39
395.16229	16
396.1351	30
411.1459	43

NAME: Telmisartan; LC-ESI-ITFT; MS2; CE
PRECURSORMZ: 513.2296
PRECURSORTYPE: [M-H]-
FORMULA: C33H30N4O2
Ontology: Biphenyls and derivatives
INCHIKEY: RMMXLENWKUUMAY-UHFFFAOYSA-N
SMILES: CCCC1=NC2=C(C=C(C=C2C)C2=NC3=CC=CC=C3N2C)N1CC1=CC=C(C=C1)C1=CC=CC=C1C(O)=O
RETENTIONTIME: 
CCS: 211.2997097
IONMODE: Negative
INSTRUMENTTYPE: LC-ESI-ITFT
INSTRUMENT: 
COLLISIONENERGY: 35
Comment: registered in MassBank
Num Peaks: 5
287.12949	46
302.15302	84
303.16171	7
426.18359	18
469.23889	1000

NAME: Telmisartan; LC-ESI-ITFT; MS2; CE
PRECURSORMZ: 513.2296
PRECURSORTYPE: [M-H]-
FORMULA: C33H30N4O2
Ontology: Biphenyls and derivatives
INCHIKEY: RMMXLENWKUUMAY-UHFFFAOYSA-N
SMILES: CCCC1=NC2=C(C=C(C=C2C)C2=NC3=CC=CC=C3N2C)N1CC1=CC=C(C=C1)C1=CC=CC=C1C(O)=O
RETENTIONTIME: 
CCS: 211.2997097
IONMODE: Negative
INSTRUMENTTYPE: LC-ESI-ITFT
INSTRUMENT: 
COLLISIONENERGY: 30
Comment: registered in MassBank
Num Peaks: 4
270.01181	178
287.1304	1000
302.1539	525
469.2392	698

NAME: Telmisartan; LC-ESI-ITFT; MS2; CE
PRECURSORMZ: 513.2296
PRECURSORTYPE: [M-H]-
FORMULA: C33H30N4O2
Ontology: Biphenyls and derivatives
INCHIKEY: RMMXLENWKUUMAY-UHFFFAOYSA-N
SMILES: CCCC1=NC2=C(C=C(C=C2C)C2=NC3=CC=CC=C3N2C)N1CC1=CC=C(C=C1)C1=CC=CC=C1C(O)=O
RETENTIONTIME: 
CCS: 211.2997097
IONMODE: Negative
INSTRUMENTTYPE: LC-ESI-ITFT
INSTRUMENT: 
COLLISIONENERGY: 45
Comment: registered in MassBank
Num Peaks: 2
287.13031	1000
303.1615	417

NAME: Telmisartan; LC-ESI-ITFT; MS2; CE
PRECURSORMZ: 513.2296
PRECURSORTYPE: [M-H]-
FORMULA: C33H30N4O2
Ontology: Biphenyls and derivatives
INCHIKEY: RMMXLENWKUUMAY-UHFFFAOYSA-N
SMILES: CCCC1=NC2=C(C=C(C=C2C)C2=NC3=CC=CC=C3N2C)N1CC1=CC=C(C=C1)C1=CC=CC=C1C(O)=O
RETENTIONTIME: 
CCS: 211.2997097
IONMODE: Negative
INSTRUMENTTYPE: LC-ESI-ITFT
INSTRUMENT: 
COLLISIONENERGY: 60
Comment: registered in MassBank
Num Peaks: 2
287.13049	1000
303.1618	397

NAME: Telmisartan; LC-ESI-ITFT; MS2; CE
PRECURSORMZ: 513.2296
PRECURSORTYPE: [M-H]-
FORMULA: C33H30N4O2
Ontology: Biphenyls and derivatives
INCHIKEY: RMMXLENWKUUMAY-UHFFFAOYSA-N
SMILES: CCCC1=NC2=C(C=C(C=C2C)C2=NC3=CC=CC=C3N2C)N1CC1=CC=C(C=C1)C1=CC=CC=C1C(O)=O
RETENTIONTIME: 
CCS: 211.2997097
IONMODE: Negative
INSTRUMENTTYPE: LC-ESI-ITFT
INSTRUMENT: 
COLLISIONENERGY: 75
Comment: registered in MassBank
Num Peaks: 2
272.10641	851
287.12991	1000

NAME: Telmisartan; LC-ESI-ITFT; MS2; CE
PRECURSORMZ: 513.2296
PRECURSORTYPE: [M-H]-
FORMULA: C33H30N4O2
Ontology: Biphenyls and derivatives
INCHIKEY: RMMXLENWKUUMAY-UHFFFAOYSA-N
SMILES: CCCC1=NC2=C(C=C(C=C2C)C2=NC3=CC=CC=C3N2C)N1CC1=CC=C(C=C1)C1=CC=CC=C1C(O)=O
RETENTIONTIME: 
CCS: 211.2997097
IONMODE: Negative
INSTRUMENTTYPE: LC-ESI-ITFT
INSTRUMENT: 
COLLISIONENERGY: 30
Comment: registered in MassBank
Num Peaks: 3
270.01181	786
287.12979	1000
469.24149	797

NAME: Telmisartan; LC-ESI-ITFT; MS2; CE
PRECURSORMZ: 513.2296
PRECURSORTYPE: [M-H]-
FORMULA: C33H30N4O2
Ontology: Biphenyls and derivatives
INCHIKEY: RMMXLENWKUUMAY-UHFFFAOYSA-N
SMILES: CCCC1=NC2=C(C=C(C=C2C)C2=NC3=CC=CC=C3N2C)N1CC1=CC=C(C=C1)C1=CC=CC=C1C(O)=O
RETENTIONTIME: 
CCS: 211.2997097
IONMODE: Negative
INSTRUMENTTYPE: LC-ESI-ITFT
INSTRUMENT: 
COLLISIONENERGY: 45
Comment: registered in MassBank
Num Peaks: 2
287.12991	1000
303.16061	467

NAME: Telmisartan; LC-ESI-ITFT; MS2; CE
PRECURSORMZ: 513.2296
PRECURSORTYPE: [M-H]-
FORMULA: C33H30N4O2
Ontology: Biphenyls and derivatives
INCHIKEY: RMMXLENWKUUMAY-UHFFFAOYSA-N
SMILES: CCCC1=NC2=C(C=C(C=C2C)C2=NC3=CC=CC=C3N2C)N1CC1=CC=C(C=C1)C1=CC=CC=C1C(O)=O
RETENTIONTIME: 
CCS: 211.2997097
IONMODE: Negative
INSTRUMENTTYPE: LC-ESI-ITFT
INSTRUMENT: 
COLLISIONENERGY: 60
Comment: registered in MassBank
Num Peaks: 2
287.13031	1000
303.16141	604

NAME: Telmisartan; LC-ESI-ITFT; MS2; CE
PRECURSORMZ: 513.2296
PRECURSORTYPE: [M-H]-
FORMULA: C33H30N4O2
Ontology: Biphenyls and derivatives
INCHIKEY: RMMXLENWKUUMAY-UHFFFAOYSA-N
SMILES: CCCC1=NC2=C(C=C(C=C2C)C2=NC3=CC=CC=C3N2C)N1CC1=CC=C(C=C1)C1=CC=CC=C1C(O)=O
RETENTIONTIME: 
CCS: 211.2997097
IONMODE: Negative
INSTRUMENTTYPE: LC-ESI-ITFT
INSTRUMENT: 
COLLISIONENERGY: 75
Comment: registered in MassBank
Num Peaks: 1
287.12891	1000

NAME: Telmisartan; LC-ESI-ITFT; MS2; CE
PRECURSORMZ: 513.2296
PRECURSORTYPE: [M-H]-
FORMULA: C33H30N4O2
Ontology: Biphenyls and derivatives
INCHIKEY: RMMXLENWKUUMAY-UHFFFAOYSA-N
SMILES: CCCC1=NC2=C(C=C(C=C2C)C2=NC3=CC=CC=C3N2C)N1CC1=CC=C(C=C1)C1=CC=CC=C1C(O)=O
RETENTIONTIME: 
CCS: 211.2997097
IONMODE: Negative
INSTRUMENTTYPE: LC-ESI-ITFT
INSTRUMENT: 
COLLISIONENERGY: 90
Comment: registered in MassBank
Num Peaks: 1
272.10699	1000

NAME: Telmisartan; LC-ESI-ITFT; MS2; CE
PRECURSORMZ: 513.2296
PRECURSORTYPE: [M-H]-
FORMULA: C33H30N4O2
Ontology: Biphenyls and derivatives
INCHIKEY: RMMXLENWKUUMAY-UHFFFAOYSA-N
SMILES: CCCC1=NC2=C(C=C(C=C2C)C2=NC3=CC=CC=C3N2C)N1CC1=CC=C(C=C1)C1=CC=CC=C1C(O)=O
RETENTIONTIME: 
CCS: 211.2997097
IONMODE: Negative
INSTRUMENTTYPE: LC-ESI-ITFT
INSTRUMENT: 
COLLISIONENERGY: 35
Comment: registered in MassBank
Num Peaks: 5
287.12991	37
302.15341	73
303.16019	11
426.18451	17
469.2388	1000

NAME: Mycophenolic acid; LC-ESI-ITFT; MS2; CE
PRECURSORMZ: 319.118712
PRECURSORTYPE: [M-H]-
FORMULA: C17H20O6
Ontology: Phthalides
INCHIKEY: HPNSFSBZBAHARI-RUDMXATFSA-N
SMILES: COC1=C(C)C2=C(C(=O)OC2)C(O)=C1C\C=C(/C)CCC(O)=O
RETENTIONTIME: 
CCS: 178.9013452
IONMODE: Negative
INSTRUMENTTYPE: LC-ESI-ITFT
INSTRUMENT: 
COLLISIONENERGY: 35
Comment: registered in MassBank
Num Peaks: 16
135.04539	8
179.0349	472
191.0349	388
192.0425	20
199.11301	12
207.0659	7
233.0815	12
243.06731	12
243.1026	95
245.0818	12
259.09851	5
269.08191	62
275.12869	395
285.07751	18
287.09229	1000
301.10901	12

NAME: Mycophenolic acid; LC-ESI-ITFT; MS2; CE
PRECURSORMZ: 319.118712
PRECURSORTYPE: [M-H]-
FORMULA: C17H20O6
Ontology: Phthalides
INCHIKEY: HPNSFSBZBAHARI-RUDMXATFSA-N
SMILES: COC1=C(C)C2=C(C(=O)OC2)C(O)=C1C\C=C(/C)CCC(O)=O
RETENTIONTIME: 
CCS: 178.9013452
IONMODE: Negative
INSTRUMENTTYPE: LC-ESI-ITFT
INSTRUMENT: 
COLLISIONENERGY: 15
Comment: registered in MassBank
Num Peaks: 2
275.12869	16
319.11859	1000

NAME: Mycophenolic acid; LC-ESI-ITFT; MS2; CE
PRECURSORMZ: 319.118712
PRECURSORTYPE: [M-H]-
FORMULA: C17H20O6
Ontology: Phthalides
INCHIKEY: HPNSFSBZBAHARI-RUDMXATFSA-N
SMILES: COC1=C(C)C2=C(C(=O)OC2)C(O)=C1C\C=C(/C)CCC(O)=O
RETENTIONTIME: 
CCS: 178.9013452
IONMODE: Negative
INSTRUMENTTYPE: LC-ESI-ITFT
INSTRUMENT: 
COLLISIONENERGY: 30
Comment: registered in MassBank
Num Peaks: 8
179.0347	38
191.0349	89
192.0424	22
207.0661	52
243.1024	47
275.12891	294
287.09241	105
319.11871	1000

NAME: Mycophenolic acid; LC-ESI-ITFT; MS2; CE
PRECURSORMZ: 319.118712
PRECURSORTYPE: [M-H]-
FORMULA: C17H20O6
Ontology: Phthalides
INCHIKEY: HPNSFSBZBAHARI-RUDMXATFSA-N
SMILES: COC1=C(C)C2=C(C(=O)OC2)C(O)=C1C\C=C(/C)CCC(O)=O
RETENTIONTIME: 
CCS: 178.9013452
IONMODE: Negative
INSTRUMENTTYPE: LC-ESI-ITFT
INSTRUMENT: 
COLLISIONENERGY: 45
Comment: registered in MassBank
Num Peaks: 13
135.0446	40
179.03481	260
191.035	1000
192.0426	324
199.1132	62
203.0341	74
205.0506	472
207.0657	150
215.108	94
245.0817	175
275.1286	224
287.09219	126
319.11911	417

NAME: Mycophenolic acid; LC-ESI-ITFT; MS2; CE
PRECURSORMZ: 319.118712
PRECURSORTYPE: [M-H]-
FORMULA: C17H20O6
Ontology: Phthalides
INCHIKEY: HPNSFSBZBAHARI-RUDMXATFSA-N
SMILES: COC1=C(C)C2=C(C(=O)OC2)C(O)=C1C\C=C(/C)CCC(O)=O
RETENTIONTIME: 
CCS: 178.9013452
IONMODE: Negative
INSTRUMENTTYPE: LC-ESI-ITFT
INSTRUMENT: 
COLLISIONENERGY: 60
Comment: registered in MassBank
Num Peaks: 9
173.0607	214
179.03551	57
187.07581	135
191.03481	1000
192.0428	174
203.0349	247
205.0509	560
245.0825	176
319.11771	50

NAME: Mycophenolic acid; LC-ESI-ITFT; MS2; CE
PRECURSORMZ: 319.118712
PRECURSORTYPE: [M-H]-
FORMULA: C17H20O6
Ontology: Phthalides
INCHIKEY: HPNSFSBZBAHARI-RUDMXATFSA-N
SMILES: COC1=C(C)C2=C(C(=O)OC2)C(O)=C1C\C=C(/C)CCC(O)=O
RETENTIONTIME: 
CCS: 178.9013452
IONMODE: Negative
INSTRUMENTTYPE: LC-ESI-ITFT
INSTRUMENT: 
COLLISIONENERGY: 75
Comment: registered in MassBank
Num Peaks: 8
133.0659	148
161.0609	201
173.0607	419
187.0762	285
191.0352	1000
203.0354	377
205.0508	257
245.0826	127

NAME: Mycophenolic acid; LC-ESI-ITFT; MS2; CE
PRECURSORMZ: 319.118712
PRECURSORTYPE: [M-H]-
FORMULA: C17H20O6
Ontology: Phthalides
INCHIKEY: HPNSFSBZBAHARI-RUDMXATFSA-N
SMILES: COC1=C(C)C2=C(C(=O)OC2)C(O)=C1C\C=C(/C)CCC(O)=O
RETENTIONTIME: 
CCS: 178.9013452
IONMODE: Negative
INSTRUMENTTYPE: LC-ESI-ITFT
INSTRUMENT: 
COLLISIONENERGY: 90
Comment: registered in MassBank
Num Peaks: 8
119.05	267
158.0374	358
161.06039	556
163.0394	328
173.06059	1000
187.0761	366
191.0354	906
203.03551	478

NAME: Mycophenolic acid; LC-ESI-ITFT; MS2; CE
PRECURSORMZ: 319.118712
PRECURSORTYPE: [M-H]-
FORMULA: C17H20O6
Ontology: Phthalides
INCHIKEY: HPNSFSBZBAHARI-RUDMXATFSA-N
SMILES: COC1=C(C)C2=C(C(=O)OC2)C(O)=C1C\C=C(/C)CCC(O)=O
RETENTIONTIME: 
CCS: 178.9013452
IONMODE: Negative
INSTRUMENTTYPE: LC-ESI-ITFT
INSTRUMENT: 
COLLISIONENERGY: 15
Comment: registered in MassBank
Num Peaks: 2
275.1286	13
319.11859	1000

NAME: Mycophenolic acid; LC-ESI-ITFT; MS2; CE
PRECURSORMZ: 319.118712
PRECURSORTYPE: [M-H]-
FORMULA: C17H20O6
Ontology: Phthalides
INCHIKEY: HPNSFSBZBAHARI-RUDMXATFSA-N
SMILES: COC1=C(C)C2=C(C(=O)OC2)C(O)=C1C\C=C(/C)CCC(O)=O
RETENTIONTIME: 
CCS: 178.9013452
IONMODE: Negative
INSTRUMENTTYPE: LC-ESI-ITFT
INSTRUMENT: 
COLLISIONENERGY: 30
Comment: registered in MassBank
Num Peaks: 10
179.035	40
191.03461	74
192.0434	20
199.11301	9
207.06619	56
243.1019	43
245.08141	12
275.1286	315
287.0918	108
319.11829	1000

NAME: Mycophenolic acid; LC-ESI-ITFT; MS2; CE
PRECURSORMZ: 319.118712
PRECURSORTYPE: [M-H]-
FORMULA: C17H20O6
Ontology: Phthalides
INCHIKEY: HPNSFSBZBAHARI-RUDMXATFSA-N
SMILES: COC1=C(C)C2=C(C(=O)OC2)C(O)=C1C\C=C(/C)CCC(O)=O
RETENTIONTIME: 
CCS: 178.9013452
IONMODE: Negative
INSTRUMENTTYPE: LC-ESI-ITFT
INSTRUMENT: 
COLLISIONENERGY: 45
Comment: registered in MassBank
Num Peaks: 16
135.04449	31
173.06081	32
179.035	214
191.03481	1000
192.04269	368
199.1122	87
203.03481	82
205.0506	368
207.06599	166
215.10741	81
233.0813	71
243.10229	70
245.0815	194
275.1286	254
287.09219	198
319.1188	329

NAME: Mycophenolic acid; LC-ESI-ITFT; MS2; CE
PRECURSORMZ: 319.118712
PRECURSORTYPE: [M-H]-
FORMULA: C17H20O6
Ontology: Phthalides
INCHIKEY: HPNSFSBZBAHARI-RUDMXATFSA-N
SMILES: COC1=C(C)C2=C(C(=O)OC2)C(O)=C1C\C=C(/C)CCC(O)=O
RETENTIONTIME: 
CCS: 178.9013452
IONMODE: Negative
INSTRUMENTTYPE: LC-ESI-ITFT
INSTRUMENT: 
COLLISIONENERGY: 60
Comment: registered in MassBank
Num Peaks: 11
161.0609	111
173.061	150
179.03439	56
187.0764	130
191.0349	1000
192.0426	153
201.09219	52
203.035	220
205.05051	471
245.08211	225
319.1188	42

NAME: Mycophenolic acid; LC-ESI-ITFT; MS2; CE
PRECURSORMZ: 319.118712
PRECURSORTYPE: [M-H]-
FORMULA: C17H20O6
Ontology: Phthalides
INCHIKEY: HPNSFSBZBAHARI-RUDMXATFSA-N
SMILES: COC1=C(C)C2=C(C(=O)OC2)C(O)=C1C\C=C(/C)CCC(O)=O
RETENTIONTIME: 
CCS: 178.9013452
IONMODE: Negative
INSTRUMENTTYPE: LC-ESI-ITFT
INSTRUMENT: 
COLLISIONENERGY: 75
Comment: registered in MassBank
Num Peaks: 10
119.05	130
133.06531	165
161.06039	238
173.0605	461
187.07629	231
191.0347	1000
191.09579	101
201.0918	166
203.035	472
205.05009	389

NAME: Mycophenolic acid; LC-ESI-ITFT; MS2; CE
PRECURSORMZ: 319.118712
PRECURSORTYPE: [M-H]-
FORMULA: C17H20O6
Ontology: Phthalides
INCHIKEY: HPNSFSBZBAHARI-RUDMXATFSA-N
SMILES: COC1=C(C)C2=C(C(=O)OC2)C(O)=C1C\C=C(/C)CCC(O)=O
RETENTIONTIME: 
CCS: 178.9013452
IONMODE: Negative
INSTRUMENTTYPE: LC-ESI-ITFT
INSTRUMENT: 
COLLISIONENERGY: 90
Comment: registered in MassBank
Num Peaks: 4
158.0368	498
163.03999	209
173.0605	595
191.0349	1000

NAME: Mycophenolic acid; LC-ESI-ITFT; MS2; CE
PRECURSORMZ: 319.118712
PRECURSORTYPE: [M-H]-
FORMULA: C17H20O6
Ontology: Phthalides
INCHIKEY: HPNSFSBZBAHARI-RUDMXATFSA-N
SMILES: COC1=C(C)C2=C(C(=O)OC2)C(O)=C1C\C=C(/C)CCC(O)=O
RETENTIONTIME: 
CCS: 178.9013452
IONMODE: Negative
INSTRUMENTTYPE: LC-ESI-ITFT
INSTRUMENT: 
COLLISIONENERGY: 35
Comment: registered in MassBank
Num Peaks: 13
179.0349	468
191.0349	373
192.0426	8
199.1127	10
233.0813	7
243.0666	7
243.10249	67
245.082	6
269.0817	43
275.12869	398
285.077	9
287.09241	1000
301.108	6

NAME: Bicalutamide; LC-ESI-ITFT; MS2; CE
PRECURSORMZ: 429.053764
PRECURSORTYPE: [M-H]-
FORMULA: C18H14F4N2O4S
Ontology: Trifluoromethylbenzenes
INCHIKEY: LKJPYSCBVHEWIU-KRWDZBQOSA-N
SMILES: C[C@](O)(CS(=O)(=O)C1=CC=C(F)C=C1)C(O)=NC1=CC(=C(C=C1)C#N)C(F)(F)F
RETENTIONTIME: 
CCS: 186.4301625
IONMODE: Negative
INSTRUMENTTYPE: LC-ESI-ITFT
INSTRUMENT: 
COLLISIONENERGY: 35
Comment: registered in MassBank
Num Peaks: 5
184.0379	46
185.03281	32
243.01311	25
255.0387	1000
411.04309	14

NAME: Bicalutamide; LC-ESI-ITFT; MS2; CE
PRECURSORMZ: 429.053764
PRECURSORTYPE: [M-H]-
FORMULA: C18H14F4N2O4S
Ontology: Trifluoromethylbenzenes
INCHIKEY: LKJPYSCBVHEWIU-KRWDZBQOSA-N
SMILES: C[C@](O)(CS(=O)(=O)C1=CC=C(F)C=C1)C(O)=NC1=CC(=C(C=C1)C#N)C(F)(F)F
RETENTIONTIME: 
CCS: 186.4301625
IONMODE: Negative
INSTRUMENTTYPE: LC-ESI-ITFT
INSTRUMENT: 
COLLISIONENERGY: 15
Comment: registered in MassBank
Num Peaks: 4
184.03931	17
243.0135	15
255.0388	1000
429.0545	188

NAME: Bicalutamide; LC-ESI-ITFT; MS2; CE
PRECURSORMZ: 429.053764
PRECURSORTYPE: [M-H]-
FORMULA: C18H14F4N2O4S
Ontology: Trifluoromethylbenzenes
INCHIKEY: LKJPYSCBVHEWIU-KRWDZBQOSA-N
SMILES: C[C@](O)(CS(=O)(=O)C1=CC=C(F)C=C1)C(O)=NC1=CC(=C(C=C1)C#N)C(F)(F)F
RETENTIONTIME: 
CCS: 186.4301625
IONMODE: Negative
INSTRUMENTTYPE: LC-ESI-ITFT
INSTRUMENT: 
COLLISIONENERGY: 30
Comment: registered in MassBank
Num Peaks: 6
173.0081	76
184.03799	71
185.0329	63
243.0141	14
255.039	1000
411.04211	12

NAME: Bicalutamide; LC-ESI-ITFT; MS2; CE
PRECURSORMZ: 429.053764
PRECURSORTYPE: [M-H]-
FORMULA: C18H14F4N2O4S
Ontology: Trifluoromethylbenzenes
INCHIKEY: LKJPYSCBVHEWIU-KRWDZBQOSA-N
SMILES: C[C@](O)(CS(=O)(=O)C1=CC=C(F)C=C1)C(O)=NC1=CC(=C(C=C1)C#N)C(F)(F)F
RETENTIONTIME: 
CCS: 186.4301625
IONMODE: Negative
INSTRUMENTTYPE: LC-ESI-ITFT
INSTRUMENT: 
COLLISIONENERGY: 45
Comment: registered in MassBank
Num Peaks: 7
63.9626	29
78.986	15
158.9921	70
173.0078	131
184.0381	283
185.0332	1000
255.0386	401

NAME: Bicalutamide; LC-ESI-ITFT; MS2; CE
PRECURSORMZ: 429.053764
PRECURSORTYPE: [M-H]-
FORMULA: C18H14F4N2O4S
Ontology: Trifluoromethylbenzenes
INCHIKEY: LKJPYSCBVHEWIU-KRWDZBQOSA-N
SMILES: C[C@](O)(CS(=O)(=O)C1=CC=C(F)C=C1)C(O)=NC1=CC(=C(C=C1)C#N)C(F)(F)F
RETENTIONTIME: 
CCS: 186.4301625
IONMODE: Negative
INSTRUMENTTYPE: LC-ESI-ITFT
INSTRUMENT: 
COLLISIONENERGY: 60
Comment: registered in MassBank
Num Peaks: 7
63.9624	29
78.986	14
158.9919	21
173.0076	21
184.0376	94
185.03329	1000
227.0444	11

NAME: Bicalutamide; LC-ESI-ITFT; MS2; CE
PRECURSORMZ: 429.053764
PRECURSORTYPE: [M-H]-
FORMULA: C18H14F4N2O4S
Ontology: Trifluoromethylbenzenes
INCHIKEY: LKJPYSCBVHEWIU-KRWDZBQOSA-N
SMILES: C[C@](O)(CS(=O)(=O)C1=CC=C(F)C=C1)C(O)=NC1=CC(=C(C=C1)C#N)C(F)(F)F
RETENTIONTIME: 
CCS: 186.4301625
IONMODE: Negative
INSTRUMENTTYPE: LC-ESI-ITFT
INSTRUMENT: 
COLLISIONENERGY: 75
Comment: registered in MassBank
Num Peaks: 6
63.9624	25
78.9859	39
95.0302	21
158.992	11
184.03799	27
185.0332	1000

NAME: Bicalutamide; LC-ESI-ITFT; MS2; CE
PRECURSORMZ: 429.053764
PRECURSORTYPE: [M-H]-
FORMULA: C18H14F4N2O4S
Ontology: Trifluoromethylbenzenes
INCHIKEY: LKJPYSCBVHEWIU-KRWDZBQOSA-N
SMILES: C[C@](O)(CS(=O)(=O)C1=CC=C(F)C=C1)C(O)=NC1=CC(=C(C=C1)C#N)C(F)(F)F
RETENTIONTIME: 
CCS: 186.4301625
IONMODE: Negative
INSTRUMENTTYPE: LC-ESI-ITFT
INSTRUMENT: 
COLLISIONENERGY: 90
Comment: registered in MassBank
Num Peaks: 7
63.9624	57
78.986	68
95.0307	21
145.02071	30
158.02209	57
184.03951	15
185.0331	1000

NAME: Bicalutamide; LC-ESI-ITFT; MS2; CE
PRECURSORMZ: 429.053764
PRECURSORTYPE: [M-H]-
FORMULA: C18H14F4N2O4S
Ontology: Trifluoromethylbenzenes
INCHIKEY: LKJPYSCBVHEWIU-KRWDZBQOSA-N
SMILES: C[C@](O)(CS(=O)(=O)C1=CC=C(F)C=C1)C(O)=NC1=CC(=C(C=C1)C#N)C(F)(F)F
RETENTIONTIME: 
CCS: 186.4301625
IONMODE: Negative
INSTRUMENTTYPE: LC-ESI-ITFT
INSTRUMENT: 
COLLISIONENERGY: 15
Comment: registered in MassBank
Num Peaks: 5
184.0374	17
243.01331	21
255.0387	1000
411.04321	12
429.05411	158

NAME: Bicalutamide; LC-ESI-ITFT; MS2; CE
PRECURSORMZ: 429.053764
PRECURSORTYPE: [M-H]-
FORMULA: C18H14F4N2O4S
Ontology: Trifluoromethylbenzenes
INCHIKEY: LKJPYSCBVHEWIU-KRWDZBQOSA-N
SMILES: C[C@](O)(CS(=O)(=O)C1=CC=C(F)C=C1)C(O)=NC1=CC(=C(C=C1)C#N)C(F)(F)F
RETENTIONTIME: 
CCS: 186.4301625
IONMODE: Negative
INSTRUMENTTYPE: LC-ESI-ITFT
INSTRUMENT: 
COLLISIONENERGY: 30
Comment: registered in MassBank
Num Peaks: 7
158.992	19
173.0076	78
184.0381	47
185.033	58
243.0139	11
255.0386	1000
411.04279	8

NAME: Bicalutamide; LC-ESI-ITFT; MS2; CE
PRECURSORMZ: 429.053764
PRECURSORTYPE: [M-H]-
FORMULA: C18H14F4N2O4S
Ontology: Trifluoromethylbenzenes
INCHIKEY: LKJPYSCBVHEWIU-KRWDZBQOSA-N
SMILES: C[C@](O)(CS(=O)(=O)C1=CC=C(F)C=C1)C(O)=NC1=CC(=C(C=C1)C#N)C(F)(F)F
RETENTIONTIME: 
CCS: 186.4301625
IONMODE: Negative
INSTRUMENTTYPE: LC-ESI-ITFT
INSTRUMENT: 
COLLISIONENERGY: 45
Comment: registered in MassBank
Num Peaks: 7
63.9626	16
158.9919	50
173.0076	97
184.03799	216
185.0332	1000
227.0439	11
255.0386	327

NAME: Bicalutamide; LC-ESI-ITFT; MS2; CE
PRECURSORMZ: 429.053764
PRECURSORTYPE: [M-H]-
FORMULA: C18H14F4N2O4S
Ontology: Trifluoromethylbenzenes
INCHIKEY: LKJPYSCBVHEWIU-KRWDZBQOSA-N
SMILES: C[C@](O)(CS(=O)(=O)C1=CC=C(F)C=C1)C(O)=NC1=CC(=C(C=C1)C#N)C(F)(F)F
RETENTIONTIME: 
CCS: 186.4301625
IONMODE: Negative
INSTRUMENTTYPE: LC-ESI-ITFT
INSTRUMENT: 
COLLISIONENERGY: 60
Comment: registered in MassBank
Num Peaks: 7
63.9624	16
78.9858	16
95.0302	14
158.99249	11
173.0076	30
184.03799	73
185.03329	1000

NAME: Bicalutamide; LC-ESI-ITFT; MS2; CE
PRECURSORMZ: 429.053764
PRECURSORTYPE: [M-H]-
FORMULA: C18H14F4N2O4S
Ontology: Trifluoromethylbenzenes
INCHIKEY: LKJPYSCBVHEWIU-KRWDZBQOSA-N
SMILES: C[C@](O)(CS(=O)(=O)C1=CC=C(F)C=C1)C(O)=NC1=CC(=C(C=C1)C#N)C(F)(F)F
RETENTIONTIME: 
CCS: 186.4301625
IONMODE: Negative
INSTRUMENTTYPE: LC-ESI-ITFT
INSTRUMENT: 
COLLISIONENERGY: 75
Comment: registered in MassBank
Num Peaks: 5
63.9625	26
78.9858	32
95.0302	19
184.0377	30
185.03329	1000

NAME: Bicalutamide; LC-ESI-ITFT; MS2; CE
PRECURSORMZ: 429.053764
PRECURSORTYPE: [M-H]-
FORMULA: C18H14F4N2O4S
Ontology: Trifluoromethylbenzenes
INCHIKEY: LKJPYSCBVHEWIU-KRWDZBQOSA-N
SMILES: C[C@](O)(CS(=O)(=O)C1=CC=C(F)C=C1)C(O)=NC1=CC(=C(C=C1)C#N)C(F)(F)F
RETENTIONTIME: 
CCS: 186.4301625
IONMODE: Negative
INSTRUMENTTYPE: LC-ESI-ITFT
INSTRUMENT: 
COLLISIONENERGY: 90
Comment: registered in MassBank
Num Peaks: 6
63.9626	17
78.9858	28
95.0298	10
145.02071	14
158.0224	36
185.0331	1000

NAME: Bicalutamide; LC-ESI-ITFT; MS2; CE
PRECURSORMZ: 429.053764
PRECURSORTYPE: [M-H]-
FORMULA: C18H14F4N2O4S
Ontology: Trifluoromethylbenzenes
INCHIKEY: LKJPYSCBVHEWIU-KRWDZBQOSA-N
SMILES: C[C@](O)(CS(=O)(=O)C1=CC=C(F)C=C1)C(O)=NC1=CC(=C(C=C1)C#N)C(F)(F)F
RETENTIONTIME: 
CCS: 186.4301625
IONMODE: Negative
INSTRUMENTTYPE: LC-ESI-ITFT
INSTRUMENT: 
COLLISIONENERGY: 35
Comment: registered in MassBank
Num Peaks: 5
184.0378	48
185.0331	21
243.0132	19
255.0387	1000
411.04349	7

NAME: Atorvastatin; LC-ESI-ITFT; MS2; CE
PRECURSORMZ: 557.245724
PRECURSORTYPE: [M-H]-
FORMULA: C33H35FN2O5
Ontology: Diphenylpyrroles
INCHIKEY: XUKUURHRXDUEBC-KAYWLYCHSA-N
SMILES: CC(C)C1=C(C(O)=NC2=CC=CC=C2)C(=C(N1CC[C@@H](O)C[C@@H](O)CC(O)=O)C1=CC=C(F)C=C1)C1=CC=CC=C1
RETENTIONTIME: 
CCS: 226.8927637
IONMODE: Negative
INSTRUMENTTYPE: LC-ESI-ITFT
INSTRUMENT: 
COLLISIONENERGY: 35
Comment: registered in MassBank
Num Peaks: 8
278.134	6
397.17191	819
453.19821	1000
477.2341	25
479.2135	259
495.24521	32
521.22412	242
539.23358	31

NAME: Atorvastatin; LC-ESI-ITFT; MS2; CE
PRECURSORMZ: 557.245724
PRECURSORTYPE: [M-H]-
FORMULA: C33H35FN2O5
Ontology: Diphenylpyrroles
INCHIKEY: XUKUURHRXDUEBC-KAYWLYCHSA-N
SMILES: CC(C)C1=C(C(O)=NC2=CC=CC=C2)C(=C(N1CC[C@@H](O)C[C@@H](O)CC(O)=O)C1=CC=C(F)C=C1)C1=CC=CC=C1
RETENTIONTIME: 
CCS: 226.8927637
IONMODE: Negative
INSTRUMENTTYPE: LC-ESI-ITFT
INSTRUMENT: 
COLLISIONENERGY: 30
Comment: registered in MassBank
Num Peaks: 5
59.014	42
85.0293	124
278.13641	80
397.17291	1000
453.1991	407

NAME: Atorvastatin; LC-ESI-ITFT; MS2; CE
PRECURSORMZ: 557.245724
PRECURSORTYPE: [M-H]-
FORMULA: C33H35FN2O5
Ontology: Diphenylpyrroles
INCHIKEY: XUKUURHRXDUEBC-KAYWLYCHSA-N
SMILES: CC(C)C1=C(C(O)=NC2=CC=CC=C2)C(=C(N1CC[C@@H](O)C[C@@H](O)CC(O)=O)C1=CC=C(F)C=C1)C1=CC=CC=C1
RETENTIONTIME: 
CCS: 226.8927637
IONMODE: Negative
INSTRUMENTTYPE: LC-ESI-ITFT
INSTRUMENT: 
COLLISIONENERGY: 45
Comment: registered in MassBank
Num Peaks: 4
59.0136	41
85.0293	48
278.13519	1000
397.17209	264

NAME: Atorvastatin; LC-ESI-ITFT; MS2; CE
PRECURSORMZ: 557.245724
PRECURSORTYPE: [M-H]-
FORMULA: C33H35FN2O5
Ontology: Diphenylpyrroles
INCHIKEY: XUKUURHRXDUEBC-KAYWLYCHSA-N
SMILES: CC(C)C1=C(C(O)=NC2=CC=CC=C2)C(=C(N1CC[C@@H](O)C[C@@H](O)CC(O)=O)C1=CC=C(F)C=C1)C1=CC=CC=C1
RETENTIONTIME: 
CCS: 226.8927637
IONMODE: Negative
INSTRUMENTTYPE: LC-ESI-ITFT
INSTRUMENT: 
COLLISIONENERGY: 60
Comment: registered in MassBank
Num Peaks: 3
92.051	47
262.10489	44
278.13541	1000

NAME: Atorvastatin; LC-ESI-ITFT; MS2; CE
PRECURSORMZ: 557.245724
PRECURSORTYPE: [M-H]-
FORMULA: C33H35FN2O5
Ontology: Diphenylpyrroles
INCHIKEY: XUKUURHRXDUEBC-KAYWLYCHSA-N
SMILES: CC(C)C1=C(C(O)=NC2=CC=CC=C2)C(=C(N1CC[C@@H](O)C[C@@H](O)CC(O)=O)C1=CC=C(F)C=C1)C1=CC=CC=C1
RETENTIONTIME: 
CCS: 226.8927637
IONMODE: Negative
INSTRUMENTTYPE: LC-ESI-ITFT
INSTRUMENT: 
COLLISIONENERGY: 75
Comment: registered in MassBank
Num Peaks: 3
92.0504	239
262.1041	776
278.13531	1000

NAME: Atorvastatin; LC-ESI-ITFT; MS2; CE
PRECURSORMZ: 557.245724
PRECURSORTYPE: [M-H]-
FORMULA: C33H35FN2O5
Ontology: Diphenylpyrroles
INCHIKEY: XUKUURHRXDUEBC-KAYWLYCHSA-N
SMILES: CC(C)C1=C(C(O)=NC2=CC=CC=C2)C(=C(N1CC[C@@H](O)C[C@@H](O)CC(O)=O)C1=CC=C(F)C=C1)C1=CC=CC=C1
RETENTIONTIME: 
CCS: 226.8927637
IONMODE: Negative
INSTRUMENTTYPE: LC-ESI-ITFT
INSTRUMENT: 
COLLISIONENERGY: 90
Comment: registered in MassBank
Num Peaks: 2
92.0503	293
262.1044	1000

NAME: Atorvastatin; LC-ESI-ITFT; MS2; CE
PRECURSORMZ: 557.245724
PRECURSORTYPE: [M-H]-
FORMULA: C33H35FN2O5
Ontology: Diphenylpyrroles
INCHIKEY: XUKUURHRXDUEBC-KAYWLYCHSA-N
SMILES: CC(C)C1=C(C(O)=NC2=CC=CC=C2)C(=C(N1CC[C@@H](O)C[C@@H](O)CC(O)=O)C1=CC=C(F)C=C1)C1=CC=CC=C1
RETENTIONTIME: 
CCS: 226.8927637
IONMODE: Negative
INSTRUMENTTYPE: LC-ESI-ITFT
INSTRUMENT: 
COLLISIONENERGY: 30
Comment: registered in MassBank
Num Peaks: 4
59.0139	57
85.0296	88
397.17239	1000
453.19849	422

NAME: Atorvastatin; LC-ESI-ITFT; MS2; CE
PRECURSORMZ: 557.245724
PRECURSORTYPE: [M-H]-
FORMULA: C33H35FN2O5
Ontology: Diphenylpyrroles
INCHIKEY: XUKUURHRXDUEBC-KAYWLYCHSA-N
SMILES: CC(C)C1=C(C(O)=NC2=CC=CC=C2)C(=C(N1CC[C@@H](O)C[C@@H](O)CC(O)=O)C1=CC=C(F)C=C1)C1=CC=CC=C1
RETENTIONTIME: 
CCS: 226.8927637
IONMODE: Negative
INSTRUMENTTYPE: LC-ESI-ITFT
INSTRUMENT: 
COLLISIONENERGY: 45
Comment: registered in MassBank
Num Peaks: 3
85.0292	28
278.13501	1000
397.17239	310

NAME: Atorvastatin; LC-ESI-ITFT; MS2; CE
PRECURSORMZ: 557.245724
PRECURSORTYPE: [M-H]-
FORMULA: C33H35FN2O5
Ontology: Diphenylpyrroles
INCHIKEY: XUKUURHRXDUEBC-KAYWLYCHSA-N
SMILES: CC(C)C1=C(C(O)=NC2=CC=CC=C2)C(=C(N1CC[C@@H](O)C[C@@H](O)CC(O)=O)C1=CC=C(F)C=C1)C1=CC=CC=C1
RETENTIONTIME: 
CCS: 226.8927637
IONMODE: Negative
INSTRUMENTTYPE: LC-ESI-ITFT
INSTRUMENT: 
COLLISIONENERGY: 60
Comment: registered in MassBank
Num Peaks: 3
92.0507	46
262.10419	65
278.13501	1000

NAME: Atorvastatin; LC-ESI-ITFT; MS2; CE
PRECURSORMZ: 557.245724
PRECURSORTYPE: [M-H]-
FORMULA: C33H35FN2O5
Ontology: Diphenylpyrroles
INCHIKEY: XUKUURHRXDUEBC-KAYWLYCHSA-N
SMILES: CC(C)C1=C(C(O)=NC2=CC=CC=C2)C(=C(N1CC[C@@H](O)C[C@@H](O)CC(O)=O)C1=CC=C(F)C=C1)C1=CC=CC=C1
RETENTIONTIME: 
CCS: 226.8927637
IONMODE: Negative
INSTRUMENTTYPE: LC-ESI-ITFT
INSTRUMENT: 
COLLISIONENERGY: 75
Comment: registered in MassBank
Num Peaks: 3
92.0505	226
262.1037	889
278.13519	1000

NAME: Atorvastatin; LC-ESI-ITFT; MS2; CE
PRECURSORMZ: 557.245724
PRECURSORTYPE: [M-H]-
FORMULA: C33H35FN2O5
Ontology: Diphenylpyrroles
INCHIKEY: XUKUURHRXDUEBC-KAYWLYCHSA-N
SMILES: CC(C)C1=C(C(O)=NC2=CC=CC=C2)C(=C(N1CC[C@@H](O)C[C@@H](O)CC(O)=O)C1=CC=C(F)C=C1)C1=CC=CC=C1
RETENTIONTIME: 
CCS: 226.8927637
IONMODE: Negative
INSTRUMENTTYPE: LC-ESI-ITFT
INSTRUMENT: 
COLLISIONENERGY: 90
Comment: registered in MassBank
Num Peaks: 4
59.0138	90
92.0502	163
262.10391	1000
278.13449	93

NAME: Atorvastatin; LC-ESI-ITFT; MS2; CE
PRECURSORMZ: 557.245724
PRECURSORTYPE: [M-H]-
FORMULA: C33H35FN2O5
Ontology: Diphenylpyrroles
INCHIKEY: XUKUURHRXDUEBC-KAYWLYCHSA-N
SMILES: CC(C)C1=C(C(O)=NC2=CC=CC=C2)C(=C(N1CC[C@@H](O)C[C@@H](O)CC(O)=O)C1=CC=C(F)C=C1)C1=CC=CC=C1
RETENTIONTIME: 
CCS: 226.8927637
IONMODE: Negative
INSTRUMENTTYPE: LC-ESI-ITFT
INSTRUMENT: 
COLLISIONENERGY: 35
Comment: registered in MassBank
Num Peaks: 8
278.1355	5
397.17169	821
453.198	1000
477.2345	17
479.21359	237
495.24539	22
521.2243	212
539.23431	19

NAME: Cyclamate; LC-ESI-ITFT; MS2; CE
PRECURSORMZ: 178.054338
PRECURSORTYPE: [M-H]-
FORMULA: C6H13NO3S
Ontology: Cyclamates
INCHIKEY: HCAJEUSONLESMK-UHFFFAOYSA-N
SMILES: OS(=O)(=O)NC1CCCCC1
RETENTIONTIME: 
CCS: 133.0013113
IONMODE: Negative
INSTRUMENTTYPE: LC-ESI-ITFT
INSTRUMENT: 
COLLISIONENERGY: 35
Comment: registered in MassBank
Num Peaks: 4
79.9575	306
80.9652	32
95.9761	17
178.0546	1000

NAME: Cyclamate; LC-ESI-ITFT; MS2; CE
PRECURSORMZ: 178.054338
PRECURSORTYPE: [M-H]-
FORMULA: C6H13NO3S
Ontology: Cyclamates
INCHIKEY: HCAJEUSONLESMK-UHFFFAOYSA-N
SMILES: OS(=O)(=O)NC1CCCCC1
RETENTIONTIME: 
CCS: 133.0013113
IONMODE: Negative
INSTRUMENTTYPE: LC-ESI-ITFT
INSTRUMENT: 
COLLISIONENERGY: 45
Comment: registered in MassBank
Num Peaks: 2
79.9573	42
178.0544	1000

NAME: Cyclamate; LC-ESI-ITFT; MS2; CE
PRECURSORMZ: 178.054338
PRECURSORTYPE: [M-H]-
FORMULA: C6H13NO3S
Ontology: Cyclamates
INCHIKEY: HCAJEUSONLESMK-UHFFFAOYSA-N
SMILES: OS(=O)(=O)NC1CCCCC1
RETENTIONTIME: 
CCS: 133.0013113
IONMODE: Negative
INSTRUMENTTYPE: LC-ESI-ITFT
INSTRUMENT: 
COLLISIONENERGY: 60
Comment: registered in MassBank
Num Peaks: 3
79.9574	407
80.9651	10
178.0544	1000

NAME: Cyclamate; LC-ESI-ITFT; MS2; CE
PRECURSORMZ: 178.054338
PRECURSORTYPE: [M-H]-
FORMULA: C6H13NO3S
Ontology: Cyclamates
INCHIKEY: HCAJEUSONLESMK-UHFFFAOYSA-N
SMILES: OS(=O)(=O)NC1CCCCC1
RETENTIONTIME: 
CCS: 133.0013113
IONMODE: Negative
INSTRUMENTTYPE: LC-ESI-ITFT
INSTRUMENT: 
COLLISIONENERGY: 75
Comment: registered in MassBank
Num Peaks: 4
79.9574	1000
80.9652	21
95.9758	10
178.05431	527

NAME: Cyclamate; LC-ESI-ITFT; MS2; CE
PRECURSORMZ: 178.054338
PRECURSORTYPE: [M-H]-
FORMULA: C6H13NO3S
Ontology: Cyclamates
INCHIKEY: HCAJEUSONLESMK-UHFFFAOYSA-N
SMILES: OS(=O)(=O)NC1CCCCC1
RETENTIONTIME: 
CCS: 133.0013113
IONMODE: Negative
INSTRUMENTTYPE: LC-ESI-ITFT
INSTRUMENT: 
COLLISIONENERGY: 90
Comment: registered in MassBank
Num Peaks: 3
79.9574	1000
80.9654	7
178.0542	95

NAME: Cyclamate; LC-ESI-ITFT; MS2; CE
PRECURSORMZ: 178.054338
PRECURSORTYPE: [M-H]-
FORMULA: C6H13NO3S
Ontology: Cyclamates
INCHIKEY: HCAJEUSONLESMK-UHFFFAOYSA-N
SMILES: OS(=O)(=O)NC1CCCCC1
RETENTIONTIME: 
CCS: 133.0013113
IONMODE: Negative
INSTRUMENTTYPE: LC-ESI-ITFT
INSTRUMENT: 
COLLISIONENERGY: 45
Comment: registered in MassBank
Num Peaks: 2
79.9573	24
178.0545	1000

NAME: Cyclamate; LC-ESI-ITFT; MS2; CE
PRECURSORMZ: 178.054338
PRECURSORTYPE: [M-H]-
FORMULA: C6H13NO3S
Ontology: Cyclamates
INCHIKEY: HCAJEUSONLESMK-UHFFFAOYSA-N
SMILES: OS(=O)(=O)NC1CCCCC1
RETENTIONTIME: 
CCS: 133.0013113
IONMODE: Negative
INSTRUMENTTYPE: LC-ESI-ITFT
INSTRUMENT: 
COLLISIONENERGY: 60
Comment: registered in MassBank
Num Peaks: 3
79.9574	342
80.9651	7
178.0544	1000

NAME: Cyclamate; LC-ESI-ITFT; MS2; CE
PRECURSORMZ: 178.054338
PRECURSORTYPE: [M-H]-
FORMULA: C6H13NO3S
Ontology: Cyclamates
INCHIKEY: HCAJEUSONLESMK-UHFFFAOYSA-N
SMILES: OS(=O)(=O)NC1CCCCC1
RETENTIONTIME: 
CCS: 133.0013113
IONMODE: Negative
INSTRUMENTTYPE: LC-ESI-ITFT
INSTRUMENT: 
COLLISIONENERGY: 75
Comment: registered in MassBank
Num Peaks: 4
79.9574	1000
80.9651	11
95.9763	10
178.05431	434

NAME: Cyclamate; LC-ESI-ITFT; MS2; CE
PRECURSORMZ: 178.054338
PRECURSORTYPE: [M-H]-
FORMULA: C6H13NO3S
Ontology: Cyclamates
INCHIKEY: HCAJEUSONLESMK-UHFFFAOYSA-N
SMILES: OS(=O)(=O)NC1CCCCC1
RETENTIONTIME: 
CCS: 133.0013113
IONMODE: Negative
INSTRUMENTTYPE: LC-ESI-ITFT
INSTRUMENT: 
COLLISIONENERGY: 90
Comment: registered in MassBank
Num Peaks: 2
79.9574	1000
178.0542	39

NAME: Cyclamate; LC-ESI-ITFT; MS2; CE
PRECURSORMZ: 178.054338
PRECURSORTYPE: [M-H]-
FORMULA: C6H13NO3S
Ontology: Cyclamates
INCHIKEY: HCAJEUSONLESMK-UHFFFAOYSA-N
SMILES: OS(=O)(=O)NC1CCCCC1
RETENTIONTIME: 
CCS: 133.0013113
IONMODE: Negative
INSTRUMENTTYPE: LC-ESI-ITFT
INSTRUMENT: 
COLLISIONENERGY: 35
Comment: registered in MassBank
Num Peaks: 4
79.9574	332
80.9652	15
95.9761	6
178.0544	1000

NAME: Neotame; LC-ESI-ITFT; MS2; CE
PRECURSORMZ: 377.208196
PRECURSORTYPE: [M-H]-
FORMULA: C20H30N2O5
Ontology: Peptides
INCHIKEY: HLIAVLHNDJUHFG-HOTGVXAUSA-N
SMILES: COC(=O)[C@H](CC1=CC=CC=C1)N=C(O)[C@H](CC(O)=O)NCCC(C)(C)C
RETENTIONTIME: 
CCS: 200.4465648
IONMODE: Negative
INSTRUMENTTYPE: LC-ESI-ITFT
INSTRUMENT: 
COLLISIONENERGY: 35
Comment: registered in MassBank
Num Peaks: 12
126.1288	8
174.056	19
200.07179	518
230.15511	36
244.0616	15
257.20239	30
283.18179	23
301.19211	105
317.1868	20
327.17111	12
345.18201	1000
359.19751	177

NAME: Neotame; LC-ESI-ITFT; MS2; CE
PRECURSORMZ: 377.208196
PRECURSORTYPE: [M-H]-
FORMULA: C20H30N2O5
Ontology: Peptides
INCHIKEY: HLIAVLHNDJUHFG-HOTGVXAUSA-N
SMILES: COC(=O)[C@H](CC1=CC=CC=C1)N=C(O)[C@H](CC(O)=O)NCCC(C)(C)C
RETENTIONTIME: 
CCS: 200.4465648
IONMODE: Negative
INSTRUMENTTYPE: LC-ESI-ITFT
INSTRUMENT: 
COLLISIONENERGY: 15
Comment: registered in MassBank
Num Peaks: 5
200.0717	61
301.1925	8
345.18231	134
359.19681	24
377.20831	1000

NAME: Neotame; LC-ESI-ITFT; MS2; CE
PRECURSORMZ: 377.208196
PRECURSORTYPE: [M-H]-
FORMULA: C20H30N2O5
Ontology: Peptides
INCHIKEY: HLIAVLHNDJUHFG-HOTGVXAUSA-N
SMILES: COC(=O)[C@H](CC1=CC=CC=C1)N=C(O)[C@H](CC(O)=O)NCCC(C)(C)C
RETENTIONTIME: 
CCS: 200.4465648
IONMODE: Negative
INSTRUMENTTYPE: LC-ESI-ITFT
INSTRUMENT: 
COLLISIONENERGY: 30
Comment: registered in MassBank
Num Peaks: 14
126.1289	75
174.0563	114
197.1293	42
200.07179	1000
230.1552	291
257.20221	218
283.18271	71
285.16101	129
301.19189	460
317.18689	142
327.17081	128
345.1824	125
359.19809	171
377.2084	263

NAME: Neotame; LC-ESI-ITFT; MS2; CE
PRECURSORMZ: 377.208196
PRECURSORTYPE: [M-H]-
FORMULA: C20H30N2O5
Ontology: Peptides
INCHIKEY: HLIAVLHNDJUHFG-HOTGVXAUSA-N
SMILES: COC(=O)[C@H](CC1=CC=CC=C1)N=C(O)[C@H](CC(O)=O)NCCC(C)(C)C
RETENTIONTIME: 
CCS: 200.4465648
IONMODE: Negative
INSTRUMENTTYPE: LC-ESI-ITFT
INSTRUMENT: 
COLLISIONENERGY: 45
Comment: registered in MassBank
Num Peaks: 20
81.0221	55
96.0095	36
109.0173	38
111.0202	132
116.0507	69
118.0665	178
126.1287	193
156.08189	76
172.077	54
174.0567	89
182.1185	95
197.1299	68
200.0719	1000
227.1393	68
230.155	142
257.20251	34
273.1973	158
285.16089	301
301.1918	168
327.17001	69

NAME: Neotame; LC-ESI-ITFT; MS2; CE
PRECURSORMZ: 377.208196
PRECURSORTYPE: [M-H]-
FORMULA: C20H30N2O5
Ontology: Peptides
INCHIKEY: HLIAVLHNDJUHFG-HOTGVXAUSA-N
SMILES: COC(=O)[C@H](CC1=CC=CC=C1)N=C(O)[C@H](CC(O)=O)NCCC(C)(C)C
RETENTIONTIME: 
CCS: 200.4465648
IONMODE: Negative
INSTRUMENTTYPE: LC-ESI-ITFT
INSTRUMENT: 
COLLISIONENERGY: 60
Comment: registered in MassBank
Num Peaks: 4
81.0222	257
116.0505	211
118.0663	1000
200.0717	544

NAME: Neotame; LC-ESI-ITFT; MS2; CE
PRECURSORMZ: 377.208196
PRECURSORTYPE: [M-H]-
FORMULA: C20H30N2O5
Ontology: Peptides
INCHIKEY: HLIAVLHNDJUHFG-HOTGVXAUSA-N
SMILES: COC(=O)[C@H](CC1=CC=CC=C1)N=C(O)[C@H](CC(O)=O)NCCC(C)(C)C
RETENTIONTIME: 
CCS: 200.4465648
IONMODE: Negative
INSTRUMENTTYPE: LC-ESI-ITFT
INSTRUMENT: 
COLLISIONENERGY: 75
Comment: registered in MassBank
Num Peaks: 3
81.0219	175
116.0504	239
118.0663	1000

NAME: Neotame; LC-ESI-ITFT; MS2; CE
PRECURSORMZ: 377.208196
PRECURSORTYPE: [M-H]-
FORMULA: C20H30N2O5
Ontology: Peptides
INCHIKEY: HLIAVLHNDJUHFG-HOTGVXAUSA-N
SMILES: COC(=O)[C@H](CC1=CC=CC=C1)N=C(O)[C@H](CC(O)=O)NCCC(C)(C)C
RETENTIONTIME: 
CCS: 200.4465648
IONMODE: Negative
INSTRUMENTTYPE: LC-ESI-ITFT
INSTRUMENT: 
COLLISIONENERGY: 90
Comment: registered in MassBank
Num Peaks: 3
96.0095	227
116.0507	450
118.0663	1000

NAME: Neotame; LC-ESI-ITFT; MS2; CE
PRECURSORMZ: 377.208196
PRECURSORTYPE: [M-H]-
FORMULA: C20H30N2O5
Ontology: Peptides
INCHIKEY: HLIAVLHNDJUHFG-HOTGVXAUSA-N
SMILES: COC(=O)[C@H](CC1=CC=CC=C1)N=C(O)[C@H](CC(O)=O)NCCC(C)(C)C
RETENTIONTIME: 
CCS: 200.4465648
IONMODE: Negative
INSTRUMENTTYPE: LC-ESI-ITFT
INSTRUMENT: 
COLLISIONENERGY: 15
Comment: registered in MassBank
Num Peaks: 7
182.11929	5
200.0719	61
301.19269	10
317.18799	8
345.18179	104
359.1973	22
377.2084	1000

NAME: Neotame; LC-ESI-ITFT; MS2; CE
PRECURSORMZ: 377.208196
PRECURSORTYPE: [M-H]-
FORMULA: C20H30N2O5
Ontology: Peptides
INCHIKEY: HLIAVLHNDJUHFG-HOTGVXAUSA-N
SMILES: COC(=O)[C@H](CC1=CC=CC=C1)N=C(O)[C@H](CC(O)=O)NCCC(C)(C)C
RETENTIONTIME: 
CCS: 200.4465648
IONMODE: Negative
INSTRUMENTTYPE: LC-ESI-ITFT
INSTRUMENT: 
COLLISIONENERGY: 30
Comment: registered in MassBank
Num Peaks: 16
118.0667	17
126.1289	49
174.05589	70
182.11929	39
197.12869	30
200.07179	1000
230.1552	238
257.2023	171
283.1814	62
285.1611	130
301.19229	378
317.18701	125
327.17169	127
345.18231	112
359.19751	175
377.2084	203

NAME: Neotame; LC-ESI-ITFT; MS2; CE
PRECURSORMZ: 377.208196
PRECURSORTYPE: [M-H]-
FORMULA: C20H30N2O5
Ontology: Peptides
INCHIKEY: HLIAVLHNDJUHFG-HOTGVXAUSA-N
SMILES: COC(=O)[C@H](CC1=CC=CC=C1)N=C(O)[C@H](CC(O)=O)NCCC(C)(C)C
RETENTIONTIME: 
CCS: 200.4465648
IONMODE: Negative
INSTRUMENTTYPE: LC-ESI-ITFT
INSTRUMENT: 
COLLISIONENERGY: 45
Comment: registered in MassBank
Num Peaks: 14
111.0199	71
116.0504	59
118.0661	146
126.1286	112
156.08231	85
172.0771	44
174.05611	87
197.12959	53
200.0717	1000
227.1411	57
230.155	120
273.19699	177
285.16101	382
301.1922	198

NAME: Neotame; LC-ESI-ITFT; MS2; CE
PRECURSORMZ: 377.208196
PRECURSORTYPE: [M-H]-
FORMULA: C20H30N2O5
Ontology: Peptides
INCHIKEY: HLIAVLHNDJUHFG-HOTGVXAUSA-N
SMILES: COC(=O)[C@H](CC1=CC=CC=C1)N=C(O)[C@H](CC(O)=O)NCCC(C)(C)C
RETENTIONTIME: 
CCS: 200.4465648
IONMODE: Negative
INSTRUMENTTYPE: LC-ESI-ITFT
INSTRUMENT: 
COLLISIONENERGY: 60
Comment: registered in MassBank
Num Peaks: 8
109.0168	259
111.0195	291
116.0505	429
118.0662	1000
126.1292	349
197.13049	173
200.0719	951
285.1619	174

NAME: Neotame; LC-ESI-ITFT; MS2; CE
PRECURSORMZ: 377.208196
PRECURSORTYPE: [M-H]-
FORMULA: C20H30N2O5
Ontology: Peptides
INCHIKEY: HLIAVLHNDJUHFG-HOTGVXAUSA-N
SMILES: COC(=O)[C@H](CC1=CC=CC=C1)N=C(O)[C@H](CC(O)=O)NCCC(C)(C)C
RETENTIONTIME: 
CCS: 200.4465648
IONMODE: Negative
INSTRUMENTTYPE: LC-ESI-ITFT
INSTRUMENT: 
COLLISIONENERGY: 75
Comment: registered in MassBank
Num Peaks: 2
116.0503	481
118.0665	1000

NAME: Neotame; LC-ESI-ITFT; MS2; CE
PRECURSORMZ: 377.208196
PRECURSORTYPE: [M-H]-
FORMULA: C20H30N2O5
Ontology: Peptides
INCHIKEY: HLIAVLHNDJUHFG-HOTGVXAUSA-N
SMILES: COC(=O)[C@H](CC1=CC=CC=C1)N=C(O)[C@H](CC(O)=O)NCCC(C)(C)C
RETENTIONTIME: 
CCS: 200.4465648
IONMODE: Negative
INSTRUMENTTYPE: LC-ESI-ITFT
INSTRUMENT: 
COLLISIONENERGY: 90
Comment: registered in MassBank
Num Peaks: 2
116.0502	560
118.0659	1000

NAME: Neotame; LC-ESI-ITFT; MS2; CE
PRECURSORMZ: 377.208196
PRECURSORTYPE: [M-H]-
FORMULA: C20H30N2O5
Ontology: Peptides
INCHIKEY: HLIAVLHNDJUHFG-HOTGVXAUSA-N
SMILES: COC(=O)[C@H](CC1=CC=CC=C1)N=C(O)[C@H](CC(O)=O)NCCC(C)(C)C
RETENTIONTIME: 
CCS: 200.4465648
IONMODE: Negative
INSTRUMENTTYPE: LC-ESI-ITFT
INSTRUMENT: 
COLLISIONENERGY: 35
Comment: registered in MassBank
Num Peaks: 11
174.056	13
200.0717	480
230.15511	16
244.06171	9
257.2023	13
283.18188	10
301.19199	63
317.18689	6
327.17139	7
345.18188	1000
359.19739	119

NAME: Saccharin; LC-ESI-ITFT; MS2; CE
PRECURSORMZ: 181.991737
PRECURSORTYPE: [M-H]-
FORMULA: C7H5NO3S
Ontology: Benzothiazoles
INCHIKEY: CVHZOJJKTDOEJC-UHFFFAOYSA-N
SMILES: OC1=NS(=O)(=O)C2=CC=CC=C12
RETENTIONTIME: 
CCS: 130.6027867
IONMODE: Negative
INSTRUMENTTYPE: LC-ESI-ITFT
INSTRUMENT: 
COLLISIONENERGY: 35
Comment: registered in MassBank
Num Peaks: 3
61.9707	9
105.9602	14
181.99181	1000

NAME: Saccharin; LC-ESI-ITFT; MS2; CE
PRECURSORMZ: 181.991737
PRECURSORTYPE: [M-H]-
FORMULA: C7H5NO3S
Ontology: Benzothiazoles
INCHIKEY: CVHZOJJKTDOEJC-UHFFFAOYSA-N
SMILES: OC1=NS(=O)(=O)C2=CC=CC=C12
RETENTIONTIME: 
CCS: 130.6027867
IONMODE: Negative
INSTRUMENTTYPE: LC-ESI-ITFT
INSTRUMENT: 
COLLISIONENERGY: 60
Comment: registered in MassBank
Num Peaks: 2
61.9707	12
181.9917	1000

NAME: Saccharin; LC-ESI-ITFT; MS2; CE
PRECURSORMZ: 181.991737
PRECURSORTYPE: [M-H]-
FORMULA: C7H5NO3S
Ontology: Benzothiazoles
INCHIKEY: CVHZOJJKTDOEJC-UHFFFAOYSA-N
SMILES: OC1=NS(=O)(=O)C2=CC=CC=C12
RETENTIONTIME: 
CCS: 130.6027867
IONMODE: Negative
INSTRUMENTTYPE: LC-ESI-ITFT
INSTRUMENT: 
COLLISIONENERGY: 60
Comment: registered in MassBank
Num Peaks: 2
61.9706	12
181.9917	1000

NAME: Saccharin; LC-ESI-ITFT; MS2; CE
PRECURSORMZ: 181.991737
PRECURSORTYPE: [M-H]-
FORMULA: C7H5NO3S
Ontology: Benzothiazoles
INCHIKEY: CVHZOJJKTDOEJC-UHFFFAOYSA-N
SMILES: OC1=NS(=O)(=O)C2=CC=CC=C12
RETENTIONTIME: 
CCS: 130.6027867
IONMODE: Negative
INSTRUMENTTYPE: LC-ESI-ITFT
INSTRUMENT: 
COLLISIONENERGY: 90
Comment: registered in MassBank
Num Peaks: 2
61.9704	160
181.9915	1000

NAME: Acamprosate; LC-ESI-ITFT; MS2; CE
PRECURSORMZ: 180.033602
PRECURSORTYPE: [M-H]-
FORMULA: C5H11NO4S
Ontology: Organosulfonic acids
INCHIKEY: AFCGFAGUEYAMAO-UHFFFAOYSA-N
SMILES: CC(O)=NCCCS(O)(=O)=O
RETENTIONTIME: 
CCS: 139.4597452
IONMODE: Negative
INSTRUMENTTYPE: LC-ESI-ITFT
INSTRUMENT: 
COLLISIONENERGY: 35
Comment: registered in MassBank
Num Peaks: 7
58.03	23
79.9574	91
80.9653	133
116.072	90
120.9969	30
138.0233	168
180.0341	1000

NAME: Acamprosate; LC-ESI-ITFT; MS2; CE
PRECURSORMZ: 180.033602
PRECURSORTYPE: [M-H]-
FORMULA: C5H11NO4S
Ontology: Organosulfonic acids
INCHIKEY: AFCGFAGUEYAMAO-UHFFFAOYSA-N
SMILES: CC(O)=NCCCS(O)(=O)=O
RETENTIONTIME: 
CCS: 139.4597452
IONMODE: Negative
INSTRUMENTTYPE: LC-ESI-ITFT
INSTRUMENT: 
COLLISIONENERGY: 45
Comment: registered in MassBank
Num Peaks: 6
58.0299	7
79.9574	159
80.9652	41
116.0714	11
138.0229	15
180.0338	1000

NAME: Acamprosate; LC-ESI-ITFT; MS2; CE
PRECURSORMZ: 180.033602
PRECURSORTYPE: [M-H]-
FORMULA: C5H11NO4S
Ontology: Organosulfonic acids
INCHIKEY: AFCGFAGUEYAMAO-UHFFFAOYSA-N
SMILES: CC(O)=NCCCS(O)(=O)=O
RETENTIONTIME: 
CCS: 139.4597452
IONMODE: Negative
INSTRUMENTTYPE: LC-ESI-ITFT
INSTRUMENT: 
COLLISIONENERGY: 60
Comment: registered in MassBank
Num Peaks: 5
79.9574	1000
80.9652	150
116.0715	20
138.02319	47
180.03371	668

NAME: Acamprosate; LC-ESI-ITFT; MS2; CE
PRECURSORMZ: 180.033602
PRECURSORTYPE: [M-H]-
FORMULA: C5H11NO4S
Ontology: Organosulfonic acids
INCHIKEY: AFCGFAGUEYAMAO-UHFFFAOYSA-N
SMILES: CC(O)=NCCCS(O)(=O)=O
RETENTIONTIME: 
CCS: 139.4597452
IONMODE: Negative
INSTRUMENTTYPE: LC-ESI-ITFT
INSTRUMENT: 
COLLISIONENERGY: 75
Comment: registered in MassBank
Num Peaks: 5
58.0299	11
79.9574	1000
80.9652	99
138.0231	24
180.034	92

NAME: Acamprosate; LC-ESI-ITFT; MS2; CE
PRECURSORMZ: 180.033602
PRECURSORTYPE: [M-H]-
FORMULA: C5H11NO4S
Ontology: Organosulfonic acids
INCHIKEY: AFCGFAGUEYAMAO-UHFFFAOYSA-N
SMILES: CC(O)=NCCCS(O)(=O)=O
RETENTIONTIME: 
CCS: 139.4597452
IONMODE: Negative
INSTRUMENTTYPE: LC-ESI-ITFT
INSTRUMENT: 
COLLISIONENERGY: 90
Comment: registered in MassBank
Num Peaks: 3
79.9574	1000
80.9652	72
138.02271	10

NAME: Acamprosate; LC-ESI-ITFT; MS2; CE
PRECURSORMZ: 180.033602
PRECURSORTYPE: [M-H]-
FORMULA: C5H11NO4S
Ontology: Organosulfonic acids
INCHIKEY: AFCGFAGUEYAMAO-UHFFFAOYSA-N
SMILES: CC(O)=NCCCS(O)(=O)=O
RETENTIONTIME: 
CCS: 139.4597452
IONMODE: Negative
INSTRUMENTTYPE: LC-ESI-ITFT
INSTRUMENT: 
COLLISIONENERGY: 30
Comment: registered in MassBank
Num Peaks: 2
79.9572	6
180.0338	1000

NAME: Acamprosate; LC-ESI-ITFT; MS2; CE
PRECURSORMZ: 180.033602
PRECURSORTYPE: [M-H]-
FORMULA: C5H11NO4S
Ontology: Organosulfonic acids
INCHIKEY: AFCGFAGUEYAMAO-UHFFFAOYSA-N
SMILES: CC(O)=NCCCS(O)(=O)=O
RETENTIONTIME: 
CCS: 139.4597452
IONMODE: Negative
INSTRUMENTTYPE: LC-ESI-ITFT
INSTRUMENT: 
COLLISIONENERGY: 45
Comment: registered in MassBank
Num Peaks: 5
79.9574	148
80.9652	33
116.0719	11
138.0231	10
180.03371	1000

NAME: Acamprosate; LC-ESI-ITFT; MS2; CE
PRECURSORMZ: 180.033602
PRECURSORTYPE: [M-H]-
FORMULA: C5H11NO4S
Ontology: Organosulfonic acids
INCHIKEY: AFCGFAGUEYAMAO-UHFFFAOYSA-N
SMILES: CC(O)=NCCCS(O)(=O)=O
RETENTIONTIME: 
CCS: 139.4597452
IONMODE: Negative
INSTRUMENTTYPE: LC-ESI-ITFT
INSTRUMENT: 
COLLISIONENERGY: 60
Comment: registered in MassBank
Num Peaks: 7
58.0298	7
79.9574	1000
80.9652	134
116.0717	20
120.9969	9
138.0231	38
180.03371	609

NAME: Acamprosate; LC-ESI-ITFT; MS2; CE
PRECURSORMZ: 180.033602
PRECURSORTYPE: [M-H]-
FORMULA: C5H11NO4S
Ontology: Organosulfonic acids
INCHIKEY: AFCGFAGUEYAMAO-UHFFFAOYSA-N
SMILES: CC(O)=NCCCS(O)(=O)=O
RETENTIONTIME: 
CCS: 139.4597452
IONMODE: Negative
INSTRUMENTTYPE: LC-ESI-ITFT
INSTRUMENT: 
COLLISIONENERGY: 75
Comment: registered in MassBank
Num Peaks: 4
79.9574	1000
80.9652	79
138.02299	9
180.03349	79

NAME: Acamprosate; LC-ESI-ITFT; MS2; CE
PRECURSORMZ: 180.033602
PRECURSORTYPE: [M-H]-
FORMULA: C5H11NO4S
Ontology: Organosulfonic acids
INCHIKEY: AFCGFAGUEYAMAO-UHFFFAOYSA-N
SMILES: CC(O)=NCCCS(O)(=O)=O
RETENTIONTIME: 
CCS: 139.4597452
IONMODE: Negative
INSTRUMENTTYPE: LC-ESI-ITFT
INSTRUMENT: 
COLLISIONENERGY: 90
Comment: registered in MassBank
Num Peaks: 2
79.9574	1000
80.9652	30

NAME: Acamprosate; LC-ESI-ITFT; MS2; CE
PRECURSORMZ: 180.033602
PRECURSORTYPE: [M-H]-
FORMULA: C5H11NO4S
Ontology: Organosulfonic acids
INCHIKEY: AFCGFAGUEYAMAO-UHFFFAOYSA-N
SMILES: CC(O)=NCCCS(O)(=O)=O
RETENTIONTIME: 
CCS: 139.4597452
IONMODE: Negative
INSTRUMENTTYPE: LC-ESI-ITFT
INSTRUMENT: 
COLLISIONENERGY: 35
Comment: registered in MassBank
Num Peaks: 7
58.03	6
79.9574	59
80.9652	96
116.0717	37
120.9964	11
138.0231	127
180.03391	1000

NAME: Albuterol; LC-ESI-ITFT; MS2; CE
PRECURSORMZ: 238.144867
PRECURSORTYPE: [M-H]-
FORMULA: C13H21NO3
Ontology: Benzyl alcohols
INCHIKEY: NDAUXUAQIAJITI-UHFFFAOYNA-N
SMILES: CC(C)(C)NCC(O)C1=CC(CO)=C(O)C=C1
RETENTIONTIME: 
CCS: 158.7566174
IONMODE: Negative
INSTRUMENTTYPE: LC-ESI-ITFT
INSTRUMENT: 
COLLISIONENERGY: 35
Comment: registered in MassBank
Num Peaks: 2
218.119	109
220.1346	1000

NAME: Albuterol; LC-ESI-ITFT; MS2; CE
PRECURSORMZ: 238.144867
PRECURSORTYPE: [M-H]-
FORMULA: C13H21NO3
Ontology: Benzyl alcohols
INCHIKEY: NDAUXUAQIAJITI-UHFFFAOYNA-N
SMILES: CC(C)(C)NCC(O)C1=CC(CO)=C(O)C=C1
RETENTIONTIME: 
CCS: 158.7566174
IONMODE: Negative
INSTRUMENTTYPE: LC-ESI-ITFT
INSTRUMENT: 
COLLISIONENERGY: 15
Comment: registered in MassBank
Num Peaks: 2
220.13341	89
238.1452	1000

NAME: Albuterol; LC-ESI-ITFT; MS2; CE
PRECURSORMZ: 238.144867
PRECURSORTYPE: [M-H]-
FORMULA: C13H21NO3
Ontology: Benzyl alcohols
INCHIKEY: NDAUXUAQIAJITI-UHFFFAOYNA-N
SMILES: CC(C)(C)NCC(O)C1=CC(CO)=C(O)C=C1
RETENTIONTIME: 
CCS: 158.7566174
IONMODE: Negative
INSTRUMENTTYPE: LC-ESI-ITFT
INSTRUMENT: 
COLLISIONENERGY: 30
Comment: registered in MassBank
Num Peaks: 3
218.1188	263
220.1346	1000
238.1451	713

NAME: Albuterol; LC-ESI-ITFT; MS2; CE
PRECURSORMZ: 238.144867
PRECURSORTYPE: [M-H]-
FORMULA: C13H21NO3
Ontology: Benzyl alcohols
INCHIKEY: NDAUXUAQIAJITI-UHFFFAOYNA-N
SMILES: CC(C)(C)NCC(O)C1=CC(CO)=C(O)C=C1
RETENTIONTIME: 
CCS: 158.7566174
IONMODE: Negative
INSTRUMENTTYPE: LC-ESI-ITFT
INSTRUMENT: 
COLLISIONENERGY: 45
Comment: registered in MassBank
Num Peaks: 4
163.06461	115
190.1232	234
218.11861	1000
220.13429	394

NAME: Albuterol; LC-ESI-ITFT; MS2; CE
PRECURSORMZ: 238.144867
PRECURSORTYPE: [M-H]-
FORMULA: C13H21NO3
Ontology: Benzyl alcohols
INCHIKEY: NDAUXUAQIAJITI-UHFFFAOYNA-N
SMILES: CC(C)(C)NCC(O)C1=CC(CO)=C(O)C=C1
RETENTIONTIME: 
CCS: 158.7566174
IONMODE: Negative
INSTRUMENTTYPE: LC-ESI-ITFT
INSTRUMENT: 
COLLISIONENERGY: 60
Comment: registered in MassBank
Num Peaks: 3
163.0639	376
190.1237	1000
218.11929	914

NAME: Albuterol; LC-ESI-ITFT; MS2; CE
PRECURSORMZ: 238.144867
PRECURSORTYPE: [M-H]-
FORMULA: C13H21NO3
Ontology: Benzyl alcohols
INCHIKEY: NDAUXUAQIAJITI-UHFFFAOYNA-N
SMILES: CC(C)(C)NCC(O)C1=CC(CO)=C(O)C=C1
RETENTIONTIME: 
CCS: 158.7566174
IONMODE: Negative
INSTRUMENTTYPE: LC-ESI-ITFT
INSTRUMENT: 
COLLISIONENERGY: 75
Comment: registered in MassBank
Num Peaks: 1
190.1239	1000

NAME: Albuterol; LC-ESI-ITFT; MS2; CE
PRECURSORMZ: 238.144867
PRECURSORTYPE: [M-H]-
FORMULA: C13H21NO3
Ontology: Benzyl alcohols
INCHIKEY: NDAUXUAQIAJITI-UHFFFAOYNA-N
SMILES: CC(C)(C)NCC(O)C1=CC(CO)=C(O)C=C1
RETENTIONTIME: 
CCS: 158.7566174
IONMODE: Negative
INSTRUMENTTYPE: LC-ESI-ITFT
INSTRUMENT: 
COLLISIONENERGY: 15
Comment: registered in MassBank
Num Peaks: 2
220.1351	59
238.145	1000

NAME: Albuterol; LC-ESI-ITFT; MS2; CE
PRECURSORMZ: 238.144867
PRECURSORTYPE: [M-H]-
FORMULA: C13H21NO3
Ontology: Benzyl alcohols
INCHIKEY: NDAUXUAQIAJITI-UHFFFAOYNA-N
SMILES: CC(C)(C)NCC(O)C1=CC(CO)=C(O)C=C1
RETENTIONTIME: 
CCS: 158.7566174
IONMODE: Negative
INSTRUMENTTYPE: LC-ESI-ITFT
INSTRUMENT: 
COLLISIONENERGY: 30
Comment: registered in MassBank
Num Peaks: 2
220.13429	1000
238.14461	532

NAME: Albuterol; LC-ESI-ITFT; MS2; CE
PRECURSORMZ: 238.144867
PRECURSORTYPE: [M-H]-
FORMULA: C13H21NO3
Ontology: Benzyl alcohols
INCHIKEY: NDAUXUAQIAJITI-UHFFFAOYNA-N
SMILES: CC(C)(C)NCC(O)C1=CC(CO)=C(O)C=C1
RETENTIONTIME: 
CCS: 158.7566174
IONMODE: Negative
INSTRUMENTTYPE: LC-ESI-ITFT
INSTRUMENT: 
COLLISIONENERGY: 45
Comment: registered in MassBank
Num Peaks: 4
163.0638	217
190.1234	251
218.1189	1000
220.1346	432

NAME: Albuterol; LC-ESI-ITFT; MS2; CE
PRECURSORMZ: 238.144867
PRECURSORTYPE: [M-H]-
FORMULA: C13H21NO3
Ontology: Benzyl alcohols
INCHIKEY: NDAUXUAQIAJITI-UHFFFAOYNA-N
SMILES: CC(C)(C)NCC(O)C1=CC(CO)=C(O)C=C1
RETENTIONTIME: 
CCS: 158.7566174
IONMODE: Negative
INSTRUMENTTYPE: LC-ESI-ITFT
INSTRUMENT: 
COLLISIONENERGY: 60
Comment: registered in MassBank
Num Peaks: 3
163.06371	558
190.1234	1000
218.11909	821

NAME: Albuterol; LC-ESI-ITFT; MS2; CE
PRECURSORMZ: 238.144867
PRECURSORTYPE: [M-H]-
FORMULA: C13H21NO3
Ontology: Benzyl alcohols
INCHIKEY: NDAUXUAQIAJITI-UHFFFAOYNA-N
SMILES: CC(C)(C)NCC(O)C1=CC(CO)=C(O)C=C1
RETENTIONTIME: 
CCS: 158.7566174
IONMODE: Negative
INSTRUMENTTYPE: LC-ESI-ITFT
INSTRUMENT: 
COLLISIONENERGY: 75
Comment: registered in MassBank
Num Peaks: 1
190.1236	1000

NAME: Albuterol; LC-ESI-ITFT; MS2; CE
PRECURSORMZ: 238.144867
PRECURSORTYPE: [M-H]-
FORMULA: C13H21NO3
Ontology: Benzyl alcohols
INCHIKEY: NDAUXUAQIAJITI-UHFFFAOYNA-N
SMILES: CC(C)(C)NCC(O)C1=CC(CO)=C(O)C=C1
RETENTIONTIME: 
CCS: 158.7566174
IONMODE: Negative
INSTRUMENTTYPE: LC-ESI-ITFT
INSTRUMENT: 
COLLISIONENERGY: 35
Comment: registered in MassBank
Num Peaks: 2
218.1189	83
220.13451	1000

NAME: Amisulpride; LC-ESI-ITFT; MS2; CE
PRECURSORMZ: 368.164951
PRECURSORTYPE: [M-H]-
FORMULA: C17H27N3O4S
Ontology: Aminobenzamides
INCHIKEY: NTJOBXMMWNYJFB-UHFFFAOYNA-N
SMILES: CCN1CCCC1CN=C(O)C1=CC(=C(N)C=C1OC)S(=O)(=O)CC
RETENTIONTIME: 
CCS: 202.0668392
IONMODE: Negative
INSTRUMENTTYPE: LC-ESI-ITFT
INSTRUMENT: 
COLLISIONENERGY: 35
Comment: registered in MassBank
Num Peaks: 6
156.01241	137
184.0437	450
186.0229	175
214.0545	110
340.13351	1000
368.1665	10

NAME: Amisulpride; LC-ESI-ITFT; MS2; CE
PRECURSORMZ: 368.164951
PRECURSORTYPE: [M-H]-
FORMULA: C17H27N3O4S
Ontology: Aminobenzamides
INCHIKEY: NTJOBXMMWNYJFB-UHFFFAOYNA-N
SMILES: CCN1CCCC1CN=C(O)C1=CC(=C(N)C=C1OC)S(=O)(=O)CC
RETENTIONTIME: 
CCS: 202.0668392
IONMODE: Negative
INSTRUMENTTYPE: LC-ESI-ITFT
INSTRUMENT: 
COLLISIONENERGY: 30
Comment: registered in MassBank
Num Peaks: 3
156.0123	235
184.0432	293
368.1658	1000

NAME: Amisulpride; LC-ESI-ITFT; MS2; CE
PRECURSORMZ: 368.164951
PRECURSORTYPE: [M-H]-
FORMULA: C17H27N3O4S
Ontology: Aminobenzamides
INCHIKEY: NTJOBXMMWNYJFB-UHFFFAOYNA-N
SMILES: CCN1CCCC1CN=C(O)C1=CC(=C(N)C=C1OC)S(=O)(=O)CC
RETENTIONTIME: 
CCS: 202.0668392
IONMODE: Negative
INSTRUMENTTYPE: LC-ESI-ITFT
INSTRUMENT: 
COLLISIONENERGY: 45
Comment: registered in MassBank
Num Peaks: 5
156.0126	353
163.05209	338
184.04379	477
276.17331	1000
340.13321	615

NAME: Amisulpride; LC-ESI-ITFT; MS2; CE
PRECURSORMZ: 368.164951
PRECURSORTYPE: [M-H]-
FORMULA: C17H27N3O4S
Ontology: Aminobenzamides
INCHIKEY: NTJOBXMMWNYJFB-UHFFFAOYNA-N
SMILES: CCN1CCCC1CN=C(O)C1=CC(=C(N)C=C1OC)S(=O)(=O)CC
RETENTIONTIME: 
CCS: 202.0668392
IONMODE: Negative
INSTRUMENTTYPE: LC-ESI-ITFT
INSTRUMENT: 
COLLISIONENERGY: 60
Comment: registered in MassBank
Num Peaks: 2
134.02431	1000
163.0519	880

NAME: Amisulpride; LC-ESI-ITFT; MS2; CE
PRECURSORMZ: 368.164951
PRECURSORTYPE: [M-H]-
FORMULA: C17H27N3O4S
Ontology: Aminobenzamides
INCHIKEY: NTJOBXMMWNYJFB-UHFFFAOYNA-N
SMILES: CCN1CCCC1CN=C(O)C1=CC(=C(N)C=C1OC)S(=O)(=O)CC
RETENTIONTIME: 
CCS: 202.0668392
IONMODE: Negative
INSTRUMENTTYPE: LC-ESI-ITFT
INSTRUMENT: 
COLLISIONENERGY: 75
Comment: registered in MassBank
Num Peaks: 1
134.0242	1000

NAME: Amisulpride; LC-ESI-ITFT; MS2; CE
PRECURSORMZ: 368.164951
PRECURSORTYPE: [M-H]-
FORMULA: C17H27N3O4S
Ontology: Aminobenzamides
INCHIKEY: NTJOBXMMWNYJFB-UHFFFAOYNA-N
SMILES: CCN1CCCC1CN=C(O)C1=CC(=C(N)C=C1OC)S(=O)(=O)CC
RETENTIONTIME: 
CCS: 202.0668392
IONMODE: Negative
INSTRUMENTTYPE: LC-ESI-ITFT
INSTRUMENT: 
COLLISIONENERGY: 30
Comment: registered in MassBank
Num Peaks: 3
184.0437	249
340.133	599
368.16422	1000

NAME: Amisulpride; LC-ESI-ITFT; MS2; CE
PRECURSORMZ: 368.164951
PRECURSORTYPE: [M-H]-
FORMULA: C17H27N3O4S
Ontology: Aminobenzamides
INCHIKEY: NTJOBXMMWNYJFB-UHFFFAOYNA-N
SMILES: CCN1CCCC1CN=C(O)C1=CC(=C(N)C=C1OC)S(=O)(=O)CC
RETENTIONTIME: 
CCS: 202.0668392
IONMODE: Negative
INSTRUMENTTYPE: LC-ESI-ITFT
INSTRUMENT: 
COLLISIONENERGY: 45
Comment: registered in MassBank
Num Peaks: 3
156.01241	667
184.0437	675
276.17331	1000

NAME: Amisulpride; LC-ESI-ITFT; MS2; CE
PRECURSORMZ: 368.164951
PRECURSORTYPE: [M-H]-
FORMULA: C17H27N3O4S
Ontology: Aminobenzamides
INCHIKEY: NTJOBXMMWNYJFB-UHFFFAOYNA-N
SMILES: CCN1CCCC1CN=C(O)C1=CC(=C(N)C=C1OC)S(=O)(=O)CC
RETENTIONTIME: 
CCS: 202.0668392
IONMODE: Negative
INSTRUMENTTYPE: LC-ESI-ITFT
INSTRUMENT: 
COLLISIONENERGY: 35
Comment: registered in MassBank
Num Peaks: 5
156.0123	111
184.04359	358
186.0228	164
214.0545	64
340.13379	1000

NAME: Clopidogrel carboxylic acid; LC-ESI-ITFT; MS2; CE
PRECURSORMZ: 306.036101
PRECURSORTYPE: [M-H]-
FORMULA: C15H14ClNO2S
Ontology: Alpha amino acids
INCHIKEY: DCASRSISIKYPDD-UHFFFAOYNA-N
SMILES: OC(=O)C(N1CCC2=C(C1)C=CS2)C1=CC=CC=C1Cl
RETENTIONTIME: 
CCS: -1
IONMODE: Negative
INSTRUMENTTYPE: LC-ESI-ITFT
INSTRUMENT: 
COLLISIONENERGY: 35
Comment: registered in MassBank
Num Peaks: 1
262.0463	1000

NAME: Clopidogrel carboxylic acid; LC-ESI-ITFT; MS2; CE
PRECURSORMZ: 306.036101
PRECURSORTYPE: [M-H]-
FORMULA: C15H14ClNO2S
Ontology: Alpha amino acids
INCHIKEY: DCASRSISIKYPDD-UHFFFAOYNA-N
SMILES: OC(=O)C(N1CCC2=C(C1)C=CS2)C1=CC=CC=C1Cl
RETENTIONTIME: 
CCS: -1
IONMODE: Negative
INSTRUMENTTYPE: LC-ESI-ITFT
INSTRUMENT: 
COLLISIONENERGY: 35
Comment: registered in MassBank
Num Peaks: 1
262.0463	1000

NAME: Pravastatin; LC-ESI-ITFT; MS2; CE
PRECURSORMZ: 423.238827
PRECURSORTYPE: [M-H]-
FORMULA: C23H36O7
Ontology: Medium-chain hydroxy acids and derivatives
INCHIKEY: TUZYXOIXSAXUGO-PZAWKZKUSA-N
SMILES: CC[C@H](C)C(=O)O[C@H]1C[C@H](O)C=C2C=C[C@H](C)[C@H](CC[C@@H](O)C[C@@H](O)CC(O)=O)[C@@H]12
RETENTIONTIME: 
CCS: 202.5553464
IONMODE: Negative
INSTRUMENTTYPE: LC-ESI-ITFT
INSTRUMENT: 
COLLISIONENERGY: 35
Comment: registered in MassBank
Num Peaks: 6
141.0708	7
143.0867	16
199.11259	27
285.14929	39
303.15979	1000
321.17041	761

NAME: Pravastatin; LC-ESI-ITFT; MS2; CE
PRECURSORMZ: 423.238827
PRECURSORTYPE: [M-H]-
FORMULA: C23H36O7
Ontology: Medium-chain hydroxy acids and derivatives
INCHIKEY: TUZYXOIXSAXUGO-PZAWKZKUSA-N
SMILES: CC[C@H](C)C(=O)O[C@H]1C[C@H](O)C=C2C=C[C@H](C)[C@H](CC[C@@H](O)C[C@@H](O)CC(O)=O)[C@@H]12
RETENTIONTIME: 
CCS: 202.5553464
IONMODE: Negative
INSTRUMENTTYPE: LC-ESI-ITFT
INSTRUMENT: 
COLLISIONENERGY: 15
Comment: registered in MassBank
Num Peaks: 4
101.0606	13
303.16061	43
321.17041	212
423.23901	1000

NAME: Pravastatin; LC-ESI-ITFT; MS2; CE
PRECURSORMZ: 423.238827
PRECURSORTYPE: [M-H]-
FORMULA: C23H36O7
Ontology: Medium-chain hydroxy acids and derivatives
INCHIKEY: TUZYXOIXSAXUGO-PZAWKZKUSA-N
SMILES: CC[C@H](C)C(=O)O[C@H]1C[C@H](O)C=C2C=C[C@H](C)[C@H](CC[C@@H](O)C[C@@H](O)CC(O)=O)[C@@H]12
RETENTIONTIME: 
CCS: 202.5553464
IONMODE: Negative
INSTRUMENTTYPE: LC-ESI-ITFT
INSTRUMENT: 
COLLISIONENERGY: 30
Comment: registered in MassBank
Num Peaks: 8
59.0139	337
85.0297	179
101.0608	1000
141.0708	120
285.15021	40
303.15948	767
321.1705	385
423.23801	46

NAME: Pravastatin; LC-ESI-ITFT; MS2; CE
PRECURSORMZ: 423.238827
PRECURSORTYPE: [M-H]-
FORMULA: C23H36O7
Ontology: Medium-chain hydroxy acids and derivatives
INCHIKEY: TUZYXOIXSAXUGO-PZAWKZKUSA-N
SMILES: CC[C@H](C)C(=O)O[C@H]1C[C@H](O)C=C2C=C[C@H](C)[C@H](CC[C@@H](O)C[C@@H](O)CC(O)=O)[C@@H]12
RETENTIONTIME: 
CCS: 202.5553464
IONMODE: Negative
INSTRUMENTTYPE: LC-ESI-ITFT
INSTRUMENT: 
COLLISIONENERGY: 45
Comment: registered in MassBank
Num Peaks: 4
59.0138	161
85.0299	108
101.0607	1000
141.07159	48

NAME: Pravastatin; LC-ESI-ITFT; MS2; CE
PRECURSORMZ: 423.238827
PRECURSORTYPE: [M-H]-
FORMULA: C23H36O7
Ontology: Medium-chain hydroxy acids and derivatives
INCHIKEY: TUZYXOIXSAXUGO-PZAWKZKUSA-N
SMILES: CC[C@H](C)C(=O)O[C@H]1C[C@H](O)C=C2C=C[C@H](C)[C@H](CC[C@@H](O)C[C@@H](O)CC(O)=O)[C@@H]12
RETENTIONTIME: 
CCS: 202.5553464
IONMODE: Negative
INSTRUMENTTYPE: LC-ESI-ITFT
INSTRUMENT: 
COLLISIONENERGY: 60
Comment: registered in MassBank
Num Peaks: 3
59.0141	140
85.0296	67
101.0608	1000

NAME: Pravastatin; LC-ESI-ITFT; MS2; CE
PRECURSORMZ: 423.238827
PRECURSORTYPE: [M-H]-
FORMULA: C23H36O7
Ontology: Medium-chain hydroxy acids and derivatives
INCHIKEY: TUZYXOIXSAXUGO-PZAWKZKUSA-N
SMILES: CC[C@H](C)C(=O)O[C@H]1C[C@H](O)C=C2C=C[C@H](C)[C@H](CC[C@@H](O)C[C@@H](O)CC(O)=O)[C@@H]12
RETENTIONTIME: 
CCS: 202.5553464
IONMODE: Negative
INSTRUMENTTYPE: LC-ESI-ITFT
INSTRUMENT: 
COLLISIONENERGY: 75
Comment: registered in MassBank
Num Peaks: 2
59.014	206
101.0607	1000

NAME: Pravastatin; LC-ESI-ITFT; MS2; CE
PRECURSORMZ: 423.238827
PRECURSORTYPE: [M-H]-
FORMULA: C23H36O7
Ontology: Medium-chain hydroxy acids and derivatives
INCHIKEY: TUZYXOIXSAXUGO-PZAWKZKUSA-N
SMILES: CC[C@H](C)C(=O)O[C@H]1C[C@H](O)C=C2C=C[C@H](C)[C@H](CC[C@@H](O)C[C@@H](O)CC(O)=O)[C@@H]12
RETENTIONTIME: 
CCS: 202.5553464
IONMODE: Negative
INSTRUMENTTYPE: LC-ESI-ITFT
INSTRUMENT: 
COLLISIONENERGY: 90
Comment: registered in MassBank
Num Peaks: 2
59.0137	449
101.0609	1000

NAME: Pravastatin; LC-ESI-ITFT; MS2; CE
PRECURSORMZ: 423.238827
PRECURSORTYPE: [M-H]-
FORMULA: C23H36O7
Ontology: Medium-chain hydroxy acids and derivatives
INCHIKEY: TUZYXOIXSAXUGO-PZAWKZKUSA-N
SMILES: CC[C@H](C)C(=O)O[C@H]1C[C@H](O)C=C2C=C[C@H](C)[C@H](CC[C@@H](O)C[C@@H](O)CC(O)=O)[C@@H]12
RETENTIONTIME: 
CCS: 202.5553464
IONMODE: Negative
INSTRUMENTTYPE: LC-ESI-ITFT
INSTRUMENT: 
COLLISIONENERGY: 15
Comment: registered in MassBank
Num Peaks: 3
303.15979	55
321.17068	200
423.23831	1000

NAME: Pravastatin; LC-ESI-ITFT; MS2; CE
PRECURSORMZ: 423.238827
PRECURSORTYPE: [M-H]-
FORMULA: C23H36O7
Ontology: Medium-chain hydroxy acids and derivatives
INCHIKEY: TUZYXOIXSAXUGO-PZAWKZKUSA-N
SMILES: CC[C@H](C)C(=O)O[C@H]1C[C@H](O)C=C2C=C[C@H](C)[C@H](CC[C@@H](O)C[C@@H](O)CC(O)=O)[C@@H]12
RETENTIONTIME: 
CCS: 202.5553464
IONMODE: Negative
INSTRUMENTTYPE: LC-ESI-ITFT
INSTRUMENT: 
COLLISIONENERGY: 30
Comment: registered in MassBank
Num Peaks: 7
59.0139	337
85.0293	208
101.0607	1000
141.071	92
303.16	744
321.1702	535
423.2384	72

NAME: Pravastatin; LC-ESI-ITFT; MS2; CE
PRECURSORMZ: 423.238827
PRECURSORTYPE: [M-H]-
FORMULA: C23H36O7
Ontology: Medium-chain hydroxy acids and derivatives
INCHIKEY: TUZYXOIXSAXUGO-PZAWKZKUSA-N
SMILES: CC[C@H](C)C(=O)O[C@H]1C[C@H](O)C=C2C=C[C@H](C)[C@H](CC[C@@H](O)C[C@@H](O)CC(O)=O)[C@@H]12
RETENTIONTIME: 
CCS: 202.5553464
IONMODE: Negative
INSTRUMENTTYPE: LC-ESI-ITFT
INSTRUMENT: 
COLLISIONENERGY: 45
Comment: registered in MassBank
Num Peaks: 4
59.0138	190
85.0292	139
101.0606	1000
141.0703	83

NAME: Pravastatin; LC-ESI-ITFT; MS2; CE
PRECURSORMZ: 423.238827
PRECURSORTYPE: [M-H]-
FORMULA: C23H36O7
Ontology: Medium-chain hydroxy acids and derivatives
INCHIKEY: TUZYXOIXSAXUGO-PZAWKZKUSA-N
SMILES: CC[C@H](C)C(=O)O[C@H]1C[C@H](O)C=C2C=C[C@H](C)[C@H](CC[C@@H](O)C[C@@H](O)CC(O)=O)[C@@H]12
RETENTIONTIME: 
CCS: 202.5553464
IONMODE: Negative
INSTRUMENTTYPE: LC-ESI-ITFT
INSTRUMENT: 
COLLISIONENERGY: 60
Comment: registered in MassBank
Num Peaks: 3
59.0138	140
85.0297	116
101.0606	1000

NAME: Pravastatin; LC-ESI-ITFT; MS2; CE
PRECURSORMZ: 423.238827
PRECURSORTYPE: [M-H]-
FORMULA: C23H36O7
Ontology: Medium-chain hydroxy acids and derivatives
INCHIKEY: TUZYXOIXSAXUGO-PZAWKZKUSA-N
SMILES: CC[C@H](C)C(=O)O[C@H]1C[C@H](O)C=C2C=C[C@H](C)[C@H](CC[C@@H](O)C[C@@H](O)CC(O)=O)[C@@H]12
RETENTIONTIME: 
CCS: 202.5553464
IONMODE: Negative
INSTRUMENTTYPE: LC-ESI-ITFT
INSTRUMENT: 
COLLISIONENERGY: 75
Comment: registered in MassBank
Num Peaks: 2
59.0138	244
101.0607	1000

NAME: Pravastatin; LC-ESI-ITFT; MS2; CE
PRECURSORMZ: 423.238827
PRECURSORTYPE: [M-H]-
FORMULA: C23H36O7
Ontology: Medium-chain hydroxy acids and derivatives
INCHIKEY: TUZYXOIXSAXUGO-PZAWKZKUSA-N
SMILES: CC[C@H](C)C(=O)O[C@H]1C[C@H](O)C=C2C=C[C@H](C)[C@H](CC[C@@H](O)C[C@@H](O)CC(O)=O)[C@@H]12
RETENTIONTIME: 
CCS: 202.5553464
IONMODE: Negative
INSTRUMENTTYPE: LC-ESI-ITFT
INSTRUMENT: 
COLLISIONENERGY: 90
Comment: registered in MassBank
Num Peaks: 1
101.0606	1000

NAME: Pravastatin; LC-ESI-ITFT; MS2; CE
PRECURSORMZ: 423.238827
PRECURSORTYPE: [M-H]-
FORMULA: C23H36O7
Ontology: Medium-chain hydroxy acids and derivatives
INCHIKEY: TUZYXOIXSAXUGO-PZAWKZKUSA-N
SMILES: CC[C@H](C)C(=O)O[C@H]1C[C@H](O)C=C2C=C[C@H](C)[C@H](CC[C@@H](O)C[C@@H](O)CC(O)=O)[C@@H]12
RETENTIONTIME: 
CCS: 202.5553464
IONMODE: Negative
INSTRUMENTTYPE: LC-ESI-ITFT
INSTRUMENT: 
COLLISIONENERGY: 35
Comment: registered in MassBank
Num Peaks: 5
143.08659	7
199.1127	16
285.14929	26
303.1597	1000
321.1701	769

NAME: Perfluorooctane sulfonamidoacetic acid; LC-ESI-ITFT; MS2; CE
PRECURSORMZ: 555.951681
PRECURSORTYPE: [M-H]-
FORMULA: C10H4F17NO4S
Ontology: Perfluorooctane sulfonic acid and derivatives
INCHIKEY: AYLOUUCBACYHAB-UHFFFAOYSA-N
SMILES: OC(=O)CNS(=O)(=O)C(F)(F)C(F)(F)C(F)(F)C(F)(F)C(F)(F)C(F)(F)C(F)(F)C(F)(F)F
RETENTIONTIME: 
CCS: -1
IONMODE: Negative
INSTRUMENTTYPE: LC-ESI-ITFT
INSTRUMENT: 
COLLISIONENERGY: 35
Comment: registered in MassBank
Num Peaks: 4
168.9895	60
218.98599	255
418.9733	553
497.94589	1000

NAME: Perfluorooctane sulfonamidoacetic acid; LC-ESI-ITFT; MS2; CE
PRECURSORMZ: 555.951681
PRECURSORTYPE: [M-H]-
FORMULA: C10H4F17NO4S
Ontology: Perfluorooctane sulfonic acid and derivatives
INCHIKEY: AYLOUUCBACYHAB-UHFFFAOYSA-N
SMILES: OC(=O)CNS(=O)(=O)C(F)(F)C(F)(F)C(F)(F)C(F)(F)C(F)(F)C(F)(F)C(F)(F)C(F)(F)F
RETENTIONTIME: 
CCS: -1
IONMODE: Negative
INSTRUMENTTYPE: LC-ESI-ITFT
INSTRUMENT: 
COLLISIONENERGY: 45
Comment: registered in MassBank
Num Peaks: 1
168.9894	1000

NAME: Perfluorooctane sulfonamidoacetic acid; LC-ESI-ITFT; MS2; CE
PRECURSORMZ: 555.951681
PRECURSORTYPE: [M-H]-
FORMULA: C10H4F17NO4S
Ontology: Perfluorooctane sulfonic acid and derivatives
INCHIKEY: AYLOUUCBACYHAB-UHFFFAOYSA-N
SMILES: OC(=O)CNS(=O)(=O)C(F)(F)C(F)(F)C(F)(F)C(F)(F)C(F)(F)C(F)(F)C(F)(F)C(F)(F)F
RETENTIONTIME: 
CCS: -1
IONMODE: Negative
INSTRUMENTTYPE: LC-ESI-ITFT
INSTRUMENT: 
COLLISIONENERGY: 60
Comment: registered in MassBank
Num Peaks: 1
77.9653	1000

NAME: Perfluorooctane sulfonamidoacetic acid; LC-ESI-ITFT; MS2; CE
PRECURSORMZ: 555.951681
PRECURSORTYPE: [M-H]-
FORMULA: C10H4F17NO4S
Ontology: Perfluorooctane sulfonic acid and derivatives
INCHIKEY: AYLOUUCBACYHAB-UHFFFAOYSA-N
SMILES: OC(=O)CNS(=O)(=O)C(F)(F)C(F)(F)C(F)(F)C(F)(F)C(F)(F)C(F)(F)C(F)(F)C(F)(F)F
RETENTIONTIME: 
CCS: -1
IONMODE: Negative
INSTRUMENTTYPE: LC-ESI-ITFT
INSTRUMENT: 
COLLISIONENERGY: 30
Comment: registered in MassBank
Num Peaks: 2
218.9859	1000
555.95367	590

NAME: Perfluorooctane sulfonamidoacetic acid; LC-ESI-ITFT; MS2; CE
PRECURSORMZ: 555.951681
PRECURSORTYPE: [M-H]-
FORMULA: C10H4F17NO4S
Ontology: Perfluorooctane sulfonic acid and derivatives
INCHIKEY: AYLOUUCBACYHAB-UHFFFAOYSA-N
SMILES: OC(=O)CNS(=O)(=O)C(F)(F)C(F)(F)C(F)(F)C(F)(F)C(F)(F)C(F)(F)C(F)(F)C(F)(F)F
RETENTIONTIME: 
CCS: -1
IONMODE: Negative
INSTRUMENTTYPE: LC-ESI-ITFT
INSTRUMENT: 
COLLISIONENERGY: 45
Comment: registered in MassBank
Num Peaks: 2
77.9654	913
168.9892	1000

NAME: Perfluorooctane sulfonamidoacetic acid; LC-ESI-ITFT; MS2; CE
PRECURSORMZ: 555.951681
PRECURSORTYPE: [M-H]-
FORMULA: C10H4F17NO4S
Ontology: Perfluorooctane sulfonic acid and derivatives
INCHIKEY: AYLOUUCBACYHAB-UHFFFAOYSA-N
SMILES: OC(=O)CNS(=O)(=O)C(F)(F)C(F)(F)C(F)(F)C(F)(F)C(F)(F)C(F)(F)C(F)(F)C(F)(F)F
RETENTIONTIME: 
CCS: -1
IONMODE: Negative
INSTRUMENTTYPE: LC-ESI-ITFT
INSTRUMENT: 
COLLISIONENERGY: 60
Comment: registered in MassBank
Num Peaks: 2
77.9654	966
555.95282	1000

NAME: N-methylperfluorooctane sulfonamidoacetic acid; LC-ESI-ITFT; MS2; CE
PRECURSORMZ: 569.967331
PRECURSORTYPE: [M-H]-
FORMULA: C11H6F17NO4S
Ontology: Perfluorooctane sulfonic acid and derivatives
INCHIKEY: QNDHIRFIMVNHBN-UHFFFAOYSA-N
SMILES: CN(CC(O)=O)S(=O)(=O)C(F)(F)C(F)(F)C(F)(F)C(F)(F)C(F)(F)C(F)(F)C(F)(F)C(F)(F)F
RETENTIONTIME: 
CCS: 181.9545852
IONMODE: Negative
INSTRUMENTTYPE: LC-ESI-ITFT
INSTRUMENT: 
COLLISIONENERGY: 35
Comment: registered in MassBank
Num Peaks: 5
168.9888	15
218.9854	57
418.9726	1000
482.93451	670
511.96069	207

NAME: N-methylperfluorooctane sulfonamidoacetic acid; LC-ESI-ITFT; MS2; CE
PRECURSORMZ: 569.967331
PRECURSORTYPE: [M-H]-
FORMULA: C11H6F17NO4S
Ontology: Perfluorooctane sulfonic acid and derivatives
INCHIKEY: QNDHIRFIMVNHBN-UHFFFAOYSA-N
SMILES: CN(CC(O)=O)S(=O)(=O)C(F)(F)C(F)(F)C(F)(F)C(F)(F)C(F)(F)C(F)(F)C(F)(F)C(F)(F)F
RETENTIONTIME: 
CCS: 181.9545852
IONMODE: Negative
INSTRUMENTTYPE: LC-ESI-ITFT
INSTRUMENT: 
COLLISIONENERGY: 30
Comment: registered in MassBank
Num Peaks: 2
168.9892	657
218.98621	1000

NAME: N-Ethylperfluorooctane sulfonamidoacetic acid; LC-ESI-ITFT; MS2; CE
PRECURSORMZ: 583.982981
PRECURSORTYPE: [M-H]-
FORMULA: C12H8F17NO4S
Ontology: Perfluorooctane sulfonic acid and derivatives
INCHIKEY: CKRXVVGETMYFIO-UHFFFAOYSA-N
SMILES: CCN(CC(O)=O)S(=O)(=O)C(F)(F)C(F)(F)C(F)(F)C(F)(F)C(F)(F)C(F)(F)C(F)(F)C(F)(F)F
RETENTIONTIME: 
CCS: 187.7846215
IONMODE: Negative
INSTRUMENTTYPE: LC-ESI-ITFT
INSTRUMENT: 
COLLISIONENERGY: 35
Comment: registered in MassBank
Num Peaks: 6
168.9881	15
218.9855	105
268.98331	26
418.97269	1000
482.93469	691
525.97662	472

NAME: N-Ethylperfluorooctane sulfonamidoacetic acid; LC-ESI-ITFT; MS2; CE
PRECURSORMZ: 583.982981
PRECURSORTYPE: [M-H]-
FORMULA: C12H8F17NO4S
Ontology: Perfluorooctane sulfonic acid and derivatives
INCHIKEY: CKRXVVGETMYFIO-UHFFFAOYSA-N
SMILES: CCN(CC(O)=O)S(=O)(=O)C(F)(F)C(F)(F)C(F)(F)C(F)(F)C(F)(F)C(F)(F)C(F)(F)C(F)(F)F
RETENTIONTIME: 
CCS: 187.7846215
IONMODE: Negative
INSTRUMENTTYPE: LC-ESI-ITFT
INSTRUMENT: 
COLLISIONENERGY: 30
Comment: registered in MassBank
Num Peaks: 2
168.98959	969
218.9856	1000

NAME: N-Ethylperfluorooctane sulfonamidoacetic acid; LC-ESI-ITFT; MS2; CE
PRECURSORMZ: 583.982981
PRECURSORTYPE: [M-H]-
FORMULA: C12H8F17NO4S
Ontology: Perfluorooctane sulfonic acid and derivatives
INCHIKEY: CKRXVVGETMYFIO-UHFFFAOYSA-N
SMILES: CCN(CC(O)=O)S(=O)(=O)C(F)(F)C(F)(F)C(F)(F)C(F)(F)C(F)(F)C(F)(F)C(F)(F)C(F)(F)F
RETENTIONTIME: 
CCS: 187.7846215
IONMODE: Negative
INSTRUMENTTYPE: LC-ESI-ITFT
INSTRUMENT: 
COLLISIONENERGY: 15
Comment: registered in MassBank
Num Peaks: 1
525.97809	1000

NAME: N-Ethylperfluorooctane sulfonamidoacetic acid; LC-ESI-ITFT; MS2; CE
PRECURSORMZ: 583.982981
PRECURSORTYPE: [M-H]-
FORMULA: C12H8F17NO4S
Ontology: Perfluorooctane sulfonic acid and derivatives
INCHIKEY: CKRXVVGETMYFIO-UHFFFAOYSA-N
SMILES: CCN(CC(O)=O)S(=O)(=O)C(F)(F)C(F)(F)C(F)(F)C(F)(F)C(F)(F)C(F)(F)C(F)(F)C(F)(F)F
RETENTIONTIME: 
CCS: 187.7846215
IONMODE: Negative
INSTRUMENTTYPE: LC-ESI-ITFT
INSTRUMENT: 
COLLISIONENERGY: 30
Comment: registered in MassBank
Num Peaks: 3
168.9894	672
218.9856	1000
268.98181	329

NAME: N-Ethylperfluorooctane sulfonamidoacetic acid; LC-ESI-ITFT; MS2; CE
PRECURSORMZ: 583.982981
PRECURSORTYPE: [M-H]-
FORMULA: C12H8F17NO4S
Ontology: Perfluorooctane sulfonic acid and derivatives
INCHIKEY: CKRXVVGETMYFIO-UHFFFAOYSA-N
SMILES: CCN(CC(O)=O)S(=O)(=O)C(F)(F)C(F)(F)C(F)(F)C(F)(F)C(F)(F)C(F)(F)C(F)(F)C(F)(F)F
RETENTIONTIME: 
CCS: 187.7846215
IONMODE: Negative
INSTRUMENTTYPE: LC-ESI-ITFT
INSTRUMENT: 
COLLISIONENERGY: 45
Comment: registered in MassBank
Num Peaks: 1
168.989	1000

NAME: Perfluorooctyl phosphate; LC-ESI-ITFT; MS2; CE
PRECURSORMZ: 442.972335
PRECURSORTYPE: [M-H]-
FORMULA: C8H6F13O4P
Ontology: Monoalkyl phosphates
INCHIKEY: FZTRDYSPWWJCOF-UHFFFAOYSA-N
SMILES: OP(O)(=O)OCCC(F)(F)C(F)(F)C(F)(F)C(F)(F)C(F)(F)C(F)(F)F
RETENTIONTIME: 
CCS: -1
IONMODE: Negative
INSTRUMENTTYPE: LC-ESI-ITFT
INSTRUMENT: 
COLLISIONENERGY: 35
Comment: registered in MassBank
Num Peaks: 2
422.9653	1000
442.97049	41

NAME: Perfluorooctyl phosphate; LC-ESI-ITFT; MS2; CE
PRECURSORMZ: 442.972335
PRECURSORTYPE: [M-H]-
FORMULA: C8H6F13O4P
Ontology: Monoalkyl phosphates
INCHIKEY: FZTRDYSPWWJCOF-UHFFFAOYSA-N
SMILES: OP(O)(=O)OCCC(F)(F)C(F)(F)C(F)(F)C(F)(F)C(F)(F)C(F)(F)F
RETENTIONTIME: 
CCS: -1
IONMODE: Negative
INSTRUMENTTYPE: LC-ESI-ITFT
INSTRUMENT: 
COLLISIONENERGY: 15
Comment: registered in MassBank
Num Peaks: 2
96.9693	1000
442.97369	209

NAME: Perfluorooctyl phosphate; LC-ESI-ITFT; MS2; CE
PRECURSORMZ: 442.972335
PRECURSORTYPE: [M-H]-
FORMULA: C8H6F13O4P
Ontology: Monoalkyl phosphates
INCHIKEY: FZTRDYSPWWJCOF-UHFFFAOYSA-N
SMILES: OP(O)(=O)OCCC(F)(F)C(F)(F)C(F)(F)C(F)(F)C(F)(F)C(F)(F)F
RETENTIONTIME: 
CCS: -1
IONMODE: Negative
INSTRUMENTTYPE: LC-ESI-ITFT
INSTRUMENT: 
COLLISIONENERGY: 30
Comment: registered in MassBank
Num Peaks: 2
78.9591	165
96.9695	1000

NAME: Perfluorooctyl phosphate; LC-ESI-ITFT; MS2; CE
PRECURSORMZ: 442.972335
PRECURSORTYPE: [M-H]-
FORMULA: C8H6F13O4P
Ontology: Monoalkyl phosphates
INCHIKEY: FZTRDYSPWWJCOF-UHFFFAOYSA-N
SMILES: OP(O)(=O)OCCC(F)(F)C(F)(F)C(F)(F)C(F)(F)C(F)(F)C(F)(F)F
RETENTIONTIME: 
CCS: -1
IONMODE: Negative
INSTRUMENTTYPE: LC-ESI-ITFT
INSTRUMENT: 
COLLISIONENERGY: 45
Comment: registered in MassBank
Num Peaks: 2
78.9589	293
96.9694	1000

NAME: Perfluorooctyl phosphate; LC-ESI-ITFT; MS2; CE
PRECURSORMZ: 442.972335
PRECURSORTYPE: [M-H]-
FORMULA: C8H6F13O4P
Ontology: Monoalkyl phosphates
INCHIKEY: FZTRDYSPWWJCOF-UHFFFAOYSA-N
SMILES: OP(O)(=O)OCCC(F)(F)C(F)(F)C(F)(F)C(F)(F)C(F)(F)C(F)(F)F
RETENTIONTIME: 
CCS: -1
IONMODE: Negative
INSTRUMENTTYPE: LC-ESI-ITFT
INSTRUMENT: 
COLLISIONENERGY: 75
Comment: registered in MassBank
Num Peaks: 2
78.959	1000
96.9696	821

NAME: Perfluorooctyl phosphate; LC-ESI-ITFT; MS2; CE
PRECURSORMZ: 442.972335
PRECURSORTYPE: [M-H]-
FORMULA: C8H6F13O4P
Ontology: Monoalkyl phosphates
INCHIKEY: FZTRDYSPWWJCOF-UHFFFAOYSA-N
SMILES: OP(O)(=O)OCCC(F)(F)C(F)(F)C(F)(F)C(F)(F)C(F)(F)C(F)(F)F
RETENTIONTIME: 
CCS: -1
IONMODE: Negative
INSTRUMENTTYPE: LC-ESI-ITFT
INSTRUMENT: 
COLLISIONENERGY: 15
Comment: registered in MassBank
Num Peaks: 2
96.9696	1000
205.01489	308

NAME: Perfluorooctyl phosphate; LC-ESI-ITFT; MS2; CE
PRECURSORMZ: 442.972335
PRECURSORTYPE: [M-H]-
FORMULA: C8H6F13O4P
Ontology: Monoalkyl phosphates
INCHIKEY: FZTRDYSPWWJCOF-UHFFFAOYSA-N
SMILES: OP(O)(=O)OCCC(F)(F)C(F)(F)C(F)(F)C(F)(F)C(F)(F)C(F)(F)F
RETENTIONTIME: 
CCS: -1
IONMODE: Negative
INSTRUMENTTYPE: LC-ESI-ITFT
INSTRUMENT: 
COLLISIONENERGY: 30
Comment: registered in MassBank
Num Peaks: 2
78.959	228
96.9694	1000

NAME: Perfluorooctyl phosphate; LC-ESI-ITFT; MS2; CE
PRECURSORMZ: 442.972335
PRECURSORTYPE: [M-H]-
FORMULA: C8H6F13O4P
Ontology: Monoalkyl phosphates
INCHIKEY: FZTRDYSPWWJCOF-UHFFFAOYSA-N
SMILES: OP(O)(=O)OCCC(F)(F)C(F)(F)C(F)(F)C(F)(F)C(F)(F)C(F)(F)F
RETENTIONTIME: 
CCS: -1
IONMODE: Negative
INSTRUMENTTYPE: LC-ESI-ITFT
INSTRUMENT: 
COLLISIONENERGY: 45
Comment: registered in MassBank
Num Peaks: 3
78.9591	181
96.9695	1000
205.0148	154

NAME: Perfluorooctyl phosphate; LC-ESI-ITFT; MS2; CE
PRECURSORMZ: 442.972335
PRECURSORTYPE: [M-H]-
FORMULA: C8H6F13O4P
Ontology: Monoalkyl phosphates
INCHIKEY: FZTRDYSPWWJCOF-UHFFFAOYSA-N
SMILES: OP(O)(=O)OCCC(F)(F)C(F)(F)C(F)(F)C(F)(F)C(F)(F)C(F)(F)F
RETENTIONTIME: 
CCS: -1
IONMODE: Negative
INSTRUMENTTYPE: LC-ESI-ITFT
INSTRUMENT: 
COLLISIONENERGY: 60
Comment: registered in MassBank
Num Peaks: 2
78.959	673
96.9696	1000

NAME: Perfluorooctyl phosphate; LC-ESI-ITFT; MS2; CE
PRECURSORMZ: 442.972335
PRECURSORTYPE: [M-H]-
FORMULA: C8H6F13O4P
Ontology: Monoalkyl phosphates
INCHIKEY: FZTRDYSPWWJCOF-UHFFFAOYSA-N
SMILES: OP(O)(=O)OCCC(F)(F)C(F)(F)C(F)(F)C(F)(F)C(F)(F)C(F)(F)F
RETENTIONTIME: 
CCS: -1
IONMODE: Negative
INSTRUMENTTYPE: LC-ESI-ITFT
INSTRUMENT: 
COLLISIONENERGY: 75
Comment: registered in MassBank
Num Peaks: 2
78.959	1000
96.9695	620

NAME: Teflubenzuron; LC-ESI-ITFT; MS2; CE
PRECURSORMZ: 378.966969
PRECURSORTYPE: [M-H]-
FORMULA: C14H6Cl2F4N2O2
Ontology: Dichlorobenzenes
INCHIKEY: CJDWRQLODFKPEL-UHFFFAOYSA-N
SMILES: OC(N=C(O)C1=C(F)C=CC=C1F)=NC1=C(F)C(Cl)=C(F)C(Cl)=C1
RETENTIONTIME: 
CCS: 163.5817967
IONMODE: Negative
INSTRUMENTTYPE: LC-ESI-ITFT
INSTRUMENT: 
COLLISIONENERGY: 30
Comment: registered in MassBank
Num Peaks: 1
218.0316	1000

NAME: Teflubenzuron; LC-ESI-ITFT; MS2; CE
PRECURSORMZ: 378.966969
PRECURSORTYPE: [M-H]-
FORMULA: C14H6Cl2F4N2O2
Ontology: Dichlorobenzenes
INCHIKEY: CJDWRQLODFKPEL-UHFFFAOYSA-N
SMILES: OC(N=C(O)C1=C(F)C=CC=C1F)=NC1=C(F)C(Cl)=C(F)C(Cl)=C1
RETENTIONTIME: 
CCS: 163.5817967
IONMODE: Negative
INSTRUMENTTYPE: LC-ESI-ITFT
INSTRUMENT: 
COLLISIONENERGY: 60
Comment: registered in MassBank
Num Peaks: 1
218.03169	1000

NAME: Teflubenzuron; LC-ESI-ITFT; MS2; CE
PRECURSORMZ: 378.966969
PRECURSORTYPE: [M-H]-
FORMULA: C14H6Cl2F4N2O2
Ontology: Dichlorobenzenes
INCHIKEY: CJDWRQLODFKPEL-UHFFFAOYSA-N
SMILES: OC(N=C(O)C1=C(F)C=CC=C1F)=NC1=C(F)C(Cl)=C(F)C(Cl)=C1
RETENTIONTIME: 
CCS: 163.5817967
IONMODE: Negative
INSTRUMENTTYPE: LC-ESI-ITFT
INSTRUMENT: 
COLLISIONENERGY: 75
Comment: registered in MassBank
Num Peaks: 1
218.03169	1000

NAME: Clothianidin; LC-ESI-ITFT; MS2; CE
PRECURSORMZ: 248.001446
PRECURSORTYPE: [M-H]-
FORMULA: C6H8ClN5O2S
Ontology: 2,5-disubstituted thiazoles
INCHIKEY: PGOOBECODWQEAB-UHFFFAOYSA-N
SMILES: CN=C(NCC1=CN=C(Cl)S1)NN(=O)=O
RETENTIONTIME: 
CCS: 148.3460381
IONMODE: Negative
INSTRUMENTTYPE: LC-ESI-ITFT
INSTRUMENT: 
COLLISIONENERGY: 35
Comment: registered in MassBank
Num Peaks: 8
57.9757	17
111.0026	619
122.0359	14
151.00861	204
165.0242	173
166.0322	1000
168.024	155
212.02499	446

NAME: Clothianidin; LC-ESI-ITFT; MS2; CE
PRECURSORMZ: 248.001446
PRECURSORTYPE: [M-H]-
FORMULA: C6H8ClN5O2S
Ontology: 2,5-disubstituted thiazoles
INCHIKEY: PGOOBECODWQEAB-UHFFFAOYSA-N
SMILES: CN=C(NCC1=CN=C(Cl)S1)NN(=O)=O
RETENTIONTIME: 
CCS: 148.3460381
IONMODE: Negative
INSTRUMENTTYPE: LC-ESI-ITFT
INSTRUMENT: 
COLLISIONENERGY: 15
Comment: registered in MassBank
Num Peaks: 6
57.9757	256
111.002	56
165.0239	71
166.0316	138
212.0247	102
248.0009	1000

NAME: Clothianidin; LC-ESI-ITFT; MS2; CE
PRECURSORMZ: 248.001446
PRECURSORTYPE: [M-H]-
FORMULA: C6H8ClN5O2S
Ontology: 2,5-disubstituted thiazoles
INCHIKEY: PGOOBECODWQEAB-UHFFFAOYSA-N
SMILES: CN=C(NCC1=CN=C(Cl)S1)NN(=O)=O
RETENTIONTIME: 
CCS: 148.3460381
IONMODE: Negative
INSTRUMENTTYPE: LC-ESI-ITFT
INSTRUMENT: 
COLLISIONENERGY: 30
Comment: registered in MassBank
Num Peaks: 2
57.9757	1000
165.0237	579

NAME: Clothianidin; LC-ESI-ITFT; MS2; CE
PRECURSORMZ: 248.001446
PRECURSORTYPE: [M-H]-
FORMULA: C6H8ClN5O2S
Ontology: 2,5-disubstituted thiazoles
INCHIKEY: PGOOBECODWQEAB-UHFFFAOYSA-N
SMILES: CN=C(NCC1=CN=C(Cl)S1)NN(=O)=O
RETENTIONTIME: 
CCS: 148.3460381
IONMODE: Negative
INSTRUMENTTYPE: LC-ESI-ITFT
INSTRUMENT: 
COLLISIONENERGY: 45
Comment: registered in MassBank
Num Peaks: 3
57.9758	1000
165.0239	758
248.0016	554

NAME: Clothianidin; LC-ESI-ITFT; MS2; CE
PRECURSORMZ: 248.001446
PRECURSORTYPE: [M-H]-
FORMULA: C6H8ClN5O2S
Ontology: 2,5-disubstituted thiazoles
INCHIKEY: PGOOBECODWQEAB-UHFFFAOYSA-N
SMILES: CN=C(NCC1=CN=C(Cl)S1)NN(=O)=O
RETENTIONTIME: 
CCS: 148.3460381
IONMODE: Negative
INSTRUMENTTYPE: LC-ESI-ITFT
INSTRUMENT: 
COLLISIONENERGY: 60
Comment: registered in MassBank
Num Peaks: 3
57.9756	1000
150.00079	601
165.0248	428

NAME: Clothianidin; LC-ESI-ITFT; MS2; CE
PRECURSORMZ: 248.001446
PRECURSORTYPE: [M-H]-
FORMULA: C6H8ClN5O2S
Ontology: 2,5-disubstituted thiazoles
INCHIKEY: PGOOBECODWQEAB-UHFFFAOYSA-N
SMILES: CN=C(NCC1=CN=C(Cl)S1)NN(=O)=O
RETENTIONTIME: 
CCS: 148.3460381
IONMODE: Negative
INSTRUMENTTYPE: LC-ESI-ITFT
INSTRUMENT: 
COLLISIONENERGY: 75
Comment: registered in MassBank
Num Peaks: 1
57.9757	1000

NAME: Clothianidin; LC-ESI-ITFT; MS2; CE
PRECURSORMZ: 248.001446
PRECURSORTYPE: [M-H]-
FORMULA: C6H8ClN5O2S
Ontology: 2,5-disubstituted thiazoles
INCHIKEY: PGOOBECODWQEAB-UHFFFAOYSA-N
SMILES: CN=C(NCC1=CN=C(Cl)S1)NN(=O)=O
RETENTIONTIME: 
CCS: 148.3460381
IONMODE: Negative
INSTRUMENTTYPE: LC-ESI-ITFT
INSTRUMENT: 
COLLISIONENERGY: 90
Comment: registered in MassBank
Num Peaks: 1
57.9757	1000

NAME: Clothianidin; LC-ESI-ITFT; MS2; CE
PRECURSORMZ: 248.001446
PRECURSORTYPE: [M-H]-
FORMULA: C6H8ClN5O2S
Ontology: 2,5-disubstituted thiazoles
INCHIKEY: PGOOBECODWQEAB-UHFFFAOYSA-N
SMILES: CN=C(NCC1=CN=C(Cl)S1)NN(=O)=O
RETENTIONTIME: 
CCS: 148.3460381
IONMODE: Negative
INSTRUMENTTYPE: LC-ESI-ITFT
INSTRUMENT: 
COLLISIONENERGY: 15
Comment: registered in MassBank
Num Peaks: 7
57.9757	243
111.0023	54
165.0244	65
166.03191	128
195.94569	59
212.0242	114
248.0014	1000

NAME: Clothianidin; LC-ESI-ITFT; MS2; CE
PRECURSORMZ: 248.001446
PRECURSORTYPE: [M-H]-
FORMULA: C6H8ClN5O2S
Ontology: 2,5-disubstituted thiazoles
INCHIKEY: PGOOBECODWQEAB-UHFFFAOYSA-N
SMILES: CN=C(NCC1=CN=C(Cl)S1)NN(=O)=O
RETENTIONTIME: 
CCS: 148.3460381
IONMODE: Negative
INSTRUMENTTYPE: LC-ESI-ITFT
INSTRUMENT: 
COLLISIONENERGY: 30
Comment: registered in MassBank
Num Peaks: 3
57.9757	1000
111.0023	196
165.0239	634

NAME: Clothianidin; LC-ESI-ITFT; MS2; CE
PRECURSORMZ: 248.001446
PRECURSORTYPE: [M-H]-
FORMULA: C6H8ClN5O2S
Ontology: 2,5-disubstituted thiazoles
INCHIKEY: PGOOBECODWQEAB-UHFFFAOYSA-N
SMILES: CN=C(NCC1=CN=C(Cl)S1)NN(=O)=O
RETENTIONTIME: 
CCS: 148.3460381
IONMODE: Negative
INSTRUMENTTYPE: LC-ESI-ITFT
INSTRUMENT: 
COLLISIONENERGY: 45
Comment: registered in MassBank
Num Peaks: 6
57.9757	1000
122.0361	162
150.0006	396
165.02431	813
166.0321	217
195.94659	193

NAME: Clothianidin; LC-ESI-ITFT; MS2; CE
PRECURSORMZ: 248.001446
PRECURSORTYPE: [M-H]-
FORMULA: C6H8ClN5O2S
Ontology: 2,5-disubstituted thiazoles
INCHIKEY: PGOOBECODWQEAB-UHFFFAOYSA-N
SMILES: CN=C(NCC1=CN=C(Cl)S1)NN(=O)=O
RETENTIONTIME: 
CCS: 148.3460381
IONMODE: Negative
INSTRUMENTTYPE: LC-ESI-ITFT
INSTRUMENT: 
COLLISIONENERGY: 60
Comment: registered in MassBank
Num Peaks: 4
57.9757	1000
150.0004	501
165.024	381
195.94611	513

NAME: Clothianidin; LC-ESI-ITFT; MS2; CE
PRECURSORMZ: 248.001446
PRECURSORTYPE: [M-H]-
FORMULA: C6H8ClN5O2S
Ontology: 2,5-disubstituted thiazoles
INCHIKEY: PGOOBECODWQEAB-UHFFFAOYSA-N
SMILES: CN=C(NCC1=CN=C(Cl)S1)NN(=O)=O
RETENTIONTIME: 
CCS: 148.3460381
IONMODE: Negative
INSTRUMENTTYPE: LC-ESI-ITFT
INSTRUMENT: 
COLLISIONENERGY: 75
Comment: registered in MassBank
Num Peaks: 2
57.9757	1000
195.94591	549

NAME: Clothianidin; LC-ESI-ITFT; MS2; CE
PRECURSORMZ: 248.001446
PRECURSORTYPE: [M-H]-
FORMULA: C6H8ClN5O2S
Ontology: 2,5-disubstituted thiazoles
INCHIKEY: PGOOBECODWQEAB-UHFFFAOYSA-N
SMILES: CN=C(NCC1=CN=C(Cl)S1)NN(=O)=O
RETENTIONTIME: 
CCS: 148.3460381
IONMODE: Negative
INSTRUMENTTYPE: LC-ESI-ITFT
INSTRUMENT: 
COLLISIONENERGY: 90
Comment: registered in MassBank
Num Peaks: 1
57.9757	1000

NAME: Methoxyfenozide; LC-ESI-ITFT; MS2; CE
PRECURSORMZ: 367.202716
PRECURSORTYPE: [M-H]-
FORMULA: C22H28N2O3
Ontology: Benzoic acids and derivatives
INCHIKEY: QCAWEPFNJXQPAN-UHFFFAOYSA-N
SMILES: COC1=CC=CC(C(O)=NN(C(=O)C2=CC(C)=CC(C)=C2)C(C)(C)C)=C1C
RETENTIONTIME: 
CCS: 197.7839846
IONMODE: Negative
INSTRUMENTTYPE: LC-ESI-ITFT
INSTRUMENT: 
COLLISIONENERGY: 35
Comment: registered in MassBank
Num Peaks: 4
105.0711	13
149.0611	1000
165.0558	55
204.1396	25

NAME: Methoxyfenozide; LC-ESI-ITFT; MS2; CE
PRECURSORMZ: 367.202716
PRECURSORTYPE: [M-H]-
FORMULA: C22H28N2O3
Ontology: Benzoic acids and derivatives
INCHIKEY: QCAWEPFNJXQPAN-UHFFFAOYSA-N
SMILES: COC1=CC=CC(C(O)=NN(C(=O)C2=CC(C)=CC(C)=C2)C(C)(C)C)=C1C
RETENTIONTIME: 
CCS: 197.7839846
IONMODE: Negative
INSTRUMENTTYPE: LC-ESI-ITFT
INSTRUMENT: 
COLLISIONENERGY: 30
Comment: registered in MassBank
Num Peaks: 2
149.0607	1000
204.13901	67

NAME: Methoxyfenozide; LC-ESI-ITFT; MS2; CE
PRECURSORMZ: 367.202716
PRECURSORTYPE: [M-H]-
FORMULA: C22H28N2O3
Ontology: Benzoic acids and derivatives
INCHIKEY: QCAWEPFNJXQPAN-UHFFFAOYSA-N
SMILES: COC1=CC=CC(C(O)=NN(C(=O)C2=CC(C)=CC(C)=C2)C(C)(C)C)=C1C
RETENTIONTIME: 
CCS: 197.7839846
IONMODE: Negative
INSTRUMENTTYPE: LC-ESI-ITFT
INSTRUMENT: 
COLLISIONENERGY: 45
Comment: registered in MassBank
Num Peaks: 1
149.061	1000

NAME: Methoxyfenozide; LC-ESI-ITFT; MS2; CE
PRECURSORMZ: 367.202716
PRECURSORTYPE: [M-H]-
FORMULA: C22H28N2O3
Ontology: Benzoic acids and derivatives
INCHIKEY: QCAWEPFNJXQPAN-UHFFFAOYSA-N
SMILES: COC1=CC=CC(C(O)=NN(C(=O)C2=CC(C)=CC(C)=C2)C(C)(C)C)=C1C
RETENTIONTIME: 
CCS: 197.7839846
IONMODE: Negative
INSTRUMENTTYPE: LC-ESI-ITFT
INSTRUMENT: 
COLLISIONENERGY: 60
Comment: registered in MassBank
Num Peaks: 1
149.0609	1000

NAME: Methoxyfenozide; LC-ESI-ITFT; MS2; CE
PRECURSORMZ: 367.202716
PRECURSORTYPE: [M-H]-
FORMULA: C22H28N2O3
Ontology: Benzoic acids and derivatives
INCHIKEY: QCAWEPFNJXQPAN-UHFFFAOYSA-N
SMILES: COC1=CC=CC(C(O)=NN(C(=O)C2=CC(C)=CC(C)=C2)C(C)(C)C)=C1C
RETENTIONTIME: 
CCS: 197.7839846
IONMODE: Negative
INSTRUMENTTYPE: LC-ESI-ITFT
INSTRUMENT: 
COLLISIONENERGY: 15
Comment: registered in MassBank
Num Peaks: 2
149.061	57
367.20209	1000

NAME: Methoxyfenozide; LC-ESI-ITFT; MS2; CE
PRECURSORMZ: 367.202716
PRECURSORTYPE: [M-H]-
FORMULA: C22H28N2O3
Ontology: Benzoic acids and derivatives
INCHIKEY: QCAWEPFNJXQPAN-UHFFFAOYSA-N
SMILES: COC1=CC=CC(C(O)=NN(C(=O)C2=CC(C)=CC(C)=C2)C(C)(C)C)=C1C
RETENTIONTIME: 
CCS: 197.7839846
IONMODE: Negative
INSTRUMENTTYPE: LC-ESI-ITFT
INSTRUMENT: 
COLLISIONENERGY: 30
Comment: registered in MassBank
Num Peaks: 4
105.0713	29
149.06081	1000
165.05589	23
367.20151	104

NAME: Methoxyfenozide; LC-ESI-ITFT; MS2; CE
PRECURSORMZ: 367.202716
PRECURSORTYPE: [M-H]-
FORMULA: C22H28N2O3
Ontology: Benzoic acids and derivatives
INCHIKEY: QCAWEPFNJXQPAN-UHFFFAOYSA-N
SMILES: COC1=CC=CC(C(O)=NN(C(=O)C2=CC(C)=CC(C)=C2)C(C)(C)C)=C1C
RETENTIONTIME: 
CCS: 197.7839846
IONMODE: Negative
INSTRUMENTTYPE: LC-ESI-ITFT
INSTRUMENT: 
COLLISIONENERGY: 45
Comment: registered in MassBank
Num Peaks: 2
149.061	1000
367.20181	58

NAME: Methoxyfenozide; LC-ESI-ITFT; MS2; CE
PRECURSORMZ: 367.202716
PRECURSORTYPE: [M-H]-
FORMULA: C22H28N2O3
Ontology: Benzoic acids and derivatives
INCHIKEY: QCAWEPFNJXQPAN-UHFFFAOYSA-N
SMILES: COC1=CC=CC(C(O)=NN(C(=O)C2=CC(C)=CC(C)=C2)C(C)(C)C)=C1C
RETENTIONTIME: 
CCS: 197.7839846
IONMODE: Negative
INSTRUMENTTYPE: LC-ESI-ITFT
INSTRUMENT: 
COLLISIONENERGY: 60
Comment: registered in MassBank
Num Peaks: 2
149.06081	1000
367.21271	177

NAME: Boscalid; LC-ESI-ITFT; MS2; CE
PRECURSORMZ: 341.025392
PRECURSORTYPE: [M-H]-
FORMULA: C18H12Cl2N2O
Ontology: Aromatic anilides
INCHIKEY: WYEMLYFITZORAB-UHFFFAOYSA-N
SMILES: OC(=NC1=CC=CC=C1C1=CC=C(Cl)C=C1)C1=C(Cl)N=CC=C1
RETENTIONTIME: 
CCS: 172.1310141
IONMODE: Negative
INSTRUMENTTYPE: LC-ESI-ITFT
INSTRUMENT: 
COLLISIONENERGY: 15
Comment: registered in MassBank
Num Peaks: 2
204.0201	64
341.02441	1000

NAME: Imazamox; LC-ESI-ITFT; MS2; CE
PRECURSORMZ: 304.13028
PRECURSORTYPE: [M-H]-
FORMULA: C15H19N3O4
Ontology: Alpha amino acids and derivatives
INCHIKEY: NUPJIGQFXCQJBK-UHFFFAOYNA-N
SMILES: COCC1=CC(C(O)=O)=C(N=C1)C1=NC(=O)C(C)(N1)C(C)C
RETENTIONTIME: 
CCS: 174.1666831
IONMODE: Negative
INSTRUMENTTYPE: LC-ESI-ITFT
INSTRUMENT: 
COLLISIONENERGY: 35
Comment: registered in MassBank
Num Peaks: 2
217.0867	9
260.1409	1000

NAME: Imazamox; LC-ESI-ITFT; MS2; CE
PRECURSORMZ: 304.13028
PRECURSORTYPE: [M-H]-
FORMULA: C15H19N3O4
Ontology: Alpha amino acids and derivatives
INCHIKEY: NUPJIGQFXCQJBK-UHFFFAOYNA-N
SMILES: COCC1=CC(C(O)=O)=C(N=C1)C1=NC(=O)C(C)(N1)C(C)C
RETENTIONTIME: 
CCS: 174.1666831
IONMODE: Negative
INSTRUMENTTYPE: LC-ESI-ITFT
INSTRUMENT: 
COLLISIONENERGY: 15
Comment: registered in MassBank
Num Peaks: 2
260.14069	1000
304.13089	527

NAME: Imazamox; LC-ESI-ITFT; MS2; CE
PRECURSORMZ: 304.13028
PRECURSORTYPE: [M-H]-
FORMULA: C15H19N3O4
Ontology: Alpha amino acids and derivatives
INCHIKEY: NUPJIGQFXCQJBK-UHFFFAOYNA-N
SMILES: COCC1=CC(C(O)=O)=C(N=C1)C1=NC(=O)C(C)(N1)C(C)C
RETENTIONTIME: 
CCS: 174.1666831
IONMODE: Negative
INSTRUMENTTYPE: LC-ESI-ITFT
INSTRUMENT: 
COLLISIONENERGY: 30
Comment: registered in MassBank
Num Peaks: 3
217.08611	421
260.14081	1000
304.12979	60

NAME: Imazamox; LC-ESI-ITFT; MS2; CE
PRECURSORMZ: 304.13028
PRECURSORTYPE: [M-H]-
FORMULA: C15H19N3O4
Ontology: Alpha amino acids and derivatives
INCHIKEY: NUPJIGQFXCQJBK-UHFFFAOYNA-N
SMILES: COCC1=CC(C(O)=O)=C(N=C1)C1=NC(=O)C(C)(N1)C(C)C
RETENTIONTIME: 
CCS: 174.1666831
IONMODE: Negative
INSTRUMENTTYPE: LC-ESI-ITFT
INSTRUMENT: 
COLLISIONENERGY: 45
Comment: registered in MassBank
Num Peaks: 3
186.0666	156
217.08611	1000
260.1377	119

NAME: Imazamox; LC-ESI-ITFT; MS2; CE
PRECURSORMZ: 304.13028
PRECURSORTYPE: [M-H]-
FORMULA: C15H19N3O4
Ontology: Alpha amino acids and derivatives
INCHIKEY: NUPJIGQFXCQJBK-UHFFFAOYNA-N
SMILES: COCC1=CC(C(O)=O)=C(N=C1)C1=NC(=O)C(C)(N1)C(C)C
RETENTIONTIME: 
CCS: 174.1666831
IONMODE: Negative
INSTRUMENTTYPE: LC-ESI-ITFT
INSTRUMENT: 
COLLISIONENERGY: 60
Comment: registered in MassBank
Num Peaks: 3
186.0675	1000
217.0856	455
260.1293	67

NAME: Imazamox; LC-ESI-ITFT; MS2; CE
PRECURSORMZ: 304.13028
PRECURSORTYPE: [M-H]-
FORMULA: C15H19N3O4
Ontology: Alpha amino acids and derivatives
INCHIKEY: NUPJIGQFXCQJBK-UHFFFAOYNA-N
SMILES: COCC1=CC(C(O)=O)=C(N=C1)C1=NC(=O)C(C)(N1)C(C)C
RETENTIONTIME: 
CCS: 174.1666831
IONMODE: Negative
INSTRUMENTTYPE: LC-ESI-ITFT
INSTRUMENT: 
COLLISIONENERGY: 75
Comment: registered in MassBank
Num Peaks: 2
117.0457	82
186.06731	1000

NAME: Imazamox; LC-ESI-ITFT; MS2; CE
PRECURSORMZ: 304.13028
PRECURSORTYPE: [M-H]-
FORMULA: C15H19N3O4
Ontology: Alpha amino acids and derivatives
INCHIKEY: NUPJIGQFXCQJBK-UHFFFAOYNA-N
SMILES: COCC1=CC(C(O)=O)=C(N=C1)C1=NC(=O)C(C)(N1)C(C)C
RETENTIONTIME: 
CCS: 174.1666831
IONMODE: Negative
INSTRUMENTTYPE: LC-ESI-ITFT
INSTRUMENT: 
COLLISIONENERGY: 90
Comment: registered in MassBank
Num Peaks: 3
117.046	662
186.0675	1000
304.1315	100

NAME: Imazamox; LC-ESI-ITFT; MS2; CE
PRECURSORMZ: 304.13028
PRECURSORTYPE: [M-H]-
FORMULA: C15H19N3O4
Ontology: Alpha amino acids and derivatives
INCHIKEY: NUPJIGQFXCQJBK-UHFFFAOYNA-N
SMILES: COCC1=CC(C(O)=O)=C(N=C1)C1=NC(=O)C(C)(N1)C(C)C
RETENTIONTIME: 
CCS: 174.1666831
IONMODE: Negative
INSTRUMENTTYPE: LC-ESI-ITFT
INSTRUMENT: 
COLLISIONENERGY: 15
Comment: registered in MassBank
Num Peaks: 2
260.14001	1000
304.13019	753

NAME: Imazamox; LC-ESI-ITFT; MS2; CE
PRECURSORMZ: 304.13028
PRECURSORTYPE: [M-H]-
FORMULA: C15H19N3O4
Ontology: Alpha amino acids and derivatives
INCHIKEY: NUPJIGQFXCQJBK-UHFFFAOYNA-N
SMILES: COCC1=CC(C(O)=O)=C(N=C1)C1=NC(=O)C(C)(N1)C(C)C
RETENTIONTIME: 
CCS: 174.1666831
IONMODE: Negative
INSTRUMENTTYPE: LC-ESI-ITFT
INSTRUMENT: 
COLLISIONENERGY: 30
Comment: registered in MassBank
Num Peaks: 2
217.0856	435
260.14029	1000

NAME: Imazamox; LC-ESI-ITFT; MS2; CE
PRECURSORMZ: 304.13028
PRECURSORTYPE: [M-H]-
FORMULA: C15H19N3O4
Ontology: Alpha amino acids and derivatives
INCHIKEY: NUPJIGQFXCQJBK-UHFFFAOYNA-N
SMILES: COCC1=CC(C(O)=O)=C(N=C1)C1=NC(=O)C(C)(N1)C(C)C
RETENTIONTIME: 
CCS: 174.1666831
IONMODE: Negative
INSTRUMENTTYPE: LC-ESI-ITFT
INSTRUMENT: 
COLLISIONENERGY: 45
Comment: registered in MassBank
Num Peaks: 2
186.0677	212
217.08591	1000

NAME: Imazamox; LC-ESI-ITFT; MS2; CE
PRECURSORMZ: 304.13028
PRECURSORTYPE: [M-H]-
FORMULA: C15H19N3O4
Ontology: Alpha amino acids and derivatives
INCHIKEY: NUPJIGQFXCQJBK-UHFFFAOYNA-N
SMILES: COCC1=CC(C(O)=O)=C(N=C1)C1=NC(=O)C(C)(N1)C(C)C
RETENTIONTIME: 
CCS: 174.1666831
IONMODE: Negative
INSTRUMENTTYPE: LC-ESI-ITFT
INSTRUMENT: 
COLLISIONENERGY: 60
Comment: registered in MassBank
Num Peaks: 2
186.06731	1000
217.086	414

NAME: Imazamox; LC-ESI-ITFT; MS2; CE
PRECURSORMZ: 304.13028
PRECURSORTYPE: [M-H]-
FORMULA: C15H19N3O4
Ontology: Alpha amino acids and derivatives
INCHIKEY: NUPJIGQFXCQJBK-UHFFFAOYNA-N
SMILES: COCC1=CC(C(O)=O)=C(N=C1)C1=NC(=O)C(C)(N1)C(C)C
RETENTIONTIME: 
CCS: 174.1666831
IONMODE: Negative
INSTRUMENTTYPE: LC-ESI-ITFT
INSTRUMENT: 
COLLISIONENERGY: 75
Comment: registered in MassBank
Num Peaks: 3
117.0458	55
186.0674	1000
260.129	46

NAME: Imazamox; LC-ESI-ITFT; MS2; CE
PRECURSORMZ: 304.13028
PRECURSORTYPE: [M-H]-
FORMULA: C15H19N3O4
Ontology: Alpha amino acids and derivatives
INCHIKEY: NUPJIGQFXCQJBK-UHFFFAOYNA-N
SMILES: COCC1=CC(C(O)=O)=C(N=C1)C1=NC(=O)C(C)(N1)C(C)C
RETENTIONTIME: 
CCS: 174.1666831
IONMODE: Negative
INSTRUMENTTYPE: LC-ESI-ITFT
INSTRUMENT: 
COLLISIONENERGY: 90
Comment: registered in MassBank
Num Peaks: 2
117.0459	674
186.0672	1000

NAME: Flonicamid; LC-ESI-ITFT; MS2; CE
PRECURSORMZ: 228.03902
PRECURSORTYPE: [M-H]-
FORMULA: C9H6F3N3O
Ontology: Nicotinamides
INCHIKEY: RLQJEEJISHYWON-UHFFFAOYSA-N
SMILES: OC(=NCC#N)C1=CN=CC=C1C(F)(F)F
RETENTIONTIME: 
CCS: 143.6984669
IONMODE: Negative
INSTRUMENTTYPE: LC-ESI-ITFT
INSTRUMENT: 
COLLISIONENERGY: 45
Comment: registered in MassBank
Num Peaks: 2
146.0226	558
228.0506	1000

NAME: Flonicamid; LC-ESI-ITFT; MS2; CE
PRECURSORMZ: 228.03902
PRECURSORTYPE: [M-H]-
FORMULA: C9H6F3N3O
Ontology: Nicotinamides
INCHIKEY: RLQJEEJISHYWON-UHFFFAOYSA-N
SMILES: OC(=NCC#N)C1=CN=CC=C1C(F)(F)F
RETENTIONTIME: 
CCS: 143.6984669
IONMODE: Negative
INSTRUMENTTYPE: LC-ESI-ITFT
INSTRUMENT: 
COLLISIONENERGY: 60
Comment: registered in MassBank
Num Peaks: 2
146.0224	934
228.0509	1000

NAME: Tebufenozide; LC-ESI-ITFT; MS2; CE
PRECURSORMZ: 351.207802
PRECURSORTYPE: [M-H]-
FORMULA: C22H28N2O2
Ontology: Benzoic acids and derivatives
INCHIKEY: QYPNKSZPJQQLRK-UHFFFAOYSA-N
SMILES: CCC1=CC=C(C=C1)C(=O)NN(C(=O)C1=CC(C)=CC(C)=C1)C(C)(C)C
RETENTIONTIME: 
CCS: 194.4289904
IONMODE: Negative
INSTRUMENTTYPE: LC-ESI-ITFT
INSTRUMENT: 
COLLISIONENERGY: 35
Comment: registered in MassBank
Num Peaks: 2
105.0708	16
149.06081	1000

NAME: Tebufenozide; LC-ESI-ITFT; MS2; CE
PRECURSORMZ: 351.207802
PRECURSORTYPE: [M-H]-
FORMULA: C22H28N2O2
Ontology: Benzoic acids and derivatives
INCHIKEY: QYPNKSZPJQQLRK-UHFFFAOYSA-N
SMILES: CCC1=CC=C(C=C1)C(=O)NN(C(=O)C1=CC(C)=CC(C)=C1)C(C)(C)C
RETENTIONTIME: 
CCS: 194.4289904
IONMODE: Negative
INSTRUMENTTYPE: LC-ESI-ITFT
INSTRUMENT: 
COLLISIONENERGY: 15
Comment: registered in MassBank
Num Peaks: 2
149.06059	72
351.2077	1000

NAME: Tebufenozide; LC-ESI-ITFT; MS2; CE
PRECURSORMZ: 351.207802
PRECURSORTYPE: [M-H]-
FORMULA: C22H28N2O2
Ontology: Benzoic acids and derivatives
INCHIKEY: QYPNKSZPJQQLRK-UHFFFAOYSA-N
SMILES: CCC1=CC=C(C=C1)C(=O)NN(C(=O)C1=CC(C)=CC(C)=C1)C(C)(C)C
RETENTIONTIME: 
CCS: 194.4289904
IONMODE: Negative
INSTRUMENTTYPE: LC-ESI-ITFT
INSTRUMENT: 
COLLISIONENERGY: 30
Comment: registered in MassBank
Num Peaks: 2
149.06039	1000
351.2085	178

NAME: Tebufenozide; LC-ESI-ITFT; MS2; CE
PRECURSORMZ: 351.207802
PRECURSORTYPE: [M-H]-
FORMULA: C22H28N2O2
Ontology: Benzoic acids and derivatives
INCHIKEY: QYPNKSZPJQQLRK-UHFFFAOYSA-N
SMILES: CCC1=CC=C(C=C1)C(=O)NN(C(=O)C1=CC(C)=CC(C)=C1)C(C)(C)C
RETENTIONTIME: 
CCS: 194.4289904
IONMODE: Negative
INSTRUMENTTYPE: LC-ESI-ITFT
INSTRUMENT: 
COLLISIONENERGY: 45
Comment: registered in MassBank
Num Peaks: 1
149.0607	1000

NAME: Tebufenozide; LC-ESI-ITFT; MS2; CE
PRECURSORMZ: 351.207802
PRECURSORTYPE: [M-H]-
FORMULA: C22H28N2O2
Ontology: Benzoic acids and derivatives
INCHIKEY: QYPNKSZPJQQLRK-UHFFFAOYSA-N
SMILES: CCC1=CC=C(C=C1)C(=O)NN(C(=O)C1=CC(C)=CC(C)=C1)C(C)(C)C
RETENTIONTIME: 
CCS: 194.4289904
IONMODE: Negative
INSTRUMENTTYPE: LC-ESI-ITFT
INSTRUMENT: 
COLLISIONENERGY: 60
Comment: registered in MassBank
Num Peaks: 1
149.0602	1000

NAME: Tebufenozide; LC-ESI-ITFT; MS2; CE
PRECURSORMZ: 351.207802
PRECURSORTYPE: [M-H]-
FORMULA: C22H28N2O2
Ontology: Benzoic acids and derivatives
INCHIKEY: QYPNKSZPJQQLRK-UHFFFAOYSA-N
SMILES: CCC1=CC=C(C=C1)C(=O)NN(C(=O)C1=CC(C)=CC(C)=C1)C(C)(C)C
RETENTIONTIME: 
CCS: 194.4289904
IONMODE: Negative
INSTRUMENTTYPE: LC-ESI-ITFT
INSTRUMENT: 
COLLISIONENERGY: 75
Comment: registered in MassBank
Num Peaks: 1
149.06039	1000

NAME: Tebufenozide; LC-ESI-ITFT; MS2; CE
PRECURSORMZ: 351.207802
PRECURSORTYPE: [M-H]-
FORMULA: C22H28N2O2
Ontology: Benzoic acids and derivatives
INCHIKEY: QYPNKSZPJQQLRK-UHFFFAOYSA-N
SMILES: CCC1=CC=C(C=C1)C(=O)NN(C(=O)C1=CC(C)=CC(C)=C1)C(C)(C)C
RETENTIONTIME: 
CCS: 194.4289904
IONMODE: Negative
INSTRUMENTTYPE: LC-ESI-ITFT
INSTRUMENT: 
COLLISIONENERGY: 15
Comment: registered in MassBank
Num Peaks: 2
149.0602	47
351.20679	1000

NAME: Tebufenozide; LC-ESI-ITFT; MS2; CE
PRECURSORMZ: 351.207802
PRECURSORTYPE: [M-H]-
FORMULA: C22H28N2O2
Ontology: Benzoic acids and derivatives
INCHIKEY: QYPNKSZPJQQLRK-UHFFFAOYSA-N
SMILES: CCC1=CC=C(C=C1)C(=O)NN(C(=O)C1=CC(C)=CC(C)=C1)C(C)(C)C
RETENTIONTIME: 
CCS: 194.4289904
IONMODE: Negative
INSTRUMENTTYPE: LC-ESI-ITFT
INSTRUMENT: 
COLLISIONENERGY: 30
Comment: registered in MassBank
Num Peaks: 1
149.06059	1000

NAME: Tebufenozide; LC-ESI-ITFT; MS2; CE
PRECURSORMZ: 351.207802
PRECURSORTYPE: [M-H]-
FORMULA: C22H28N2O2
Ontology: Benzoic acids and derivatives
INCHIKEY: QYPNKSZPJQQLRK-UHFFFAOYSA-N
SMILES: CCC1=CC=C(C=C1)C(=O)NN(C(=O)C1=CC(C)=CC(C)=C1)C(C)(C)C
RETENTIONTIME: 
CCS: 194.4289904
IONMODE: Negative
INSTRUMENTTYPE: LC-ESI-ITFT
INSTRUMENT: 
COLLISIONENERGY: 45
Comment: registered in MassBank
Num Peaks: 2
105.0712	40
149.0605	1000

NAME: Tebufenozide; LC-ESI-ITFT; MS2; CE
PRECURSORMZ: 351.207802
PRECURSORTYPE: [M-H]-
FORMULA: C22H28N2O2
Ontology: Benzoic acids and derivatives
INCHIKEY: QYPNKSZPJQQLRK-UHFFFAOYSA-N
SMILES: CCC1=CC=C(C=C1)C(=O)NN(C(=O)C1=CC(C)=CC(C)=C1)C(C)(C)C
RETENTIONTIME: 
CCS: 194.4289904
IONMODE: Negative
INSTRUMENTTYPE: LC-ESI-ITFT
INSTRUMENT: 
COLLISIONENERGY: 60
Comment: registered in MassBank
Num Peaks: 2
105.0707	118
149.0602	1000

NAME: Acetamiprid; LC-ESI-ITFT; MS2; CE
PRECURSORMZ: 221.059948
PRECURSORTYPE: [M-H]-
FORMULA: C10H11ClN4
Ontology: 2-halopyridines
INCHIKEY: WCXDHFDTOYPNIE-RIYZIHGNSA-N
SMILES: CN(CC1=CN=C(Cl)C=C1)C(C)=NC#N
RETENTIONTIME: 
CCS: 150.3187602
IONMODE: Negative
INSTRUMENTTYPE: LC-ESI-ITFT
INSTRUMENT: 
COLLISIONENERGY: 35
Comment: registered in MassBank
Num Peaks: 1
140.0271	1000

NAME: Acetamiprid; LC-ESI-ITFT; MS2; CE
PRECURSORMZ: 221.059948
PRECURSORTYPE: [M-H]-
FORMULA: C10H11ClN4
Ontology: 2-halopyridines
INCHIKEY: WCXDHFDTOYPNIE-RIYZIHGNSA-N
SMILES: CN(CC1=CN=C(Cl)C=C1)C(C)=NC#N
RETENTIONTIME: 
CCS: 150.3187602
IONMODE: Negative
INSTRUMENTTYPE: LC-ESI-ITFT
INSTRUMENT: 
COLLISIONENERGY: 30
Comment: registered in MassBank
Num Peaks: 2
140.0278	649
221.06039	1000

NAME: Triclocarban; LC-ESI-ITFT; MS2; CE
PRECURSORMZ: 312.97077
PRECURSORTYPE: [M-H]-
FORMULA: C13H9Cl3N2O
Ontology: Dichlorobenzenes
INCHIKEY: ICUTUKXCWQYESQ-UHFFFAOYSA-N
SMILES: OC(NC1=CC=C(Cl)C=C1)=NC1=CC(Cl)=C(Cl)C=C1
RETENTIONTIME: 
CCS: 159.8431185
IONMODE: Negative
INSTRUMENTTYPE: LC-ESI-ITFT
INSTRUMENT: 
COLLISIONENERGY: 35
Comment: registered in MassBank
Num Peaks: 1
159.9724	1000

NAME: Triclocarban; LC-ESI-ITFT; MS2; CE
PRECURSORMZ: 312.97077
PRECURSORTYPE: [M-H]-
FORMULA: C13H9Cl3N2O
Ontology: Dichlorobenzenes
INCHIKEY: ICUTUKXCWQYESQ-UHFFFAOYSA-N
SMILES: OC(NC1=CC=C(Cl)C=C1)=NC1=CC(Cl)=C(Cl)C=C1
RETENTIONTIME: 
CCS: 159.8431185
IONMODE: Negative
INSTRUMENTTYPE: LC-ESI-ITFT
INSTRUMENT: 
COLLISIONENERGY: 30
Comment: registered in MassBank
Num Peaks: 1
159.9724	1000

NAME: Flufenamic acid; LC-ESI-QFT; MS2; 15; R=35000; [M-H]-
PRECURSORMZ: 280.059087
PRECURSORTYPE: [M-H]-
FORMULA: C14H10F3NO2
Ontology: Aminobenzoic acids
INCHIKEY: LPEPZBJOKDYZAD-UHFFFAOYSA-N
SMILES: OC(=O)C1=CC=CC=C1NC1=CC=CC(=C1)C(F)(F)F
RETENTIONTIME: 
CCS: 157.1647875
IONMODE: Negative
INSTRUMENTTYPE: LC-ESI-QFT
INSTRUMENT: 
COLLISIONENERGY: 15
Comment: registered in MassBank
Num Peaks: 4
216.063	37
234.0536	10
236.06931	723
280.05911	1000

NAME: Flufenamic acid; LC-ESI-QFT; MS2; 30; R=35000; [M-H]-
PRECURSORMZ: 280.059087
PRECURSORTYPE: [M-H]-
FORMULA: C14H10F3NO2
Ontology: Aminobenzoic acids
INCHIKEY: LPEPZBJOKDYZAD-UHFFFAOYSA-N
SMILES: OC(=O)C1=CC=CC=C1NC1=CC=CC(=C1)C(F)(F)F
RETENTIONTIME: 
CCS: 157.1647875
IONMODE: Negative
INSTRUMENTTYPE: LC-ESI-QFT
INSTRUMENT: 
COLLISIONENERGY: 30
Comment: registered in MassBank
Num Peaks: 8
176.05051	16
196.0569	10
215.0553	8
216.0631	56
234.0538	20
236.06931	1000
248.0529	6
280.05911	106

NAME: Flufenamic acid; LC-ESI-QFT; MS2; 45; R=35000; [M-H]-
PRECURSORMZ: 280.059087
PRECURSORTYPE: [M-H]-
FORMULA: C14H10F3NO2
Ontology: Aminobenzoic acids
INCHIKEY: LPEPZBJOKDYZAD-UHFFFAOYSA-N
SMILES: OC(=O)C1=CC=CC=C1NC1=CC=CC(=C1)C(F)(F)F
RETENTIONTIME: 
CCS: 157.1647875
IONMODE: Negative
INSTRUMENTTYPE: LC-ESI-QFT
INSTRUMENT: 
COLLISIONENERGY: 45
Comment: registered in MassBank
Num Peaks: 14
68.9957	6
160.03799	7
166.06619	13
176.05051	172
179.0376	8
181.0535	12
196.05679	55
199.04401	16
207.03259	11
215.0553	64
216.063	92
227.03889	31
234.0538	133
236.06931	1000

NAME: Flufenamic acid; LC-ESI-QFT; MS2; 60; R=35000; [M-H]-
PRECURSORMZ: 280.059087
PRECURSORTYPE: [M-H]-
FORMULA: C14H10F3NO2
Ontology: Aminobenzoic acids
INCHIKEY: LPEPZBJOKDYZAD-UHFFFAOYSA-N
SMILES: OC(=O)C1=CC=CC=C1NC1=CC=CC(=C1)C(F)(F)F
RETENTIONTIME: 
CCS: 157.1647875
IONMODE: Negative
INSTRUMENTTYPE: LC-ESI-QFT
INSTRUMENT: 
COLLISIONENERGY: 60
Comment: registered in MassBank
Num Peaks: 20
62.9888	13
68.9958	19
92.0507	7
160.03799	38
166.06619	48
176.0506	660
179.0377	24
181.0535	47
194.0412	13
196.05679	121
199.04401	56
200.0519	13
207.03259	38
214.04739	8
214.06779	5
215.0553	212
216.0631	134
227.03889	115
234.0538	419
236.06931	1000

NAME: Flufenamic acid; LC-ESI-QFT; MS2; 75; R=35000; [M-H]-
PRECURSORMZ: 280.059087
PRECURSORTYPE: [M-H]-
FORMULA: C14H10F3NO2
Ontology: Aminobenzoic acids
INCHIKEY: LPEPZBJOKDYZAD-UHFFFAOYSA-N
SMILES: OC(=O)C1=CC=CC=C1NC1=CC=CC(=C1)C(F)(F)F
RETENTIONTIME: 
CCS: 157.1647875
IONMODE: Negative
INSTRUMENTTYPE: LC-ESI-QFT
INSTRUMENT: 
COLLISIONENERGY: 75
Comment: registered in MassBank
Num Peaks: 24
62.9888	21
68.9958	29
73.0084	14
92.0506	35
160.03799	153
166.06619	83
174.035	9
176.05051	1000
179.0376	35
181.0535	53
183.0491	7
194.0412	93
194.061	7
196.0569	70
199.04401	61
200.0518	18
207.03259	42
214.0475	31
215.0553	227
216.0631	58
217.05431	5
227.03889	129
234.0537	534
236.06931	230

NAME: Flufenamic acid; LC-ESI-QFT; MS2; 90; R=35000; [M-H]-
PRECURSORMZ: 280.059087
PRECURSORTYPE: [M-H]-
FORMULA: C14H10F3NO2
Ontology: Aminobenzoic acids
INCHIKEY: LPEPZBJOKDYZAD-UHFFFAOYSA-N
SMILES: OC(=O)C1=CC=CC=C1NC1=CC=CC(=C1)C(F)(F)F
RETENTIONTIME: 
CCS: 157.1647875
IONMODE: Negative
INSTRUMENTTYPE: LC-ESI-QFT
INSTRUMENT: 
COLLISIONENERGY: 90
Comment: registered in MassBank
Num Peaks: 27
62.9888	15
68.9958	40
73.0084	36
74.0037	8
92.0506	122
102.035	7
120.0256	42
133.0271	7
140.032	11
160.03799	368
166.0663	98
174.0349	71
176.05051	1000
179.0377	24
181.05341	29
194.04111	301
195.0488	5
196.0569	31
199.0441	42
200.0522	11
207.03259	31
214.0475	49
215.0553	134
216.063	17
227.03889	95
234.0537	405
236.0692	41

NAME: 4-Chlorophenol; LC-ESI-QFT; MS2; 15; R=35000; [M-H]-
PRECURSORMZ: 126.995616
PRECURSORTYPE: [M-H]-
FORMULA: C6H5ClO
Ontology: P-chlorophenols
INCHIKEY: WXNZTHHGJRFXKQ-UHFFFAOYSA-N
SMILES: OC1=CC=C(Cl)C=C1
RETENTIONTIME: 
CCS: 119.5275594
IONMODE: Negative
INSTRUMENTTYPE: LC-ESI-QFT
INSTRUMENT: 
COLLISIONENERGY: 15
Comment: registered in MassBank
Num Peaks: 2
91.0189	13
126.9956	1000

NAME: 4-Chlorophenol; LC-ESI-QFT; MS2; 30; R=35000; [M-H]-
PRECURSORMZ: 126.995616
PRECURSORTYPE: [M-H]-
FORMULA: C6H5ClO
Ontology: P-chlorophenols
INCHIKEY: WXNZTHHGJRFXKQ-UHFFFAOYSA-N
SMILES: OC1=CC=C(Cl)C=C1
RETENTIONTIME: 
CCS: 119.5275594
IONMODE: Negative
INSTRUMENTTYPE: LC-ESI-QFT
INSTRUMENT: 
COLLISIONENERGY: 30
Comment: registered in MassBank
Num Peaks: 2
91.0189	15
126.9956	1000

NAME: 4-Chlorophenol; LC-ESI-QFT; MS2; 45; R=35000; [M-H]-
PRECURSORMZ: 126.995616
PRECURSORTYPE: [M-H]-
FORMULA: C6H5ClO
Ontology: P-chlorophenols
INCHIKEY: WXNZTHHGJRFXKQ-UHFFFAOYSA-N
SMILES: OC1=CC=C(Cl)C=C1
RETENTIONTIME: 
CCS: 119.5275594
IONMODE: Negative
INSTRUMENTTYPE: LC-ESI-QFT
INSTRUMENT: 
COLLISIONENERGY: 45
Comment: registered in MassBank
Num Peaks: 2
91.0189	22
126.9956	1000

NAME: 4-Chlorophenol; LC-ESI-QFT; MS2; 60; R=35000; [M-H]-
PRECURSORMZ: 126.995616
PRECURSORTYPE: [M-H]-
FORMULA: C6H5ClO
Ontology: P-chlorophenols
INCHIKEY: WXNZTHHGJRFXKQ-UHFFFAOYSA-N
SMILES: OC1=CC=C(Cl)C=C1
RETENTIONTIME: 
CCS: 119.5275594
IONMODE: Negative
INSTRUMENTTYPE: LC-ESI-QFT
INSTRUMENT: 
COLLISIONENERGY: 60
Comment: registered in MassBank
Num Peaks: 2
91.0189	46
126.9956	1000

NAME: 4-Chlorophenol; LC-ESI-QFT; MS2; 75; R=35000; [M-H]-
PRECURSORMZ: 126.995616
PRECURSORTYPE: [M-H]-
FORMULA: C6H5ClO
Ontology: P-chlorophenols
INCHIKEY: WXNZTHHGJRFXKQ-UHFFFAOYSA-N
SMILES: OC1=CC=C(Cl)C=C1
RETENTIONTIME: 
CCS: 119.5275594
IONMODE: Negative
INSTRUMENTTYPE: LC-ESI-QFT
INSTRUMENT: 
COLLISIONENERGY: 75
Comment: registered in MassBank
Num Peaks: 2
91.0189	111
126.9956	1000

NAME: 4-Chlorophenol; LC-ESI-QFT; MS2; 90; R=35000; [M-H]-
PRECURSORMZ: 126.995616
PRECURSORTYPE: [M-H]-
FORMULA: C6H5ClO
Ontology: P-chlorophenols
INCHIKEY: WXNZTHHGJRFXKQ-UHFFFAOYSA-N
SMILES: OC1=CC=C(Cl)C=C1
RETENTIONTIME: 
CCS: 119.5275594
IONMODE: Negative
INSTRUMENTTYPE: LC-ESI-QFT
INSTRUMENT: 
COLLISIONENERGY: 90
Comment: registered in MassBank
Num Peaks: 2
91.0189	232
126.9956	1000

NAME: Apigenin; LC-ESI-QTOF; MS2; [M-H]-; CE
PRECURSORMZ: 269.045547
PRECURSORTYPE: [M-H]-
FORMULA: C15H10O5
Ontology: Flavones
INCHIKEY: KZNIFHPLKGYRTM-UHFFFAOYSA-N
SMILES: OC1=CC=C(C=C1)C1=CC(=O)C2=C(O)C=C(O)C=C2O1
RETENTIONTIME: 
CCS: 160.6521993
IONMODE: Negative
INSTRUMENTTYPE: LC-ESI-QTOF
INSTRUMENT: 
COLLISIONENERGY: 20
Comment: registered in MassBank
Num Peaks: 4
149.0238	12
151.0031	13
225.0556	11
269.0455	1000

NAME: Apigenin; LC-ESI-QTOF; MS2; [M-H]-; CE
PRECURSORMZ: 269.045547
PRECURSORTYPE: [M-H]-
FORMULA: C15H10O5
Ontology: Flavones
INCHIKEY: KZNIFHPLKGYRTM-UHFFFAOYSA-N
SMILES: OC1=CC=C(C=C1)C1=CC(=O)C2=C(O)C=C(O)C=C2O1
RETENTIONTIME: 
CCS: 160.6521993
IONMODE: Negative
INSTRUMENTTYPE: LC-ESI-QTOF
INSTRUMENT: 
COLLISIONENERGY: 30
Comment: registered in MassBank
Num Peaks: 20
107.014	49
117.0345	268
118.0377	22
121.0293	16
149.0244	180
150.0276	19
151.00369	324
152.0071	20
159.0451	53
169.0139	13
181.0658	35
183.0453	36
197.0605	18
201.05569	54
224.0479	11
225.056	122
226.0593	15
227.0349	68
241.0513	11
269.0455	1000

NAME: Apigenin; LC-ESI-QTOF; MS2; [M-H]-; CE
PRECURSORMZ: 269.045547
PRECURSORTYPE: [M-H]-
FORMULA: C15H10O5
Ontology: Flavones
INCHIKEY: KZNIFHPLKGYRTM-UHFFFAOYSA-N
SMILES: OC1=CC=C(C=C1)C1=CC(=O)C2=C(O)C=C(O)C=C2O1
RETENTIONTIME: 
CCS: 160.6521993
IONMODE: Negative
INSTRUMENTTYPE: LC-ESI-QTOF
INSTRUMENT: 
COLLISIONENERGY: 40
Comment: registered in MassBank
Num Peaks: 22
105.035	24
107.0139	112
117.0344	1000
118.0378	94
121.0295	82
148.0161	13
149.02431	168
150.0271	15
151.0036	263
152.0074	21
157.0652	13
159.0451	80
169.0659	13
180.0578	15
181.0654	31
183.0452	46
185.02431	17
197.06039	13
201.05611	26
225.05589	46
227.0349	60
269.04541	137

NAME: Apigenin; LC-ESI-QTOF; MS2; [M-H]-; CE
PRECURSORMZ: 269.045547
PRECURSORTYPE: [M-H]-
FORMULA: C15H10O5
Ontology: Flavones
INCHIKEY: KZNIFHPLKGYRTM-UHFFFAOYSA-N
SMILES: OC1=CC=C(C=C1)C1=CC(=O)C2=C(O)C=C(O)C=C2O1
RETENTIONTIME: 
CCS: 160.6521993
IONMODE: Negative
INSTRUMENTTYPE: LC-ESI-QTOF
INSTRUMENT: 
COLLISIONENERGY: 50
Comment: registered in MassBank
Num Peaks: 9
105.0348	15
107.0141	49
117.0346	1000
118.0379	84
121.0291	61
149.0247	26
151.00349	35
159.04559	24
227.03551	14

NAME: Biotin; LC-ESI-QTOF; MS2; [M-H]-; CE
PRECURSORMZ: 243.080887
PRECURSORTYPE: [M-H]-
FORMULA: C10H16N2O3S
Ontology: Biotin and derivatives
INCHIKEY: YBJHBAHKTGYVGT-ZKWXMUAHSA-N
SMILES: OC(=O)CCCC[C@@H]1SC[C@@H]2N=C(O)N[C@H]12
RETENTIONTIME: 
CCS: 158.6727271
IONMODE: Negative
INSTRUMENTTYPE: LC-ESI-QTOF
INSTRUMENT: 
COLLISIONENERGY: 10
Comment: registered in MassBank
Num Peaks: 4
166.08701	11
200.0755	35
209.093	13
243.0813	1000

NAME: Biotin; LC-ESI-QTOF; MS2; [M-H]-; CE
PRECURSORMZ: 243.080887
PRECURSORTYPE: [M-H]-
FORMULA: C10H16N2O3S
Ontology: Biotin and derivatives
INCHIKEY: YBJHBAHKTGYVGT-ZKWXMUAHSA-N
SMILES: OC(=O)CCCC[C@@H]1SC[C@@H]2N=C(O)N[C@H]12
RETENTIONTIME: 
CCS: 158.6727271
IONMODE: Negative
INSTRUMENTTYPE: LC-ESI-QTOF
INSTRUMENT: 
COLLISIONENERGY: 20
Comment: registered in MassBank
Num Peaks: 12
122.0972	77
156.08569	101
165.10361	49
166.08749	303
167.0907	30
197.0929	58
199.09129	39
200.0753	605
201.07851	57
202.0713	24
209.0938	89
243.0815	1000

NAME: Chrysin; LC-ESI-QTOF; MS2; [M-H]-; CE
PRECURSORMZ: 253.050632
PRECURSORTYPE: [M-H]-
FORMULA: C15H10O4
Ontology: Flavones
INCHIKEY: RTIXKCRFFJGDFG-UHFFFAOYSA-N
SMILES: OC1=CC(O)=C2C(=O)C=C(OC2=C1)C1=CC=CC=C1
RETENTIONTIME: 
CCS: 157.1834423
IONMODE: Negative
INSTRUMENTTYPE: LC-ESI-QTOF
INSTRUMENT: 
COLLISIONENERGY: 20
Comment: registered in MassBank
Num Peaks: 2
209.0607	11
253.0504	1000

NAME: Chrysin; LC-ESI-QTOF; MS2; [M-H]-; CE
PRECURSORMZ: 253.050632
PRECURSORTYPE: [M-H]-
FORMULA: C15H10O4
Ontology: Flavones
INCHIKEY: RTIXKCRFFJGDFG-UHFFFAOYSA-N
SMILES: OC1=CC(O)=C2C(=O)C=C(OC2=C1)C1=CC=CC=C1
RETENTIONTIME: 
CCS: 157.1834423
IONMODE: Negative
INSTRUMENTTYPE: LC-ESI-QTOF
INSTRUMENT: 
COLLISIONENERGY: 30
Comment: registered in MassBank
Num Peaks: 18
107.0141	35
119.0503	27
143.05009	99
144.0533	11
145.02921	49
151.0034	23
165.071	20
167.0498	18
180.0582	13
181.0656	28
185.0609	38
187.03951	11
197.06	11
209.06059	96
210.06419	13
211.0401	26
225.0556	13
253.0506	1000

NAME: Chrysin; LC-ESI-QTOF; MS2; [M-H]-; CE
PRECURSORMZ: 253.050632
PRECURSORTYPE: [M-H]-
FORMULA: C15H10O4
Ontology: Flavones
INCHIKEY: RTIXKCRFFJGDFG-UHFFFAOYSA-N
SMILES: OC1=CC(O)=C2C(=O)C=C(OC2=C1)C1=CC=CC=C1
RETENTIONTIME: 
CCS: 157.1834423
IONMODE: Negative
INSTRUMENTTYPE: LC-ESI-QTOF
INSTRUMENT: 
COLLISIONENERGY: 40
Comment: registered in MassBank
Num Peaks: 31
89.0035	35
101.0401	84
107.0143	186
115.0551	72
119.0502	439
120.0534	39
139.0551	53
143.05009	1000
144.0538	105
145.0293	473
146.033	41
151.00369	93
153.0713	32
155.05	63
157.06599	29
165.0706	73
167.05009	122
168.05409	22
169.0658	22
180.05769	49
181.0656	97
183.045	37
185.06081	81
187.0394	20
197.06129	28
208.05341	38
209.06081	192
210.06419	25
211.0408	62
225.05569	26
253.05099	624

NAME: Chrysin; LC-ESI-QTOF; MS2; [M-H]-; CE
PRECURSORMZ: 253.050632
PRECURSORTYPE: [M-H]-
FORMULA: C15H10O4
Ontology: Flavones
INCHIKEY: RTIXKCRFFJGDFG-UHFFFAOYSA-N
SMILES: OC1=CC(O)=C2C(=O)C=C(OC2=C1)C1=CC=CC=C1
RETENTIONTIME: 
CCS: 157.1834423
IONMODE: Negative
INSTRUMENTTYPE: LC-ESI-QTOF
INSTRUMENT: 
COLLISIONENERGY: 50
Comment: registered in MassBank
Num Peaks: 19
89.0039	55
101.0399	268
107.0136	200
115.0553	203
117.0347	57
119.0502	852
120.0533	94
139.0556	76
143.05	1000
144.054	89
145.0293	737
146.03239	97
151.0027	53
155.04961	83
165.071	61
167.05029	126
169.0649	55
181.0668	53
253.05119	94

NAME: Emodin; LC-ESI-QTOF; MS2; [M-H]-; CE
PRECURSORMZ: 269.045547
PRECURSORTYPE: [M-H]-
FORMULA: C15H10O5
Ontology: Hydroxyanthraquinones
INCHIKEY: RHMXXJGYXNZAPX-UHFFFAOYSA-N
SMILES: CC1=CC2=C(C(O)=C1)C(=O)C1=C(C=C(O)C=C1O)C2=O
RETENTIONTIME: 
CCS: 161.0694156
IONMODE: Negative
INSTRUMENTTYPE: LC-ESI-QTOF
INSTRUMENT: 
COLLISIONENERGY: 20
Comment: registered in MassBank
Num Peaks: 2
225.056	12
269.04559	1000

NAME: Emodin; LC-ESI-QTOF; MS2; [M-H]-; CE
PRECURSORMZ: 269.045547
PRECURSORTYPE: [M-H]-
FORMULA: C15H10O5
Ontology: Hydroxyanthraquinones
INCHIKEY: RHMXXJGYXNZAPX-UHFFFAOYSA-N
SMILES: CC1=CC2=C(C(O)=C1)C(=O)C1=C(C=C(O)C=C1O)C2=O
RETENTIONTIME: 
CCS: 161.0694156
IONMODE: Negative
INSTRUMENTTYPE: LC-ESI-QTOF
INSTRUMENT: 
COLLISIONENERGY: 30
Comment: registered in MassBank
Num Peaks: 9
181.0661	17
197.0611	20
210.0323	12
225.05611	321
226.0592	51
227.0356	23
241.0511	125
242.05409	16
269.0462	1000

NAME: Emodin; LC-ESI-QTOF; MS2; [M-H]-; CE
PRECURSORMZ: 269.045547
PRECURSORTYPE: [M-H]-
FORMULA: C15H10O5
Ontology: Hydroxyanthraquinones
INCHIKEY: RHMXXJGYXNZAPX-UHFFFAOYSA-N
SMILES: CC1=CC2=C(C(O)=C1)C(=O)C1=C(C=C(O)C=C1O)C2=O
RETENTIONTIME: 
CCS: 161.0694156
IONMODE: Negative
INSTRUMENTTYPE: LC-ESI-QTOF
INSTRUMENT: 
COLLISIONENERGY: 40
Comment: registered in MassBank
Num Peaks: 32
153.0706	36
154.04179	14
157.0657	19
169.0658	40
171.04491	54
179.0498	41
180.058	85
181.0657	122
182.0374	123
183.0425	20
185.0609	110
195.0453	39
196.0528	71
197.06081	249
198.064	35
199.0405	30
201.0553	17
207.0451	30
210.0323	144
211.0359	21
213.0556	136
214.05901	20
223.04041	14
224.04781	168
225.05569	1000
226.0591	164
227.0351	139
228.03999	23
240.0426	145
241.0506	496
242.054	79
269.04559	575

NAME: Emodin; LC-ESI-QTOF; MS2; [M-H]-; CE
PRECURSORMZ: 269.045547
PRECURSORTYPE: [M-H]-
FORMULA: C15H10O5
Ontology: Hydroxyanthraquinones
INCHIKEY: RHMXXJGYXNZAPX-UHFFFAOYSA-N
SMILES: CC1=CC2=C(C(O)=C1)C(=O)C1=C(C=C(O)C=C1O)C2=O
RETENTIONTIME: 
CCS: 161.0694156
IONMODE: Negative
INSTRUMENTTYPE: LC-ESI-QTOF
INSTRUMENT: 
COLLISIONENERGY: 50
Comment: registered in MassBank
Num Peaks: 44
105.035	181
115.0555	79
139.0551	95
143.05009	80
152.06281	78
153.0708	151
154.0424	175
155.0497	57
157.0658	240
167.0504	108
168.05721	128
169.0657	113
171.0451	570
172.05099	71
173.05991	82
175.0399	71
179.0502	161
180.058	321
181.0656	235
182.0374	874
183.04201	139
184.0522	79
185.06081	980
186.06441	123
195.0452	625
196.0527	520
197.0605	617
198.0638	94
199.0399	207
207.0446	61
210.03259	260
212.0477	149
213.05569	490
214.0594	65
223.0403	102
224.0481	622
225.05569	938
226.0589	109
227.03481	249
228.03999	56
240.043	1000
241.05029	683
242.0531	96
269.0462	147

NAME: (-)-Epicatechin; LC-ESI-QTOF; MS2; [M-H]-; CE
PRECURSORMZ: 289.071762
PRECURSORTYPE: [M-H]-
FORMULA: C15H14O6
Ontology: Catechins
INCHIKEY: PFTAWBLQPZVEMU-UKRRQHHQSA-N
SMILES: O[C@@H]1CC2=C(O)C=C(O)C=C2O[C@@H]1C1=CC(O)=C(O)C=C1
RETENTIONTIME: 
CCS: 167.2576758
IONMODE: Negative
INSTRUMENTTYPE: LC-ESI-QTOF
INSTRUMENT: 
COLLISIONENERGY: 10
Comment: registered in MassBank
Num Peaks: 2
245.0817	48
289.07199	1000

NAME: (-)-Epicatechin; LC-ESI-QTOF; MS2; [M-H]-; CE
PRECURSORMZ: 289.071762
PRECURSORTYPE: [M-H]-
FORMULA: C15H14O6
Ontology: Catechins
INCHIKEY: PFTAWBLQPZVEMU-UKRRQHHQSA-N
SMILES: O[C@@H]1CC2=C(O)C=C(O)C=C2O[C@@H]1C1=CC(O)=C(O)C=C1
RETENTIONTIME: 
CCS: 167.2576758
IONMODE: Negative
INSTRUMENTTYPE: LC-ESI-QTOF
INSTRUMENT: 
COLLISIONENERGY: 20
Comment: registered in MassBank
Num Peaks: 26
109.0297	55
123.0449	51
125.0242	141
137.0244	62
139.0401	26
149.02451	54
151.0401	70
161.0605	37
162.0323	24
165.0197	69
167.0347	29
179.0351	111
187.04021	45
188.04739	34
202.06329	41
203.0714	149
204.075	32
205.05051	186
206.0542	27
221.0817	92
227.071	45
245.08211	584
246.0853	96
247.0614	44
271.0618	23
289.0719	1000

NAME: (-)-Epicatechin; LC-ESI-QTOF; MS2; [M-H]-; CE
PRECURSORMZ: 289.071762
PRECURSORTYPE: [M-H]-
FORMULA: C15H14O6
Ontology: Catechins
INCHIKEY: PFTAWBLQPZVEMU-UKRRQHHQSA-N
SMILES: O[C@@H]1CC2=C(O)C=C(O)C=C2O[C@@H]1C1=CC(O)=C(O)C=C1
RETENTIONTIME: 
CCS: 167.2576758
IONMODE: Negative
INSTRUMENTTYPE: LC-ESI-QTOF
INSTRUMENT: 
COLLISIONENERGY: 30
Comment: registered in MassBank
Num Peaks: 32
95.0505	117
97.0296	131
109.0294	540
121.0291	265
122.0365	124
123.0449	1000
125.024	850
137.02431	446
138.0316	130
139.03951	218
149.0244	357
150.03191	118
151.0399	601
159.0453	129
161.06149	262
162.0318	136
163.03951	152
164.0108	211
165.0193	216
167.0351	93
175.0397	117
179.03461	235
187.0394	219
188.0473	185
202.06329	216
203.0712	781
205.05051	555
221.0815	871
222.0863	114
227.0706	137
245.08141	409
289.0715	138

NAME: (-)-Epicatechin; LC-ESI-QTOF; MS2; [M-H]-; CE
PRECURSORMZ: 289.071762
PRECURSORTYPE: [M-H]-
FORMULA: C15H14O6
Ontology: Catechins
INCHIKEY: PFTAWBLQPZVEMU-UKRRQHHQSA-N
SMILES: O[C@@H]1CC2=C(O)C=C(O)C=C2O[C@@H]1C1=CC(O)=C(O)C=C1
RETENTIONTIME: 
CCS: 167.2576758
IONMODE: Negative
INSTRUMENTTYPE: LC-ESI-QTOF
INSTRUMENT: 
COLLISIONENERGY: 40
Comment: registered in MassBank
Num Peaks: 31
95.0499	71
97.0293	140
109.0295	493
121.0284	165
122.0369	221
123.0446	1000
124.0479	80
125.0243	260
135.04449	99
137.02431	258
138.0311	95
139.03979	177
145.0293	89
149.02409	170
150.03101	167
151.0394	323
159.0453	106
160.052	70
161.06059	98
162.032	66
163.03999	74
164.01089	110
165.01871	62
175.076	92
177.0551	55
187.03979	112
188.04671	65
201.05479	61
203.0708	134
205.0511	69
221.0817	171

NAME: (-)-Epicatechin; LC-ESI-QTOF; MS2; [M-H]-; CE
PRECURSORMZ: 289.071762
PRECURSORTYPE: [M-H]-
FORMULA: C15H14O6
Ontology: Catechins
INCHIKEY: PFTAWBLQPZVEMU-UKRRQHHQSA-N
SMILES: O[C@@H]1CC2=C(O)C=C(O)C=C2O[C@@H]1C1=CC(O)=C(O)C=C1
RETENTIONTIME: 
CCS: 167.2576758
IONMODE: Negative
INSTRUMENTTYPE: LC-ESI-QTOF
INSTRUMENT: 
COLLISIONENERGY: 50
Comment: registered in MassBank
Num Peaks: 19
95.0498	100
97.0297	154
108.0212	127
109.0295	691
121.0291	224
122.0372	404
123.0448	1000
124.0485	78
125.0238	133
135.0448	155
137.02431	320
139.0401	128
145.03011	96
149.02431	125
150.032	184
151.0394	171
159.045	144
173.05969	110
201.0573	79

NAME: Aesculetin; LC-ESI-QTOF; MS2; [M-H]-; CE
PRECURSORMZ: 177.019332
PRECURSORTYPE: [M-H]-
FORMULA: C9H6O4
Ontology: 6,7-dihydroxycoumarins
INCHIKEY: ILEDWLMCKZNDJK-UHFFFAOYSA-N
SMILES: OC1=CC2=C(C=CC(=O)O2)C=C1O
RETENTIONTIME: 
CCS: 133.7248242
IONMODE: Negative
INSTRUMENTTYPE: LC-ESI-QTOF
INSTRUMENT: 
COLLISIONENERGY: 20
Comment: registered in MassBank
Num Peaks: 7
105.0349	91
121.0294	12
133.0294	300
134.03259	30
139.0397	10
149.02451	80
177.01939	1000

NAME: Aesculetin; LC-ESI-QTOF; MS2; [M-H]-; CE
PRECURSORMZ: 177.019332
PRECURSORTYPE: [M-H]-
FORMULA: C9H6O4
Ontology: 6,7-dihydroxycoumarins
INCHIKEY: ILEDWLMCKZNDJK-UHFFFAOYSA-N
SMILES: OC1=CC2=C(C=CC(=O)O2)C=C1O
RETENTIONTIME: 
CCS: 133.7248242
IONMODE: Negative
INSTRUMENTTYPE: LC-ESI-QTOF
INSTRUMENT: 
COLLISIONENERGY: 30
Comment: registered in MassBank
Num Peaks: 18
89.0402	165
93.035	127
95.05	66
97.0293	38
105.035	629
106.038	53
107.0137	50
109.0294	35
121.0295	332
125.0246	88
131.0136	37
133.0294	1000
134.0332	100
139.0403	132
148.0164	34
149.02451	655
150.0284	65
177.0195	753

NAME: Fisetin; LC-ESI-QTOF; MS2; [M-H]-; CE
PRECURSORMZ: 285.040462
PRECURSORTYPE: [M-H]-
FORMULA: C15H10O6
Ontology: Flavonols
INCHIKEY: XHEFDIBZLJXQHF-UHFFFAOYSA-N
SMILES: OC1=CC2=C(C=C1)C(=O)C(O)=C(O2)C1=CC(O)=C(O)C=C1
RETENTIONTIME: 
CCS: 163.2534277
IONMODE: Negative
INSTRUMENTTYPE: LC-ESI-QTOF
INSTRUMENT: 
COLLISIONENERGY: 10
Comment: registered in MassBank
Num Peaks: 2
163.0033	19
285.0412	1000

NAME: Fisetin; LC-ESI-QTOF; MS2; [M-H]-; CE
PRECURSORMZ: 285.040462
PRECURSORTYPE: [M-H]-
FORMULA: C15H10O6
Ontology: Flavonols
INCHIKEY: XHEFDIBZLJXQHF-UHFFFAOYSA-N
SMILES: OC1=CC2=C(C=C1)C(=O)C(O)=C(O2)C1=CC(O)=C(O)C=C1
RETENTIONTIME: 
CCS: 163.2534277
IONMODE: Negative
INSTRUMENTTYPE: LC-ESI-QTOF
INSTRUMENT: 
COLLISIONENERGY: 20
Comment: registered in MassBank
Num Peaks: 13
121.0297	116
135.0087	134
149.02451	82
153.0195	242
154.0226	25
163.0038	304
164.00751	24
213.0563	23
229.05099	42
241.05099	47
257.0459	104
258.04941	20
285.04071	1000

NAME: Fisetin; LC-ESI-QTOF; MS2; [M-H]-; CE
PRECURSORMZ: 285.040462
PRECURSORTYPE: [M-H]-
FORMULA: C15H10O6
Ontology: Flavonols
INCHIKEY: XHEFDIBZLJXQHF-UHFFFAOYSA-N
SMILES: OC1=CC2=C(C=C1)C(=O)C(O)=C(O2)C1=CC(O)=C(O)C=C1
RETENTIONTIME: 
CCS: 163.2534277
IONMODE: Negative
INSTRUMENTTYPE: LC-ESI-QTOF
INSTRUMENT: 
COLLISIONENERGY: 30
Comment: registered in MassBank
Num Peaks: 19
91.0193	70
121.0294	830
122.0318	81
135.00861	782
136.0119	71
139.0401	229
149.02431	608
150.02769	85
153.01939	1000
163.0034	319
185.06081	70
211.03979	101
213.0549	80
229.0507	483
230.0538	81
240.0407	61
241.05009	118
257.04568	142
285.04019	734

NAME: Fisetin; LC-ESI-QTOF; MS2; [M-H]-; CE
PRECURSORMZ: 285.040462
PRECURSORTYPE: [M-H]-
FORMULA: C15H10O6
Ontology: Flavonols
INCHIKEY: XHEFDIBZLJXQHF-UHFFFAOYSA-N
SMILES: OC1=CC2=C(C=C1)C(=O)C(O)=C(O2)C1=CC(O)=C(O)C=C1
RETENTIONTIME: 
CCS: 163.2534277
IONMODE: Negative
INSTRUMENTTYPE: LC-ESI-QTOF
INSTRUMENT: 
COLLISIONENERGY: 40
Comment: registered in MassBank
Num Peaks: 24
91.0192	147
93.0348	113
109.0303	79
121.0292	1000
122.0321	81
135.0088	501
139.0399	431
140.04311	67
148.0166	82
149.0244	343
153.0193	379
163.00301	53
183.0457	69
184.05209	48
185.0611	133
195.0452	48
201.0554	60
211.04021	188
227.034	65
229.0506	295
230.0531	53
239.0359	87
240.04201	73
285.0405	64

NAME: Fisetin; LC-ESI-QTOF; MS2; [M-H]-; CE
PRECURSORMZ: 285.040462
PRECURSORTYPE: [M-H]-
FORMULA: C15H10O6
Ontology: Flavonols
INCHIKEY: XHEFDIBZLJXQHF-UHFFFAOYSA-N
SMILES: OC1=CC2=C(C=C1)C(=O)C(O)=C(O2)C1=CC(O)=C(O)C=C1
RETENTIONTIME: 
CCS: 163.2534277
IONMODE: Negative
INSTRUMENTTYPE: LC-ESI-QTOF
INSTRUMENT: 
COLLISIONENERGY: 50
Comment: registered in MassBank
Num Peaks: 14
91.0195	293
93.035	330
121.0293	1000
122.0325	143
135.0088	289
139.0397	431
149.0237	144
153.0192	188
167.0511	96
182.03751	104
183.0451	147
185.0614	120
211.03951	216
239.0349	132

NAME: Harman; LC-ESI-QTOF; MS2; [M-H]-; CE
PRECURSORMZ: 181.077122
PRECURSORTYPE: [M-H]-
FORMULA: C12H10N2
Ontology: Harmala alkaloids
INCHIKEY: PSFDQSOCUJVVGF-UHFFFAOYSA-N
SMILES: CC1=C2NC3=CC=CC=C3C2=CC=N1
RETENTIONTIME: 
CCS: 141.9225576
IONMODE: Negative
INSTRUMENTTYPE: LC-ESI-QTOF
INSTRUMENT: 
COLLISIONENERGY: 20
Comment: registered in MassBank
Num Peaks: 2
180.069	12
181.077	1000

NAME: Harman; LC-ESI-QTOF; MS2; [M-H]-; CE
PRECURSORMZ: 181.077122
PRECURSORTYPE: [M-H]-
FORMULA: C12H10N2
Ontology: Harmala alkaloids
INCHIKEY: PSFDQSOCUJVVGF-UHFFFAOYSA-N
SMILES: CC1=C2NC3=CC=CC=C3C2=CC=N1
RETENTIONTIME: 
CCS: 141.9225576
IONMODE: Negative
INSTRUMENTTYPE: LC-ESI-QTOF
INSTRUMENT: 
COLLISIONENERGY: 30
Comment: registered in MassBank
Num Peaks: 6
140.05	18
154.0663	14
165.0459	73
166.0526	29
180.0694	219
181.07719	1000

NAME: Harman; LC-ESI-QTOF; MS2; [M-H]-; CE
PRECURSORMZ: 181.077122
PRECURSORTYPE: [M-H]-
FORMULA: C12H10N2
Ontology: Harmala alkaloids
INCHIKEY: PSFDQSOCUJVVGF-UHFFFAOYSA-N
SMILES: CC1=C2NC3=CC=CC=C3C2=CC=N1
RETENTIONTIME: 
CCS: 141.9225576
IONMODE: Negative
INSTRUMENTTYPE: LC-ESI-QTOF
INSTRUMENT: 
COLLISIONENERGY: 40
Comment: registered in MassBank
Num Peaks: 9
139.0421	48
140.0502	149
153.05881	38
154.0659	35
165.04581	1000
166.05009	135
167.0607	37
180.06931	554
181.0769	973

NAME: Harman; LC-ESI-QTOF; MS2; [M-H]-; CE
PRECURSORMZ: 181.077122
PRECURSORTYPE: [M-H]-
FORMULA: C12H10N2
Ontology: Harmala alkaloids
INCHIKEY: PSFDQSOCUJVVGF-UHFFFAOYSA-N
SMILES: CC1=C2NC3=CC=CC=C3C2=CC=N1
RETENTIONTIME: 
CCS: 141.9225576
IONMODE: Negative
INSTRUMENTTYPE: LC-ESI-QTOF
INSTRUMENT: 
COLLISIONENERGY: 50
Comment: registered in MassBank
Num Peaks: 7
140.0502	83
164.03909	28
165.0459	1000
166.0486	134
167.0619	36
180.069	93
181.0769	65

NAME: Harmine; LC-ESI-QTOF; MS2; [M-H]-; CE
PRECURSORMZ: 211.087687
PRECURSORTYPE: [M-H]-
FORMULA: C13H12N2O
Ontology: Harmala alkaloids
INCHIKEY: BXNJHAXVSOCGBA-UHFFFAOYSA-N
SMILES: COC1=CC2=C(C=C1)C1=CC=NC(C)=C1N2
RETENTIONTIME: 
CCS: 152.1045124
IONMODE: Negative
INSTRUMENTTYPE: LC-ESI-QTOF
INSTRUMENT: 
COLLISIONENERGY: 10
Comment: registered in MassBank
Num Peaks: 3
196.06441	146
197.0677	18
211.088	1000

NAME: Harmine; LC-ESI-QTOF; MS2; [M-H]-; CE
PRECURSORMZ: 211.087687
PRECURSORTYPE: [M-H]-
FORMULA: C13H12N2O
Ontology: Harmala alkaloids
INCHIKEY: BXNJHAXVSOCGBA-UHFFFAOYSA-N
SMILES: COC1=CC2=C(C=C1)C1=CC=NC(C)=C1N2
RETENTIONTIME: 
CCS: 152.1045124
IONMODE: Negative
INSTRUMENTTYPE: LC-ESI-QTOF
INSTRUMENT: 
COLLISIONENERGY: 20
Comment: registered in MassBank
Num Peaks: 4
196.06441	1000
197.0677	154
198.0705	12
211.08791	197

NAME: Harmine; LC-ESI-QTOF; MS2; [M-H]-; CE
PRECURSORMZ: 211.087687
PRECURSORTYPE: [M-H]-
FORMULA: C13H12N2O
Ontology: Harmala alkaloids
INCHIKEY: BXNJHAXVSOCGBA-UHFFFAOYSA-N
SMILES: COC1=CC2=C(C=C1)C1=CC=NC(C)=C1N2
RETENTIONTIME: 
CCS: 152.1045124
IONMODE: Negative
INSTRUMENTTYPE: LC-ESI-QTOF
INSTRUMENT: 
COLLISIONENERGY: 30
Comment: registered in MassBank
Num Peaks: 6
168.0695	184
169.07269	27
195.05659	25
196.0645	1000
197.0676	164
198.07069	12

NAME: Harmine; LC-ESI-QTOF; MS2; [M-H]-; CE
PRECURSORMZ: 211.087687
PRECURSORTYPE: [M-H]-
FORMULA: C13H12N2O
Ontology: Harmala alkaloids
INCHIKEY: BXNJHAXVSOCGBA-UHFFFAOYSA-N
SMILES: COC1=CC2=C(C=C1)C1=CC=NC(C)=C1N2
RETENTIONTIME: 
CCS: 152.1045124
IONMODE: Negative
INSTRUMENTTYPE: LC-ESI-QTOF
INSTRUMENT: 
COLLISIONENERGY: 40
Comment: registered in MassBank
Num Peaks: 6
167.06081	20
168.0692	793
169.07249	109
195.0564	341
196.064	1000
197.0674	127

NAME: Harmine; LC-ESI-QTOF; MS2; [M-H]-; CE
PRECURSORMZ: 211.087687
PRECURSORTYPE: [M-H]-
FORMULA: C13H12N2O
Ontology: Harmala alkaloids
INCHIKEY: BXNJHAXVSOCGBA-UHFFFAOYSA-N
SMILES: COC1=CC2=C(C=C1)C1=CC=NC(C)=C1N2
RETENTIONTIME: 
CCS: 152.1045124
IONMODE: Negative
INSTRUMENTTYPE: LC-ESI-QTOF
INSTRUMENT: 
COLLISIONENERGY: 50
Comment: registered in MassBank
Num Peaks: 6
167.06171	146
168.0695	952
169.0728	92
195.0565	1000
196.06371	397
197.06689	88

NAME: Hesperetin; LC-ESI-QTOF; MS2; [M-H]-; CE
PRECURSORMZ: 301.071762
PRECURSORTYPE: [M-H]-
FORMULA: C16H14O6
Ontology: 4'-O-methylated flavonoids
INCHIKEY: AIONOLUJZLIMTK-AWEZNQCLSA-N
SMILES: COC1=C(O)C=C(C=C1)[C@@H]1CC(=O)C2=C(O)C=C(O)C=C2O1
RETENTIONTIME: 
CCS: 171.1305627
IONMODE: Negative
INSTRUMENTTYPE: LC-ESI-QTOF
INSTRUMENT: 
COLLISIONENERGY: 20
Comment: registered in MassBank
Num Peaks: 15
125.0242	26
149.06081	13
151.00369	42
164.0116	61
174.0327	12
199.04041	13
201.01961	14
217.0507	13
242.0584	71
257.08191	87
258.05319	36
283.06119	24
286.04819	240
287.05109	37
301.07169	1000

NAME: Hesperetin; LC-ESI-QTOF; MS2; [M-H]-; CE
PRECURSORMZ: 301.071762
PRECURSORTYPE: [M-H]-
FORMULA: C16H14O6
Ontology: 4'-O-methylated flavonoids
INCHIKEY: AIONOLUJZLIMTK-AWEZNQCLSA-N
SMILES: COC1=C(O)C=C(C=C1)[C@@H]1CC(=O)C2=C(O)C=C(O)C=C2O1
RETENTIONTIME: 
CCS: 171.1305627
IONMODE: Negative
INSTRUMENTTYPE: LC-ESI-QTOF
INSTRUMENT: 
COLLISIONENERGY: 30
Comment: registered in MassBank
Num Peaks: 57
107.014	29
108.0218	27
124.016	20
125.0241	56
134.0369	218
135.0434	47
136.0161	227
137.0201	20
149.06059	55
151.0033	619
152.00909	52
158.037	41
160.0164	16
164.01109	1000
165.015	99
169.0137	13
172.05321	15
173.061	26
174.03191	125
175.03751	23
176.0471	19
177.01891	47
187.0406	22
188.04781	22
191.0717	37
196.0014	15
198.0321	14
199.0399	113
200.0472	96
201.019	138
202.0255	48
213.05569	21
214.0631	79
215.0349	60
216.04221	42
217.04961	51
218.05769	14
224.04781	19
225.05431	14
227.03481	31
230.058	23
233.0817	21
240.0424	42
241.05009	93
242.0582	318
243.0618	45
244.0369	18
257.0817	145
258.0535	92
259.05899	25
268.0376	62
269.0444	18
283.06079	37
285.04031	113
286.048	346
287.05121	59
301.07159	310

NAME: Hesperetin; LC-ESI-QTOF; MS2; [M-H]-; CE
PRECURSORMZ: 301.071762
PRECURSORTYPE: [M-H]-
FORMULA: C16H14O6
Ontology: 4'-O-methylated flavonoids
INCHIKEY: AIONOLUJZLIMTK-AWEZNQCLSA-N
SMILES: COC1=C(O)C=C(C=C1)[C@@H]1CC(=O)C2=C(O)C=C(O)C=C2O1
RETENTIONTIME: 
CCS: 171.1305627
IONMODE: Negative
INSTRUMENTTYPE: LC-ESI-QTOF
INSTRUMENT: 
COLLISIONENERGY: 40
Comment: registered in MassBank
Num Peaks: 51
107.0143	184
108.0221	384
109.0252	32
120.0219	32
124.0162	66
125.0241	49
133.0294	30
134.0372	602
135.04469	255
136.0164	970
137.02	74
149.0605	39
151.00369	888
152.0094	83
158.03709	91
160.01649	32
161.0247	22
164.0116	1000
165.0163	107
171.0451	34
172.0528	46
173.0242	25
174.0325	93
175.03951	54
176.04761	64
177.01961	105
185.0602	31
186.0685	27
187.03979	30
188.04829	29
191.0719	25
198.03259	23
199.0401	135
200.04739	95
201.0195	153
202.0266	62
203.03391	22
213.05589	66
214.06371	114
215.0352	68
216.0428	40
217.0498	31
227.0351	29
240.04311	46
241.0511	112
242.0585	89
243.0307	33
257.0451	36
269.0462	41
285.04111	292
286.04651	68

NAME: Hesperetin; LC-ESI-QTOF; MS2; [M-H]-; CE
PRECURSORMZ: 301.071762
PRECURSORTYPE: [M-H]-
FORMULA: C16H14O6
Ontology: 4'-O-methylated flavonoids
INCHIKEY: AIONOLUJZLIMTK-AWEZNQCLSA-N
SMILES: COC1=C(O)C=C(C=C1)[C@@H]1CC(=O)C2=C(O)C=C(O)C=C2O1
RETENTIONTIME: 
CCS: 171.1305627
IONMODE: Negative
INSTRUMENTTYPE: LC-ESI-QTOF
INSTRUMENT: 
COLLISIONENERGY: 50
Comment: registered in MassBank
Num Peaks: 40
107.0139	344
108.0218	1000
109.0255	67
120.0218	46
121.0292	39
124.0168	108
133.0291	172
134.03709	750
135.0448	716
136.0163	981
137.02049	67
143.0498	46
147.0443	49
148.05299	43
151.0036	581
152.0097	54
158.03729	144
159.0443	45
164.0114	326
165.0179	60
171.045	103
172.052	65
173.0242	62
174.03149	94
175.03951	114
176.0472	78
177.01891	106
185.0607	90
187.03979	48
198.0318	56
199.03999	159
201.0193	173
202.02541	44
213.0555	91
214.0621	41
215.035	53
241.0497	78
243.0293	60
257.04581	49
285.04019	196

NAME: 7-Hydroxyflavone; LC-ESI-QTOF; MS2; [M-H]-; CE
PRECURSORMZ: 237.055718
PRECURSORTYPE: [M-H]-
FORMULA: C15H10O3
Ontology: Flavones
INCHIKEY: MQGPSCMMNJKMHQ-UHFFFAOYSA-N
SMILES: OC1=CC2=C(C=C1)C(=O)C=C(O2)C1=CC=CC=C1
RETENTIONTIME: 
CCS: 153.7149594
IONMODE: Negative
INSTRUMENTTYPE: LC-ESI-QTOF
INSTRUMENT: 
COLLISIONENERGY: 30
Comment: registered in MassBank
Num Peaks: 11
132.0215	12
135.00841	28
165.07111	24
167.05051	12
180.0582	24
181.0657	27
193.0659	83
208.0531	115
209.06039	66
210.0639	12
237.056	1000

NAME: 7-Hydroxyflavone; LC-ESI-QTOF; MS2; [M-H]-; CE
PRECURSORMZ: 237.055718
PRECURSORTYPE: [M-H]-
FORMULA: C15H10O3
Ontology: Flavones
INCHIKEY: MQGPSCMMNJKMHQ-UHFFFAOYSA-N
SMILES: OC1=CC2=C(C=C1)C(=O)C=C(O2)C1=CC=CC=C1
RETENTIONTIME: 
CCS: 153.7149594
IONMODE: Negative
INSTRUMENTTYPE: LC-ESI-QTOF
INSTRUMENT: 
COLLISIONENERGY: 40
Comment: registered in MassBank
Num Peaks: 32
91.0192	167
101.0403	25
104.0271	16
115.0557	22
117.0346	61
132.0213	182
135.0083	173
139.05479	45
143.0498	177
144.0533	20
145.02921	21
152.0631	47
153.01891	58
155.0498	18
160.01601	30
165.0706	219
166.0739	32
167.04961	223
168.05341	21
169.0291	32
171.0811	19
180.0578	314
181.065	155
182.0692	17
193.0656	359
194.06889	54
195.04469	44
208.0528	659
209.0592	203
210.0632	31
236.047	33
237.0556	1000

NAME: 7-Hydroxyflavone; LC-ESI-QTOF; MS2; [M-H]-; CE
PRECURSORMZ: 237.055718
PRECURSORTYPE: [M-H]-
FORMULA: C15H10O3
Ontology: Flavones
INCHIKEY: MQGPSCMMNJKMHQ-UHFFFAOYSA-N
SMILES: OC1=CC2=C(C=C1)C(=O)C=C(O2)C1=CC=CC=C1
RETENTIONTIME: 
CCS: 153.7149594
IONMODE: Negative
INSTRUMENTTYPE: LC-ESI-QTOF
INSTRUMENT: 
COLLISIONENERGY: 50
Comment: registered in MassBank
Num Peaks: 29
89.0038	87
91.0197	1000
101.0403	282
104.0272	207
115.0555	168
117.0348	429
125.04	119
132.0218	877
135.0087	436
139.05521	341
141.0345	120
143.0506	792
145.03	113
152.063	182
153.02029	132
155.0506	119
165.0713	532
166.07449	78
167.0506	738
168.05409	137
169.03	89
180.0582	997
181.06329	235
191.05141	128
193.0659	465
195.04581	92
208.05321	937
209.05881	203
237.05569	419

NAME: Hyperoside; LC-ESI-QTOF; MS2; [M-H]-; CE
PRECURSORMZ: 463.0882
PRECURSORTYPE: [M-H]-
FORMULA: C21H20O12
Ontology: Flavonoid-3-O-glycosides
INCHIKEY: OVSQVDMCBVZWGM-DTGCRPNFSA-N
SMILES: OC[C@H]1O[C@@H](OC2=C(OC3=CC(O)=CC(O)=C3C2=O)C2=CC(O)=C(O)C=C2)[C@H](O)[C@@H](O)[C@H]1O
RETENTIONTIME: 
CCS: 201.8799825
IONMODE: Negative
INSTRUMENTTYPE: LC-ESI-QTOF
INSTRUMENT: 
COLLISIONENERGY: 20
Comment: registered in MassBank
Num Peaks: 4
300.02771	115
301.03479	112
302.039	15
463.08829	1000

NAME: Hyperoside; LC-ESI-QTOF; MS2; [M-H]-; CE
PRECURSORMZ: 463.0882
PRECURSORTYPE: [M-H]-
FORMULA: C21H20O12
Ontology: Flavonoid-3-O-glycosides
INCHIKEY: OVSQVDMCBVZWGM-DTGCRPNFSA-N
SMILES: OC[C@H]1O[C@@H](OC2=C(OC3=CC(O)=CC(O)=C3C2=O)C2=CC(O)=C(O)C=C2)[C@H](O)[C@@H](O)[C@H]1O
RETENTIONTIME: 
CCS: 201.8799825
IONMODE: Negative
INSTRUMENTTYPE: LC-ESI-QTOF
INSTRUMENT: 
COLLISIONENERGY: 30
Comment: registered in MassBank
Num Peaks: 5
300.02789	1000
301.03448	487
302.0379	69
303.0397	12
463.0882	343

NAME: Hyperoside; LC-ESI-QTOF; MS2; [M-H]-; CE
PRECURSORMZ: 463.0882
PRECURSORTYPE: [M-H]-
FORMULA: C21H20O12
Ontology: Flavonoid-3-O-glycosides
INCHIKEY: OVSQVDMCBVZWGM-DTGCRPNFSA-N
SMILES: OC[C@H]1O[C@@H](OC2=C(OC3=CC(O)=CC(O)=C3C2=O)C2=CC(O)=C(O)C=C2)[C@H](O)[C@@H](O)[C@H]1O
RETENTIONTIME: 
CCS: 201.8799825
IONMODE: Negative
INSTRUMENTTYPE: LC-ESI-QTOF
INSTRUMENT: 
COLLISIONENERGY: 40
Comment: registered in MassBank
Num Peaks: 10
151.0038	18
178.99899	20
243.02969	12
255.0303	55
271.02499	105
272.03079	26
300.02811	1000
301.034	317
302.0368	47
463.08969	10

NAME: Hyperoside; LC-ESI-QTOF; MS2; [M-H]-; CE
PRECURSORMZ: 463.0882
PRECURSORTYPE: [M-H]-
FORMULA: C21H20O12
Ontology: Flavonoid-3-O-glycosides
INCHIKEY: OVSQVDMCBVZWGM-DTGCRPNFSA-N
SMILES: OC[C@H]1O[C@@H](OC2=C(OC3=CC(O)=CC(O)=C3C2=O)C2=CC(O)=C(O)C=C2)[C@H](O)[C@@H](O)[C@H]1O
RETENTIONTIME: 
CCS: 201.8799825
IONMODE: Negative
INSTRUMENTTYPE: LC-ESI-QTOF
INSTRUMENT: 
COLLISIONENERGY: 50
Comment: registered in MassBank
Num Peaks: 22
148.0163	13
151.0036	74
163.0033	24
164.0107	10
178.9985	29
216.0424	11
226.0267	12
227.0347	20
243.03011	136
244.0358	21
245.0457	29
254.0226	39
255.0302	311
256.0336	52
271.02521	724
272.02979	125
273.03799	28
283.0256	20
299.0202	16
300.02802	1000
301.0332	246
302.03629	37

NAME: Isoquercitrin; LC-ESI-QTOF; MS2; [M-H]-; CE
PRECURSORMZ: 463.0882
PRECURSORTYPE: [M-H]-
FORMULA: C21H20O12
Ontology: Flavonoid-3-O-glycosides
INCHIKEY: OVSQVDMCBVZWGM-QSOFNFLRSA-N
SMILES: OC[C@H]1O[C@@H](OC2=C(OC3=CC(O)=CC(O)=C3C2=O)C2=CC(O)=C(O)C=C2)[C@H](O)[C@@H](O)[C@@H]1O
RETENTIONTIME: 
CCS: 201.8799825
IONMODE: Negative
INSTRUMENTTYPE: LC-ESI-QTOF
INSTRUMENT: 
COLLISIONENERGY: 10
Comment: registered in MassBank
Num Peaks: 2
463.0878	1000
463.20801	12

NAME: Isoquercitrin; LC-ESI-QTOF; MS2; [M-H]-; CE
PRECURSORMZ: 463.0882
PRECURSORTYPE: [M-H]-
FORMULA: C21H20O12
Ontology: Flavonoid-3-O-glycosides
INCHIKEY: OVSQVDMCBVZWGM-QSOFNFLRSA-N
SMILES: OC[C@H]1O[C@@H](OC2=C(OC3=CC(O)=CC(O)=C3C2=O)C2=CC(O)=C(O)C=C2)[C@H](O)[C@@H](O)[C@@H]1O
RETENTIONTIME: 
CCS: 201.8799825
IONMODE: Negative
INSTRUMENTTYPE: LC-ESI-QTOF
INSTRUMENT: 
COLLISIONENERGY: 20
Comment: registered in MassBank
Num Peaks: 4
300.02811	112
301.0354	128
302.03879	20
463.0882	1000

NAME: Isoquercitrin; LC-ESI-QTOF; MS2; [M-H]-; CE
PRECURSORMZ: 463.0882
PRECURSORTYPE: [M-H]-
FORMULA: C21H20O12
Ontology: Flavonoid-3-O-glycosides
INCHIKEY: OVSQVDMCBVZWGM-QSOFNFLRSA-N
SMILES: OC[C@H]1O[C@@H](OC2=C(OC3=CC(O)=CC(O)=C3C2=O)C2=CC(O)=C(O)C=C2)[C@H](O)[C@@H](O)[C@@H]1O
RETENTIONTIME: 
CCS: 201.8799825
IONMODE: Negative
INSTRUMENTTYPE: LC-ESI-QTOF
INSTRUMENT: 
COLLISIONENERGY: 30
Comment: registered in MassBank
Num Peaks: 7
151.0034	12
178.9986	12
300.02731	1000
301.03409	545
302.03741	83
303.04031	16
463.08789	337

NAME: Isoquercitrin; LC-ESI-QTOF; MS2; [M-H]-; CE
PRECURSORMZ: 463.0882
PRECURSORTYPE: [M-H]-
FORMULA: C21H20O12
Ontology: Flavonoid-3-O-glycosides
INCHIKEY: OVSQVDMCBVZWGM-QSOFNFLRSA-N
SMILES: OC[C@H]1O[C@@H](OC2=C(OC3=CC(O)=CC(O)=C3C2=O)C2=CC(O)=C(O)C=C2)[C@H](O)[C@@H](O)[C@@H]1O
RETENTIONTIME: 
CCS: 201.8799825
IONMODE: Negative
INSTRUMENTTYPE: LC-ESI-QTOF
INSTRUMENT: 
COLLISIONENERGY: 40
Comment: registered in MassBank
Num Peaks: 11
151.00349	23
178.9982	19
243.03011	14
255.02991	54
271.0249	117
272.03091	25
273.03989	15
283.02499	11
300.02759	1000
301.03369	347
302.0365	51

NAME: Isoquercitrin; LC-ESI-QTOF; MS2; [M-H]-; CE
PRECURSORMZ: 463.0882
PRECURSORTYPE: [M-H]-
FORMULA: C21H20O12
Ontology: Flavonoid-3-O-glycosides
INCHIKEY: OVSQVDMCBVZWGM-QSOFNFLRSA-N
SMILES: OC[C@H]1O[C@@H](OC2=C(OC3=CC(O)=CC(O)=C3C2=O)C2=CC(O)=C(O)C=C2)[C@H](O)[C@@H](O)[C@@H]1O
RETENTIONTIME: 
CCS: 201.8799825
IONMODE: Negative
INSTRUMENTTYPE: LC-ESI-QTOF
INSTRUMENT: 
COLLISIONENERGY: 50
Comment: registered in MassBank
Num Peaks: 25
121.0294	14
148.01669	11
151.0034	64
163.0034	33
164.0114	11
178.9982	31
211.03979	12
216.0425	15
226.02631	11
227.0349	27
229.0508	11
243.0295	146
244.03481	22
245.0443	27
254.0219	43
255.0295	338
256.03311	50
271.02451	788
272.02899	129
273.03659	24
283.0246	21
299.01901	19
300.02731	1000
301.03259	255
302.03589	37

NAME: Kaempferol-7-neohesperidoside; LC-ESI-QTOF; MS2; [M-H]-; CE
PRECURSORMZ: 593.151194
PRECURSORTYPE: [M-H]-
FORMULA: C27H30O15
Ontology: Flavonoid-7-O-glycosides
INCHIKEY: ZEJXENDZTYVXDP-CSJHBIPPSA-N
SMILES: C[C@@H]1O[C@@H](O[C@@H]2[C@@H](O)[C@H](O)[C@@H](CO)O[C@H]2OC2=CC(O)=C3C(=O)C(O)=C(OC3=C2)C2=CC=C(O)C=C2)[C@H](O)[C@H](O)[C@H]1O
RETENTIONTIME: 
CCS: 239.0670965
IONMODE: Negative
INSTRUMENTTYPE: LC-ESI-QTOF
INSTRUMENT: 
COLLISIONENERGY: 10
Comment: registered in MassBank
Num Peaks: 2
593.15112	1000
593.26831	28

NAME: Kaempferol-7-neohesperidoside; LC-ESI-QTOF; MS2; [M-H]-; CE
PRECURSORMZ: 593.151194
PRECURSORTYPE: [M-H]-
FORMULA: C27H30O15
Ontology: Flavonoid-7-O-glycosides
INCHIKEY: ZEJXENDZTYVXDP-CSJHBIPPSA-N
SMILES: C[C@@H]1O[C@@H](O[C@@H]2[C@@H](O)[C@H](O)[C@@H](CO)O[C@H]2OC2=CC(O)=C3C(=O)C(O)=C(OC3=C2)C2=CC=C(O)C=C2)[C@H](O)[C@H](O)[C@H]1O
RETENTIONTIME: 
CCS: 239.0670965
IONMODE: Negative
INSTRUMENTTYPE: LC-ESI-QTOF
INSTRUMENT: 
COLLISIONENERGY: 20
Comment: registered in MassBank
Num Peaks: 2
285.0401	58
593.15112	1000

NAME: Kaempferol-7-neohesperidoside; LC-ESI-QTOF; MS2; [M-H]-; CE
PRECURSORMZ: 593.151194
PRECURSORTYPE: [M-H]-
FORMULA: C27H30O15
Ontology: Flavonoid-7-O-glycosides
INCHIKEY: ZEJXENDZTYVXDP-CSJHBIPPSA-N
SMILES: C[C@@H]1O[C@@H](O[C@@H]2[C@@H](O)[C@H](O)[C@@H](CO)O[C@H]2OC2=CC(O)=C3C(=O)C(O)=C(OC3=C2)C2=CC=C(O)C=C2)[C@H](O)[C@H](O)[C@H]1O
RETENTIONTIME: 
CCS: 239.0670965
IONMODE: Negative
INSTRUMENTTYPE: LC-ESI-QTOF
INSTRUMENT: 
COLLISIONENERGY: 30
Comment: registered in MassBank
Num Peaks: 4
284.03409	36
285.04099	884
286.04379	143
593.15198	1000

NAME: Kaempferol-7-neohesperidoside; LC-ESI-QTOF; MS2; [M-H]-; CE
PRECURSORMZ: 593.151194
PRECURSORTYPE: [M-H]-
FORMULA: C27H30O15
Ontology: Flavonoid-7-O-glycosides
INCHIKEY: ZEJXENDZTYVXDP-CSJHBIPPSA-N
SMILES: C[C@@H]1O[C@@H](O[C@@H]2[C@@H](O)[C@H](O)[C@@H](CO)O[C@H]2OC2=CC(O)=C3C(=O)C(O)=C(OC3=C2)C2=CC=C(O)C=C2)[C@H](O)[C@H](O)[C@H]1O
RETENTIONTIME: 
CCS: 239.0670965
IONMODE: Negative
INSTRUMENTTYPE: LC-ESI-QTOF
INSTRUMENT: 
COLLISIONENERGY: 40
Comment: registered in MassBank
Num Peaks: 6
284.0332	92
285.0408	1000
286.04449	190
287.04739	29
429.08389	21
593.15118	132

NAME: Kaempferol-7-neohesperidoside; LC-ESI-QTOF; MS2; [M-H]-; CE
PRECURSORMZ: 593.151194
PRECURSORTYPE: [M-H]-
FORMULA: C27H30O15
Ontology: Flavonoid-7-O-glycosides
INCHIKEY: ZEJXENDZTYVXDP-CSJHBIPPSA-N
SMILES: C[C@@H]1O[C@@H](O[C@@H]2[C@@H](O)[C@H](O)[C@@H](CO)O[C@H]2OC2=CC(O)=C3C(=O)C(O)=C(OC3=C2)C2=CC=C(O)C=C2)[C@H](O)[C@H](O)[C@H]1O
RETENTIONTIME: 
CCS: 239.0670965
IONMODE: Negative
INSTRUMENTTYPE: LC-ESI-QTOF
INSTRUMENT: 
COLLISIONENERGY: 50
Comment: registered in MassBank
Num Peaks: 6
151.0031	56
257.04559	17
284.03311	186
285.0408	1000
286.04401	162
287.04611	24

NAME: Myricetin; LC-ESI-QTOF; MS2; [M-H]-; CE
PRECURSORMZ: 317.030291
PRECURSORTYPE: [M-H]-
FORMULA: C15H10O8
Ontology: Flavonols
INCHIKEY: IKMDFBPHZNJCSN-UHFFFAOYSA-N
SMILES: OC1=CC(O)=C2C(OC(=C(O)C2=O)C2=CC(O)=C(O)C(O)=C2)=C1
RETENTIONTIME: 
CCS: 168.5663874
IONMODE: Negative
INSTRUMENTTYPE: LC-ESI-QTOF
INSTRUMENT: 
COLLISIONENERGY: 20
Comment: registered in MassBank
Num Peaks: 7
137.02409	60
151.0034	91
178.9984	190
180.0014	19
192.0062	17
289.03571	17
317.03	1000

NAME: Myricetin; LC-ESI-QTOF; MS2; [M-H]-; CE
PRECURSORMZ: 317.030291
PRECURSORTYPE: [M-H]-
FORMULA: C15H10O8
Ontology: Flavonols
INCHIKEY: IKMDFBPHZNJCSN-UHFFFAOYSA-N
SMILES: OC1=CC(O)=C2C(OC(=C(O)C2=O)C2=CC(O)=C(O)C(O)=C2)=C1
RETENTIONTIME: 
CCS: 168.5663874
IONMODE: Negative
INSTRUMENTTYPE: LC-ESI-QTOF
INSTRUMENT: 
COLLISIONENERGY: 30
Comment: registered in MassBank
Num Peaks: 17
107.0145	47
109.0298	51
125.0246	43
137.0244	660
138.0276	88
151.00369	1000
152.0078	86
165.0193	146
169.01421	201
178.99879	703
180.00211	74
192.007	45
193.0134	44
271.0256	77
289.0368	49
299.01929	44
317.03061	365

NAME: Myricetin; LC-ESI-QTOF; MS2; [M-H]-; CE
PRECURSORMZ: 317.030291
PRECURSORTYPE: [M-H]-
FORMULA: C15H10O8
Ontology: Flavonols
INCHIKEY: IKMDFBPHZNJCSN-UHFFFAOYSA-N
SMILES: OC1=CC(O)=C2C(OC(=C(O)C2=O)C2=CC(O)=C(O)C(O)=C2)=C1
RETENTIONTIME: 
CCS: 168.5663874
IONMODE: Negative
INSTRUMENTTYPE: LC-ESI-QTOF
INSTRUMENT: 
COLLISIONENERGY: 40
Comment: registered in MassBank
Num Peaks: 14
107.0143	173
109.0297	191
125.0245	43
137.02451	958
138.02811	75
151.00369	1000
152.0078	112
155.0352	76
163.0034	55
164.0117	73
165.0188	164
169.0144	227
178.99879	153
271.02499	130

NAME: Myricetin; LC-ESI-QTOF; MS2; [M-H]-; CE
PRECURSORMZ: 317.030291
PRECURSORTYPE: [M-H]-
FORMULA: C15H10O8
Ontology: Flavonols
INCHIKEY: IKMDFBPHZNJCSN-UHFFFAOYSA-N
SMILES: OC1=CC(O)=C2C(OC(=C(O)C2=O)C2=CC(O)=C(O)C(O)=C2)=C1
RETENTIONTIME: 
CCS: 168.5663874
IONMODE: Negative
INSTRUMENTTYPE: LC-ESI-QTOF
INSTRUMENT: 
COLLISIONENERGY: 50
Comment: registered in MassBank
Num Peaks: 9
107.014	250
109.0298	590
125.0248	97
137.0244	1000
138.02789	86
151.0041	457
155.0351	103
165.0195	86
169.0137	132

NAME: Myricitrin; LC-ESI-QTOF; MS2; [M-H]-; CE
PRECURSORMZ: 463.0882
PRECURSORTYPE: [M-H]-
FORMULA: C21H20O12
Ontology: Flavonoid-3-O-glycosides
INCHIKEY: DCYOADKBABEMIQ-OWMUPTOHSA-N
SMILES: C[C@@H]1O[C@@H](OC2=C(OC3=CC(O)=CC(O)=C3C2=O)C2=CC(O)=C(O)C(O)=C2)[C@H](O)[C@H](O)[C@H]1O
RETENTIONTIME: 
CCS: 202.9005839
IONMODE: Negative
INSTRUMENTTYPE: LC-ESI-QTOF
INSTRUMENT: 
COLLISIONENERGY: 20
Comment: registered in MassBank
Num Peaks: 3
316.02249	136
317.0293	49
463.0885	1000

NAME: Myricitrin; LC-ESI-QTOF; MS2; [M-H]-; CE
PRECURSORMZ: 463.0882
PRECURSORTYPE: [M-H]-
FORMULA: C21H20O12
Ontology: Flavonoid-3-O-glycosides
INCHIKEY: DCYOADKBABEMIQ-OWMUPTOHSA-N
SMILES: C[C@@H]1O[C@@H](OC2=C(OC3=CC(O)=CC(O)=C3C2=O)C2=CC(O)=C(O)C(O)=C2)[C@H](O)[C@H](O)[C@H]1O
RETENTIONTIME: 
CCS: 202.9005839
IONMODE: Negative
INSTRUMENTTYPE: LC-ESI-QTOF
INSTRUMENT: 
COLLISIONENERGY: 30
Comment: registered in MassBank
Num Peaks: 6
178.9984	15
300.0275	12
316.02289	1000
317.0285	316
318.0314	48
463.0885	340

NAME: Myricitrin; LC-ESI-QTOF; MS2; [M-H]-; CE
PRECURSORMZ: 463.0882
PRECURSORTYPE: [M-H]-
FORMULA: C21H20O12
Ontology: Flavonoid-3-O-glycosides
INCHIKEY: DCYOADKBABEMIQ-OWMUPTOHSA-N
SMILES: C[C@@H]1O[C@@H](OC2=C(OC3=CC(O)=CC(O)=C3C2=O)C2=CC(O)=C(O)C(O)=C2)[C@H](O)[C@H](O)[C@H]1O
RETENTIONTIME: 
CCS: 202.9005839
IONMODE: Negative
INSTRUMENTTYPE: LC-ESI-QTOF
INSTRUMENT: 
COLLISIONENERGY: 40
Comment: registered in MassBank
Num Peaks: 12
151.0033	16
178.9984	26
259.02441	11
270.0166	37
271.02411	110
272.02759	14
287.0195	50
288.0257	24
300.02759	14
316.02231	1000
317.0275	255
318.0303	40

NAME: Myricitrin; LC-ESI-QTOF; MS2; [M-H]-; CE
PRECURSORMZ: 463.0882
PRECURSORTYPE: [M-H]-
FORMULA: C21H20O12
Ontology: Flavonoid-3-O-glycosides
INCHIKEY: DCYOADKBABEMIQ-OWMUPTOHSA-N
SMILES: C[C@@H]1O[C@@H](OC2=C(OC3=CC(O)=CC(O)=C3C2=O)C2=CC(O)=C(O)C(O)=C2)[C@H](O)[C@H](O)[C@H]1O
RETENTIONTIME: 
CCS: 202.9005839
IONMODE: Negative
INSTRUMENTTYPE: LC-ESI-QTOF
INSTRUMENT: 
COLLISIONENERGY: 50
Comment: registered in MassBank
Num Peaks: 31
124.0161	18
137.0244	29
151.0036	74
152.0101	13
163.00349	22
164.01109	25
178.9984	77
204.04269	23
214.02679	61
227.0347	18
232.0379	19
242.022	95
243.0291	44
244.0358	11
255.02991	11
259.0249	129
260.03061	19
261.03949	14
270.01709	187
271.02481	654
272.02811	96
273.0311	15
287.0199	442
288.0253	79
289.02939	13
299.01999	14
300.0274	18
315.0152	11
316.0228	1000
317.0274	212
318.02951	37

NAME: Naringenin; LC-ESI-QTOF; MS2; [M-H]-; CE
PRECURSORMZ: 271.061197
PRECURSORTYPE: [M-H]-
FORMULA: C15H12O5
Ontology: Flavanones
INCHIKEY: FTVWIRXFELQLPI-ZDUSSCGKSA-N
SMILES: OC1=CC=C(C=C1)[C@@H]1CC(=O)C2=C(O)C=C(O)C=C2O1
RETENTIONTIME: 
CCS: 163.1992494
IONMODE: Negative
INSTRUMENTTYPE: LC-ESI-QTOF
INSTRUMENT: 
COLLISIONENERGY: 10
Comment: registered in MassBank
Num Peaks: 2
151.0033	14
271.06161	1000

NAME: Naringenin; LC-ESI-QTOF; MS2; [M-H]-; CE
PRECURSORMZ: 271.061197
PRECURSORTYPE: [M-H]-
FORMULA: C15H12O5
Ontology: Flavanones
INCHIKEY: FTVWIRXFELQLPI-ZDUSSCGKSA-N
SMILES: OC1=CC=C(C=C1)[C@@H]1CC(=O)C2=C(O)C=C(O)C=C2O1
RETENTIONTIME: 
CCS: 163.1992494
IONMODE: Negative
INSTRUMENTTYPE: LC-ESI-QTOF
INSTRUMENT: 
COLLISIONENERGY: 20
Comment: registered in MassBank
Num Peaks: 11
93.0347	12
107.014	21
119.0501	171
120.0534	14
151.00349	593
152.0069	51
165.01939	23
169.0141	45
177.0192	79
227.0713	16
271.06131	1000

NAME: Naringenin; LC-ESI-QTOF; MS2; [M-H]-; CE
PRECURSORMZ: 271.061197
PRECURSORTYPE: [M-H]-
FORMULA: C15H12O5
Ontology: Flavanones
INCHIKEY: FTVWIRXFELQLPI-ZDUSSCGKSA-N
SMILES: OC1=CC=C(C=C1)[C@@H]1CC(=O)C2=C(O)C=C(O)C=C2O1
RETENTIONTIME: 
CCS: 163.1992494
IONMODE: Negative
INSTRUMENTTYPE: LC-ESI-QTOF
INSTRUMENT: 
COLLISIONENERGY: 30
Comment: registered in MassBank
Num Peaks: 27
83.0146	16
93.0353	31
107.0144	184
108.0177	14
119.0503	979
120.0537	94
121.0293	14
125.0245	11
136.017	12
143.05009	22
145.02969	22
151.00369	1000
152.0072	76
153.008	16
161.0609	44
164.0114	11
165.0192	67
169.01421	73
177.0193	96
178.02271	13
185.06059	38
187.0405	87
188.045	12
227.07179	28
229.05051	39
253.05099	20
271.06149	144

NAME: Naringenin; LC-ESI-QTOF; MS2; [M-H]-; CE
PRECURSORMZ: 271.061197
PRECURSORTYPE: [M-H]-
FORMULA: C15H12O5
Ontology: Flavanones
INCHIKEY: FTVWIRXFELQLPI-ZDUSSCGKSA-N
SMILES: OC1=CC=C(C=C1)[C@@H]1CC(=O)C2=C(O)C=C(O)C=C2O1
RETENTIONTIME: 
CCS: 163.1992494
IONMODE: Negative
INSTRUMENTTYPE: LC-ESI-QTOF
INSTRUMENT: 
COLLISIONENERGY: 40
Comment: registered in MassBank
Num Peaks: 23
83.0151	19
93.0352	20
107.0143	141
108.0206	12
117.0348	16
119.0502	1000
120.0537	94
121.0292	13
136.0163	15
137.0238	16
143.0498	44
145.02921	36
151.0038	227
152.00729	20
161.0607	64
165.01891	30
169.0143	16
177.0192	29
185.06081	29
187.03979	121
188.04449	12
201.056	12
229.05099	14

NAME: Naringenin; LC-ESI-QTOF; MS2; [M-H]-; CE
PRECURSORMZ: 271.061197
PRECURSORTYPE: [M-H]-
FORMULA: C15H12O5
Ontology: Flavanones
INCHIKEY: FTVWIRXFELQLPI-ZDUSSCGKSA-N
SMILES: OC1=CC=C(C=C1)[C@@H]1CC(=O)C2=C(O)C=C(O)C=C2O1
RETENTIONTIME: 
CCS: 163.1992494
IONMODE: Negative
INSTRUMENTTYPE: LC-ESI-QTOF
INSTRUMENT: 
COLLISIONENERGY: 50
Comment: registered in MassBank
Num Peaks: 13
83.0149	20
93.0345	30
107.0138	54
108.0214	10
117.0347	47
119.0501	1000
120.0536	109
143.0502	40
145.0296	40
151.0034	31
161.06039	14
177.0183	11
187.0401	30

NAME: Rhoifolin; LC-ESI-QTOF; MS2; [M-H]-; CE
PRECURSORMZ: 577.156279
PRECURSORTYPE: [M-H]-
FORMULA: C27H30O14
Ontology: Flavonoid-7-O-glycosides
INCHIKEY: RPMNUQRUHXIGHK-PYXJVEIZSA-N
SMILES: C[C@@H]1O[C@@H](O[C@@H]2[C@@H](O)[C@H](O)[C@@H](CO)O[C@H]2OC2=CC(O)=C3C(=O)C=C(OC3=C2)C2=CC=C(O)C=C2)[C@H](O)[C@H](O)[C@H]1O
RETENTIONTIME: 
CCS: 222.168329
IONMODE: Negative
INSTRUMENTTYPE: LC-ESI-QTOF
INSTRUMENT: 
COLLISIONENERGY: 20
Comment: registered in MassBank
Num Peaks: 2
269.0463	15
577.15692	1000

NAME: Rhoifolin; LC-ESI-QTOF; MS2; [M-H]-; CE
PRECURSORMZ: 577.156279
PRECURSORTYPE: [M-H]-
FORMULA: C27H30O14
Ontology: Flavonoid-7-O-glycosides
INCHIKEY: RPMNUQRUHXIGHK-PYXJVEIZSA-N
SMILES: C[C@@H]1O[C@@H](O[C@@H]2[C@@H](O)[C@H](O)[C@@H](CO)O[C@H]2OC2=CC(O)=C3C(=O)C=C(OC3=C2)C2=CC=C(O)C=C2)[C@H](O)[C@H](O)[C@H]1O
RETENTIONTIME: 
CCS: 222.168329
IONMODE: Negative
INSTRUMENTTYPE: LC-ESI-QTOF
INSTRUMENT: 
COLLISIONENERGY: 30
Comment: registered in MassBank
Num Peaks: 3
269.04529	222
270.04941	36
577.15601	1000

NAME: Rhoifolin; LC-ESI-QTOF; MS2; [M-H]-; CE
PRECURSORMZ: 577.156279
PRECURSORTYPE: [M-H]-
FORMULA: C27H30O14
Ontology: Flavonoid-7-O-glycosides
INCHIKEY: RPMNUQRUHXIGHK-PYXJVEIZSA-N
SMILES: C[C@@H]1O[C@@H](O[C@@H]2[C@@H](O)[C@H](O)[C@@H](CO)O[C@H]2OC2=CC(O)=C3C(=O)C=C(OC3=C2)C2=CC=C(O)C=C2)[C@H](O)[C@H](O)[C@H]1O
RETENTIONTIME: 
CCS: 222.168329
IONMODE: Negative
INSTRUMENTTYPE: LC-ESI-QTOF
INSTRUMENT: 
COLLISIONENERGY: 40
Comment: registered in MassBank
Num Peaks: 7
268.03839	96
269.04581	1000
270.04919	189
271.05069	19
413.0878	23
431.09879	11
577.15668	563

NAME: Rhoifolin; LC-ESI-QTOF; MS2; [M-H]-; CE
PRECURSORMZ: 577.156279
PRECURSORTYPE: [M-H]-
FORMULA: C27H30O14
Ontology: Flavonoid-7-O-glycosides
INCHIKEY: RPMNUQRUHXIGHK-PYXJVEIZSA-N
SMILES: C[C@@H]1O[C@@H](O[C@@H]2[C@@H](O)[C@H](O)[C@@H](CO)O[C@H]2OC2=CC(O)=C3C(=O)C=C(OC3=C2)C2=CC=C(O)C=C2)[C@H](O)[C@H](O)[C@H]1O
RETENTIONTIME: 
CCS: 222.168329
IONMODE: Negative
INSTRUMENTTYPE: LC-ESI-QTOF
INSTRUMENT: 
COLLISIONENERGY: 50
Comment: registered in MassBank
Num Peaks: 6
268.0383	252
269.04599	1000
270.04929	178
271.05191	22
413.08929	12
577.1579	60

NAME: Velutin; LC-ESI-QTOF; MS2; [M-H]-; CE
PRECURSORMZ: 313.071762
PRECURSORTYPE: [M-H]-
FORMULA: C17H14O6
Ontology: 7-O-methylated flavonoids
INCHIKEY: ROCUOVBWAWAQFD-UHFFFAOYSA-N
SMILES: COC1=CC(O)=C2C(=O)C=C(OC2=C1)C1=CC(OC)=C(O)C=C1
RETENTIONTIME: 
CCS: 189.675728
IONMODE: Negative
INSTRUMENTTYPE: LC-ESI-QTOF
INSTRUMENT: 
COLLISIONENERGY: 10
Comment: registered in MassBank
Num Peaks: 3
298.0473	28
311.16849	17
313.07141	1000

NAME: Velutin; LC-ESI-QTOF; MS2; [M-H]-; CE
PRECURSORMZ: 313.071762
PRECURSORTYPE: [M-H]-
FORMULA: C17H14O6
Ontology: 7-O-methylated flavonoids
INCHIKEY: ROCUOVBWAWAQFD-UHFFFAOYSA-N
SMILES: COC1=CC(O)=C2C(=O)C=C(OC2=C1)C1=CC(OC)=C(O)C=C1
RETENTIONTIME: 
CCS: 189.675728
IONMODE: Negative
INSTRUMENTTYPE: LC-ESI-QTOF
INSTRUMENT: 
COLLISIONENERGY: 20
Comment: registered in MassBank
Num Peaks: 5
283.0246	21
298.04831	1000
299.05161	187
300.05371	27
313.07169	824

NAME: Velutin; LC-ESI-QTOF; MS2; [M-H]-; CE
PRECURSORMZ: 313.071762
PRECURSORTYPE: [M-H]-
FORMULA: C17H14O6
Ontology: 7-O-methylated flavonoids
INCHIKEY: ROCUOVBWAWAQFD-UHFFFAOYSA-N
SMILES: COC1=CC(O)=C2C(=O)C=C(OC2=C1)C1=CC(OC)=C(O)C=C1
RETENTIONTIME: 
CCS: 189.675728
IONMODE: Negative
INSTRUMENTTYPE: LC-ESI-QTOF
INSTRUMENT: 
COLLISIONENERGY: 30
Comment: registered in MassBank
Num Peaks: 11
255.03011	222
256.0332	31
270.05341	104
271.05801	21
283.02499	382
284.02802	56
297.0408	16
298.04849	1000
299.05179	183
300.0542	27
313.07199	36

NAME: Velutin; LC-ESI-QTOF; MS2; [M-H]-; CE
PRECURSORMZ: 313.071762
PRECURSORTYPE: [M-H]-
FORMULA: C17H14O6
Ontology: 7-O-methylated flavonoids
INCHIKEY: ROCUOVBWAWAQFD-UHFFFAOYSA-N
SMILES: COC1=CC(O)=C2C(=O)C=C(OC2=C1)C1=CC(OC)=C(O)C=C1
RETENTIONTIME: 
CCS: 189.675728
IONMODE: Negative
INSTRUMENTTYPE: LC-ESI-QTOF
INSTRUMENT: 
COLLISIONENERGY: 40
Comment: registered in MassBank
Num Peaks: 10
255.02991	1000
256.03311	155
257.03589	18
270.0531	60
271.05609	10
283.02481	309
284.0282	44
297.04031	18
298.04791	146
299.05191	22

NAME: Velutin; LC-ESI-QTOF; MS2; [M-H]-; CE
PRECURSORMZ: 313.071762
PRECURSORTYPE: [M-H]-
FORMULA: C17H14O6
Ontology: 7-O-methylated flavonoids
INCHIKEY: ROCUOVBWAWAQFD-UHFFFAOYSA-N
SMILES: COC1=CC(O)=C2C(=O)C=C(OC2=C1)C1=CC(OC)=C(O)C=C1
RETENTIONTIME: 
CCS: 189.675728
IONMODE: Negative
INSTRUMENTTYPE: LC-ESI-QTOF
INSTRUMENT: 
COLLISIONENERGY: 50
Comment: registered in MassBank
Num Peaks: 10
132.0215	16
151.0034	17
183.04469	27
199.03979	11
211.0397	12
227.035	18
255.0302	1000
256.03329	171
257.03549	23
283.0246	36

NAME: Quercetin; LC-ESI-QTOF; MS2; [M-H]-; CE
PRECURSORMZ: 301.035376
PRECURSORTYPE: [M-H]-
FORMULA: C15H10O7
Ontology: Flavonols
INCHIKEY: REFJWTPEDVJJIY-UHFFFAOYSA-N
SMILES: OC1=CC(O)=C2C(OC(=C(O)C2=O)C2=CC(O)=C(O)C=C2)=C1
RETENTIONTIME: 
CCS: 166.0397546
IONMODE: Negative
INSTRUMENTTYPE: LC-ESI-QTOF
INSTRUMENT: 
COLLISIONENERGY: 20
Comment: registered in MassBank
Num Peaks: 10
121.0293	49
149.02431	15
151.00369	284
152.00729	20
169.01469	21
178.9987	249
180.0023	20
257.0459	14
273.04001	57
301.03519	1000

NAME: Quercetin; LC-ESI-QTOF; MS2; [M-H]-; CE
PRECURSORMZ: 301.035376
PRECURSORTYPE: [M-H]-
FORMULA: C15H10O7
Ontology: Flavonols
INCHIKEY: REFJWTPEDVJJIY-UHFFFAOYSA-N
SMILES: OC1=CC(O)=C2C(OC(=C(O)C2=O)C2=CC(O)=C(O)C=C2)=C1
RETENTIONTIME: 
CCS: 166.0397546
IONMODE: Negative
INSTRUMENTTYPE: LC-ESI-QTOF
INSTRUMENT: 
COLLISIONENERGY: 30
Comment: registered in MassBank
Num Peaks: 22
107.0144	88
121.0293	232
139.0403	22
149.024	79
151.00349	1000
152.0072	104
163.03979	32
164.01131	38
169.0143	123
178.9986	337
180.0014	33
187.03951	22
193.01331	28
201.0551	21
205.0502	26
229.0509	55
245.04581	75
257.04489	25
273.04071	129
274.04401	18
299.02051	25
301.03549	238

NAME: Quercetin; LC-ESI-QTOF; MS2; [M-H]-; CE
PRECURSORMZ: 301.035376
PRECURSORTYPE: [M-H]-
FORMULA: C15H10O7
Ontology: Flavonols
INCHIKEY: REFJWTPEDVJJIY-UHFFFAOYSA-N
SMILES: OC1=CC(O)=C2C(OC(=C(O)C2=O)C2=CC(O)=C(O)C=C2)=C1
RETENTIONTIME: 
CCS: 166.0397546
IONMODE: Negative
INSTRUMENTTYPE: LC-ESI-QTOF
INSTRUMENT: 
COLLISIONENERGY: 40
Comment: registered in MassBank
Num Peaks: 26
93.0346	78
107.014	226
109.0294	41
121.0291	573
122.0323	62
124.0163	61
139.03979	197
148.0159	35
149.024	188
151.0034	1000
152.0085	88
159.04449	52
161.02431	59
163.03889	46
164.01089	120
169.01401	162
178.99789	122
187.0401	48
193.01379	36
201.056	41
211.03979	43
227.0351	51
243.0293	35
245.045	79
256.03799	36
301.03461	47

NAME: Quercetin; LC-ESI-QTOF; MS2; [M-H]-; CE
PRECURSORMZ: 301.035376
PRECURSORTYPE: [M-H]-
FORMULA: C15H10O7
Ontology: Flavonols
INCHIKEY: REFJWTPEDVJJIY-UHFFFAOYSA-N
SMILES: OC1=CC(O)=C2C(OC(=C(O)C2=O)C2=CC(O)=C(O)C=C2)=C1
RETENTIONTIME: 
CCS: 166.0397546
IONMODE: Negative
INSTRUMENTTYPE: LC-ESI-QTOF
INSTRUMENT: 
COLLISIONENERGY: 50
Comment: registered in MassBank
Num Peaks: 19
93.0348	284
107.0143	379
108.0212	79
109.0289	106
121.0294	1000
122.033	84
124.0166	121
133.02901	123
139.0396	419
148.0166	87
149.0247	176
151.0033	590
152.0072	96
159.0444	164
161.0247	130
163.0038	84
164.0106	98
169.01489	90
227.0354	91

NAME: Laxapur; LC-ESI-QTOF; MS2; [M-H]-; CE
PRECURSORMZ: 239.034982
PRECURSORTYPE: [M-H]-
FORMULA: C14H8O4
Ontology: Anthraquinones
INCHIKEY: QBPFLULOKWLNNW-UHFFFAOYSA-N
SMILES: OC1=CC=CC2=C1C(=O)C1=C(C=CC=C1O)C2=O
RETENTIONTIME: 
CCS: 152.6107637
IONMODE: Negative
INSTRUMENTTYPE: LC-ESI-QTOF
INSTRUMENT: 
COLLISIONENERGY: 30
Comment: registered in MassBank
Num Peaks: 6
167.0502	35
195.0448	45
210.0327	16
211.04021	286
212.04379	38
239.0351	1000

NAME: Laxapur; LC-ESI-QTOF; MS2; [M-H]-; CE
PRECURSORMZ: 239.034982
PRECURSORTYPE: [M-H]-
FORMULA: C14H8O4
Ontology: Anthraquinones
INCHIKEY: QBPFLULOKWLNNW-UHFFFAOYSA-N
SMILES: OC1=CC=CC2=C1C(=O)C1=C(C=CC=C1O)C2=O
RETENTIONTIME: 
CCS: 152.6107637
IONMODE: Negative
INSTRUMENTTYPE: LC-ESI-QTOF
INSTRUMENT: 
COLLISIONENERGY: 40
Comment: registered in MassBank
Num Peaks: 12
139.0554	100
167.05029	242
168.05389	41
182.03729	65
183.0451	78
193.0302	38
195.0452	76
210.0323	101
211.04041	1000
212.0433	146
238.02679	30
239.0347	571

NAME: Laxapur; LC-ESI-QTOF; MS2; [M-H]-; CE
PRECURSORMZ: 239.034982
PRECURSORTYPE: [M-H]-
FORMULA: C14H8O4
Ontology: Anthraquinones
INCHIKEY: QBPFLULOKWLNNW-UHFFFAOYSA-N
SMILES: OC1=CC=CC2=C1C(=O)C1=C(C=CC=C1O)C2=O
RETENTIONTIME: 
CCS: 152.6107637
IONMODE: Negative
INSTRUMENTTYPE: LC-ESI-QTOF
INSTRUMENT: 
COLLISIONENERGY: 50
Comment: registered in MassBank
Num Peaks: 15
91.019	113
117.0352	98
127.0556	63
139.0555	251
141.03419	107
154.0419	111
165.035	115
167.0499	442
182.0376	502
183.0443	235
193.0298	75
210.03259	288
211.0405	1000
212.0433	160
239.0347	102

NAME: Methyl-3-[(2-nitrobenzoyl)amino]benzoate; LC-ESI-QTOF; MS2; [M-H]-; CE
PRECURSORMZ: 299.067345
PRECURSORTYPE: [M-H]-
FORMULA: C15H12N2O5
Ontology: Benzanilides
INCHIKEY: OWQNWJPLMHWHSM-UHFFFAOYSA-N
SMILES: COC(=O)C1=CC(=CC=C1)N=C(O)C1=CC=CC=C1N(=O)=O
RETENTIONTIME: 
CCS: -1
IONMODE: Negative
INSTRUMENTTYPE: LC-ESI-QTOF
INSTRUMENT: 
COLLISIONENERGY: 10
Comment: registered in MassBank
Num Peaks: 4
122.0243	35
140.0354	13
221.1188	10
299.06781	1000

NAME: Methyl-3-[(2-nitrobenzoyl)amino]benzoate; LC-ESI-QTOF; MS2; [M-H]-; CE
PRECURSORMZ: 299.067345
PRECURSORTYPE: [M-H]-
FORMULA: C15H12N2O5
Ontology: Benzanilides
INCHIKEY: OWQNWJPLMHWHSM-UHFFFAOYSA-N
SMILES: COC(=O)C1=CC(=CC=C1)N=C(O)C1=CC=CC=C1N(=O)=O
RETENTIONTIME: 
CCS: -1
IONMODE: Negative
INSTRUMENTTYPE: LC-ESI-QTOF
INSTRUMENT: 
COLLISIONENERGY: 20
Comment: registered in MassBank
Num Peaks: 9
92.0271	699
93.0309	61
108.0217	53
122.0247	1000
123.028	95
140.0354	264
166.015	62
221.1181	81
299.06799	855

NAME: 3-(5-Acetyl-2-furyl)-5-methoxy-2-benzofuran-1(3H)-one; LC-ESI-QTOF; MS2; [M-H]-; CE
PRECURSORMZ: 271.061197
PRECURSORTYPE: [M-H]-
FORMULA: C15H12O5
Ontology: Benzofuranones
INCHIKEY: KTVRYSLCSNORPS-UHFFFAOYNA-N
SMILES: COC1=CC2=C(C=C1)C(=O)OC2C1=CC=C(O1)C(C)=O
RETENTIONTIME: 
CCS: -1
IONMODE: Negative
INSTRUMENTTYPE: LC-ESI-QTOF
INSTRUMENT: 
COLLISIONENERGY: 10
Comment: registered in MassBank
Num Peaks: 9
199.07651	45
212.048	78
227.0712	88
228.0755	21
229.0507	17
243.0665	101
244.07001	18
256.03809	38
271.0614	1000

NAME: 3-(5-Acetyl-2-furyl)-5-methoxy-2-benzofuran-1(3H)-one; LC-ESI-QTOF; MS2; [M-H]-; CE
PRECURSORMZ: 271.061197
PRECURSORTYPE: [M-H]-
FORMULA: C15H12O5
Ontology: Benzofuranones
INCHIKEY: KTVRYSLCSNORPS-UHFFFAOYNA-N
SMILES: COC1=CC2=C(C=C1)C(=O)OC2C1=CC=C(O1)C(C)=O
RETENTIONTIME: 
CCS: -1
IONMODE: Negative
INSTRUMENTTYPE: LC-ESI-QTOF
INSTRUMENT: 
COLLISIONENERGY: 20
Comment: registered in MassBank
Num Peaks: 17
131.0504	147
168.0571	88
171.0813	106
184.0533	198
199.0764	338
211.03979	259
212.0481	1000
213.0197	308
214.02609	65
215.0721	126
227.0714	351
228.04289	213
229.05	242
243.0667	262
256.03769	679
257.0412	80
271.06161	336

NAME: 3-(5-Acetyl-2-furyl)-5-methoxy-2-benzofuran-1(3H)-one; LC-ESI-QTOF; MS2; [M-H]-; CE
PRECURSORMZ: 271.061197
PRECURSORTYPE: [M-H]-
FORMULA: C15H12O5
Ontology: Benzofuranones
INCHIKEY: KTVRYSLCSNORPS-UHFFFAOYNA-N
SMILES: COC1=CC2=C(C=C1)C(=O)OC2C1=CC=C(O1)C(C)=O
RETENTIONTIME: 
CCS: -1
IONMODE: Negative
INSTRUMENTTYPE: LC-ESI-QTOF
INSTRUMENT: 
COLLISIONENERGY: 30
Comment: registered in MassBank
Num Peaks: 25
95.0136	90
116.0261	103
131.0498	982
132.0537	110
142.0426	65
156.05791	195
157.0649	103
158.03819	132
167.05009	79
170.037	162
171.08141	63
183.04491	91
184.05251	332
185.0246	232
197.0239	329
198.02901	60
200.04739	103
211.0401	574
212.0475	496
213.0192	1000
214.02451	141
227.03419	81
228.04311	108
241.0141	164
256.03799	224

NAME: 3-(5-Acetyl-2-furyl)-5-methoxy-2-benzofuran-1(3H)-one; LC-ESI-QTOF; MS2; [M-H]-; CE
PRECURSORMZ: 271.061197
PRECURSORTYPE: [M-H]-
FORMULA: C15H12O5
Ontology: Benzofuranones
INCHIKEY: KTVRYSLCSNORPS-UHFFFAOYNA-N
SMILES: COC1=CC2=C(C=C1)C(=O)OC2C1=CC=C(O1)C(C)=O
RETENTIONTIME: 
CCS: -1
IONMODE: Negative
INSTRUMENTTYPE: LC-ESI-QTOF
INSTRUMENT: 
COLLISIONENERGY: 40
Comment: registered in MassBank
Num Peaks: 18
116.0269	578
131.05	1000
132.0533	119
141.03529	152
142.0419	219
156.0583	177
169.02969	199
170.0369	234
183.0457	156
184.0522	167
185.02431	388
186.0291	83
197.02451	261
211.04041	318
212.0472	123
213.0199	705
214.02431	79
241.0153	93

NAME: 3-(5-Acetyl-2-furyl)-5-methoxy-2-benzofuran-1(3H)-one; LC-ESI-QTOF; MS2; [M-H]-; CE
PRECURSORMZ: 271.061197
PRECURSORTYPE: [M-H]-
FORMULA: C15H12O5
Ontology: Benzofuranones
INCHIKEY: KTVRYSLCSNORPS-UHFFFAOYNA-N
SMILES: COC1=CC2=C(C=C1)C(=O)OC2C1=CC=C(O1)C(C)=O
RETENTIONTIME: 
CCS: -1
IONMODE: Negative
INSTRUMENTTYPE: LC-ESI-QTOF
INSTRUMENT: 
COLLISIONENERGY: 50
Comment: registered in MassBank
Num Peaks: 23
116.0268	1000
117.0312	69
129.0345	96
131.0502	580
132.05341	61
141.0343	449
142.0412	179
147.04559	64
155.05099	72
156.05811	65
157.0296	128
167.05051	132
169.02969	248
170.0361	87
171.04539	63
183.0453	141
184.0518	64
185.0248	363
197.02361	103
211.03951	164
212.04401	54
213.0191	246
214.0226	53

NAME: N,N-Diethyl-4-hydroxybenzamide; LC-ESI-QTOF; MS2; [M-H]-; CE
PRECURSORMZ: 192.103002
PRECURSORTYPE: [M-H]-
FORMULA: C11H15NO2
Ontology: Benzamides
INCHIKEY: WLRVSRJKZYZCJY-UHFFFAOYSA-N
SMILES: CCN(CC)C(=O)C1=CC=C(O)C=C1
RETENTIONTIME: 
CCS: 152.297474
IONMODE: Negative
INSTRUMENTTYPE: LC-ESI-QTOF
INSTRUMENT: 
COLLISIONENERGY: 20
Comment: registered in MassBank
Num Peaks: 10
92.0272	12
93.0345	12
120.0218	175
121.026	16
148.0407	38
162.0563	43
163.0638	35
164.0719	104
176.07179	26
192.1033	1000

NAME: N,N-Diethyl-4-hydroxybenzamide; LC-ESI-QTOF; MS2; [M-H]-; CE
PRECURSORMZ: 192.103002
PRECURSORTYPE: [M-H]-
FORMULA: C11H15NO2
Ontology: Benzamides
INCHIKEY: WLRVSRJKZYZCJY-UHFFFAOYSA-N
SMILES: CCN(CC)C(=O)C1=CC=C(O)C=C1
RETENTIONTIME: 
CCS: 152.297474
IONMODE: Negative
INSTRUMENTTYPE: LC-ESI-QTOF
INSTRUMENT: 
COLLISIONENERGY: 30
Comment: registered in MassBank
Num Peaks: 17
92.027	359
93.0344	148
108.0217	49
118.0291	17
119.05	18
120.0214	1000
121.0263	70
136.0396	13
148.0401	536
149.0435	44
162.0558	201
163.0619	50
164.0715	199
165.07471	24
176.0714	187
177.0752	19
192.1028	415

NAME: N,N-Diethyl-4-hydroxybenzamide; LC-ESI-QTOF; MS2; [M-H]-; CE
PRECURSORMZ: 192.103002
PRECURSORTYPE: [M-H]-
FORMULA: C11H15NO2
Ontology: Benzamides
INCHIKEY: WLRVSRJKZYZCJY-UHFFFAOYSA-N
SMILES: CCN(CC)C(=O)C1=CC=C(O)C=C1
RETENTIONTIME: 
CCS: 152.297474
IONMODE: Negative
INSTRUMENTTYPE: LC-ESI-QTOF
INSTRUMENT: 
COLLISIONENERGY: 40
Comment: registered in MassBank
Num Peaks: 18
92.0271	1000
93.034	176
108.0217	57
118.03	96
119.0498	34
120.0215	409
121.0282	68
146.0248	46
147.03239	40
148.0403	382
149.0437	34
160.0401	36
161.0479	21
162.056	124
164.07111	22
176.07159	195
177.0741	22
192.1032	31

NAME: N,N-Diethyl-4-hydroxybenzamide; LC-ESI-QTOF; MS2; [M-H]-; CE
PRECURSORMZ: 192.103002
PRECURSORTYPE: [M-H]-
FORMULA: C11H15NO2
Ontology: Benzamides
INCHIKEY: WLRVSRJKZYZCJY-UHFFFAOYSA-N
SMILES: CCN(CC)C(=O)C1=CC=C(O)C=C1
RETENTIONTIME: 
CCS: 152.297474
IONMODE: Negative
INSTRUMENTTYPE: LC-ESI-QTOF
INSTRUMENT: 
COLLISIONENERGY: 50
Comment: registered in MassBank
Num Peaks: 14
92.0272	1000
93.0338	176
108.0225	36
118.0298	167
119.0502	25
120.0216	125
121.0288	74
146.0247	114
147.0322	36
148.0403	102
160.04021	76
161.04781	27
162.05521	23
176.07201	38

NAME: Mepacrine; LC-ESI-QTOF; MS2; [M-H]-; CE
PRECURSORMZ: 398.200464
PRECURSORTYPE: [M-H]-
FORMULA: C23H30ClN3O
Ontology: Acridines
INCHIKEY: GPKJTRJOBQGKQK-UHFFFAOYNA-N
SMILES: CCN(CC)CCCC(C)N=C1C2=C(NC3=C1C=C(OC)C=C3)C=C(Cl)C=C2
RETENTIONTIME: 
CCS: 201.0563637
IONMODE: Negative
INSTRUMENTTYPE: LC-ESI-QTOF
INSTRUMENT: 
COLLISIONENERGY: 20
Comment: registered in MassBank
Num Peaks: 5
347.2009	21
383.17801	160
384.1795	32
385.17471	46
398.20129	1000

NAME: Mepacrine; LC-ESI-QTOF; MS2; [M-H]-; CE
PRECURSORMZ: 398.200464
PRECURSORTYPE: [M-H]-
FORMULA: C23H30ClN3O
Ontology: Acridines
INCHIKEY: GPKJTRJOBQGKQK-UHFFFAOYNA-N
SMILES: CCN(CC)CCCC(C)N=C1C2=C(NC3=C1C=C(OC)C=C3)C=C(Cl)C=C2
RETENTIONTIME: 
CCS: 201.0563637
IONMODE: Negative
INSTRUMENTTYPE: LC-ESI-QTOF
INSTRUMENT: 
COLLISIONENERGY: 30
Comment: registered in MassBank
Num Peaks: 9
269.04749	399
271.04559	129
347.20139	582
348.2038	145
354.13901	172
383.17661	742
384.18079	201
385.17349	251
398.2002	1000

NAME: Hesperidin; LC-ESI-QTOF; MS2; [M-H]-; CE
PRECURSORMZ: 609.182494
PRECURSORTYPE: [M-H]-
FORMULA: C28H34O15
Ontology: Flavonoid-7-O-glycosides
INCHIKEY: QUQPHWDTPGMPEX-QJBIFVCTSA-N
SMILES: COC1=C(O)C=C(C=C1)[C@@H]1CC(=O)C2=C(O)C=C(O[C@@H]3O[C@H](CO[C@@H]4O[C@@H](C)[C@H](O)[C@@H](O)[C@H]4O)[C@@H](O)[C@H](O)[C@H]3O)C=C2O1
RETENTIONTIME: 
CCS: 228.0515203
IONMODE: Negative
INSTRUMENTTYPE: LC-ESI-QTOF
INSTRUMENT: 
COLLISIONENERGY: 10
Comment: registered in MassBank
Num Peaks: 3
301.07141	74
302.0751	11
609.1825	1000

NAME: Hesperidin; LC-ESI-QTOF; MS2; [M-H]-; CE
PRECURSORMZ: 609.182494
PRECURSORTYPE: [M-H]-
FORMULA: C28H34O15
Ontology: Flavonoid-7-O-glycosides
INCHIKEY: QUQPHWDTPGMPEX-QJBIFVCTSA-N
SMILES: COC1=C(O)C=C(C=C1)[C@@H]1CC(=O)C2=C(O)C=C(O[C@@H]3O[C@H](CO[C@@H]4O[C@@H](C)[C@H](O)[C@@H](O)[C@H]4O)[C@@H](O)[C@H](O)[C@H]3O)C=C2O1
RETENTIONTIME: 
CCS: 228.0515203
IONMODE: Negative
INSTRUMENTTYPE: LC-ESI-QTOF
INSTRUMENT: 
COLLISIONENERGY: 20
Comment: registered in MassBank
Num Peaks: 4
301.07181	881
302.0751	145
303.07751	21
609.18298	1000

NAME: Hesperidin; LC-ESI-QTOF; MS2; [M-H]-; CE
PRECURSORMZ: 609.182494
PRECURSORTYPE: [M-H]-
FORMULA: C28H34O15
Ontology: Flavonoid-7-O-glycosides
INCHIKEY: QUQPHWDTPGMPEX-QJBIFVCTSA-N
SMILES: COC1=C(O)C=C(C=C1)[C@@H]1CC(=O)C2=C(O)C=C(O[C@@H]3O[C@H](CO[C@@H]4O[C@@H](C)[C@H](O)[C@@H](O)[C@H]4O)[C@@H](O)[C@H](O)[C@H]3O)C=C2O1
RETENTIONTIME: 
CCS: 228.0515203
IONMODE: Negative
INSTRUMENTTYPE: LC-ESI-QTOF
INSTRUMENT: 
COLLISIONENERGY: 30
Comment: registered in MassBank
Num Peaks: 6
301.0719	1000
302.07529	188
303.078	21
325.0722	16
343.0824	16
609.18323	233

NAME: Hesperidin; LC-ESI-QTOF; MS2; [M-H]-; CE
PRECURSORMZ: 609.182494
PRECURSORTYPE: [M-H]-
FORMULA: C28H34O15
Ontology: Flavonoid-7-O-glycosides
INCHIKEY: QUQPHWDTPGMPEX-QJBIFVCTSA-N
SMILES: COC1=C(O)C=C(C=C1)[C@@H]1CC(=O)C2=C(O)C=C(O[C@@H]3O[C@H](CO[C@@H]4O[C@@H](C)[C@H](O)[C@@H](O)[C@H]4O)[C@@H](O)[C@H](O)[C@H]3O)C=C2O1
RETENTIONTIME: 
CCS: 228.0515203
IONMODE: Negative
INSTRUMENTTYPE: LC-ESI-QTOF
INSTRUMENT: 
COLLISIONENERGY: 40
Comment: registered in MassBank
Num Peaks: 7
286.0481	20
301.07169	1000
302.0751	177
303.07739	22
325.07211	20
343.0824	23
609.18213	23

NAME: Hesperidin; LC-ESI-QTOF; MS2; [M-H]-; CE
PRECURSORMZ: 609.182494
PRECURSORTYPE: [M-H]-
FORMULA: C28H34O15
Ontology: Flavonoid-7-O-glycosides
INCHIKEY: QUQPHWDTPGMPEX-QJBIFVCTSA-N
SMILES: COC1=C(O)C=C(C=C1)[C@@H]1CC(=O)C2=C(O)C=C(O[C@@H]3O[C@H](CO[C@@H]4O[C@@H](C)[C@H](O)[C@@H](O)[C@H]4O)[C@@H](O)[C@H](O)[C@H]3O)C=C2O1
RETENTIONTIME: 
CCS: 228.0515203
IONMODE: Negative
INSTRUMENTTYPE: LC-ESI-QTOF
INSTRUMENT: 
COLLISIONENERGY: 50
Comment: registered in MassBank
Num Peaks: 14
125.0242	12
151.0038	17
164.0116	20
242.0584	36
257.08221	46
258.05331	17
283.0614	17
286.04861	121
287.05261	17
301.07211	1000
302.07541	190
303.07791	25
325.07181	15
343.0827	21

NAME: Umbelliferone; LC-ESI-QTOF; MS2; [M-H]-; CE
PRECURSORMZ: 161.024418
PRECURSORTYPE: [M-H]-
FORMULA: C9H6O3
Ontology: 7-hydroxycoumarins
INCHIKEY: ORHBXUUXSCNDEV-UHFFFAOYSA-N
SMILES: OC1=CC2=C(C=C1)C=CC(=O)O2
RETENTIONTIME: 
CCS: 129.5382746
IONMODE: Negative
INSTRUMENTTYPE: LC-ESI-QTOF
INSTRUMENT: 
COLLISIONENERGY: 20
Comment: registered in MassBank
Num Peaks: 5
117.0346	33
123.0451	33
133.0293	291
134.0327	24
161.02451	1000

NAME: Umbelliferone; LC-ESI-QTOF; MS2; [M-H]-; CE
PRECURSORMZ: 161.024418
PRECURSORTYPE: [M-H]-
FORMULA: C9H6O3
Ontology: 7-hydroxycoumarins
INCHIKEY: ORHBXUUXSCNDEV-UHFFFAOYSA-N
SMILES: OC1=CC2=C(C=C1)C=CC(=O)O2
RETENTIONTIME: 
CCS: 129.5382746
IONMODE: Negative
INSTRUMENTTYPE: LC-ESI-QTOF
INSTRUMENT: 
COLLISIONENERGY: 30
Comment: registered in MassBank
Num Peaks: 12
89.0402	88
91.0198	11
95.0506	93
105.0351	115
117.0347	129
118.0379	11
119.0137	11
123.0452	363
124.0485	34
133.0296	1000
134.0329	97
161.0248	713

NAME: Umbelliferone; LC-ESI-QTOF; MS2; [M-H]-; CE
PRECURSORMZ: 161.024418
PRECURSORTYPE: [M-H]-
FORMULA: C9H6O3
Ontology: 7-hydroxycoumarins
INCHIKEY: ORHBXUUXSCNDEV-UHFFFAOYSA-N
SMILES: OC1=CC2=C(C=C1)C=CC(=O)O2
RETENTIONTIME: 
CCS: 129.5382746
IONMODE: Negative
INSTRUMENTTYPE: LC-ESI-QTOF
INSTRUMENT: 
COLLISIONENERGY: 40
Comment: registered in MassBank
Num Peaks: 12
89.0401	333
90.043	46
91.0191	101
95.0506	427
105.035	267
106.0378	54
117.0347	194
123.0452	621
124.0485	62
133.0295	1000
134.0327	113
161.0248	280

NAME: Forskolin; LC-ESI-QTOF; MS2; [M-H]-; CE
PRECURSORMZ: 409.223177
PRECURSORTYPE: [M-H]-
FORMULA: C22H34O7
Ontology: Triterpenoids
INCHIKEY: OHCQJHSOBUTRHG-KGGHGJDLSA-N
SMILES: CC(=O)O[C@H]1[C@@H](O)[C@H]2C(C)(C)CC[C@H](O)[C@]2(C)[C@@]2(O)C(=O)C[C@@](C)(O[C@]12C)C=C
RETENTIONTIME: 
CCS: 202.6590981
IONMODE: Negative
INSTRUMENTTYPE: LC-ESI-QTOF
INSTRUMENT: 
COLLISIONENERGY: 10
Comment: registered in MassBank
Num Peaks: 8
153.0923	15
275.16519	13
291.16049	14
331.19131	35
349.2019	167
350.20529	40
367.21219	23
409.2233	1000

NAME: Forskolin; LC-ESI-QTOF; MS2; [M-H]-; CE
PRECURSORMZ: 409.223177
PRECURSORTYPE: [M-H]-
FORMULA: C22H34O7
Ontology: Triterpenoids
INCHIKEY: OHCQJHSOBUTRHG-KGGHGJDLSA-N
SMILES: CC(=O)O[C@H]1[C@@H](O)[C@H]2C(C)(C)CC[C@H](O)[C@]2(C)[C@@]2(O)C(=O)C[C@@](C)(O[C@]12C)C=C
RETENTIONTIME: 
CCS: 202.6590981
IONMODE: Negative
INSTRUMENTTYPE: LC-ESI-QTOF
INSTRUMENT: 
COLLISIONENERGY: 20
Comment: registered in MassBank
Num Peaks: 39
123.0458	32
125.0611	35
139.0762	68
153.092	466
154.0952	46
179.1066	26
180.0793	62
181.0865	44
191.1432	20
195.10229	41
205.1234	117
207.13901	24
213.11301	26
232.1106	41
235.1339	45
253.14481	22
261.1499	72
263.16461	54
271.17099	74
273.14999	36
275.16541	254
276.16891	54
277.18121	49
280.1322	29
289.1806	23
291.1604	112
292.16309	24
293.17621	195
294.17981	30
313.1817	175
314.185	27
331.19199	392
332.1954	110
349.20251	1000
350.2059	192
351.2085	25
367.2128	341
368.216	77
409.22369	559

NAME: Forskolin; LC-ESI-QTOF; MS2; [M-H]-; CE
PRECURSORMZ: 409.223177
PRECURSORTYPE: [M-H]-
FORMULA: C22H34O7
Ontology: Triterpenoids
INCHIKEY: OHCQJHSOBUTRHG-KGGHGJDLSA-N
SMILES: CC(=O)O[C@H]1[C@@H](O)[C@H]2C(C)(C)CC[C@H](O)[C@]2(C)[C@@]2(O)C(=O)C[C@@](C)(O[C@]12C)C=C
RETENTIONTIME: 
CCS: 202.6590981
IONMODE: Negative
INSTRUMENTTYPE: LC-ESI-QTOF
INSTRUMENT: 
COLLISIONENERGY: 30
Comment: registered in MassBank
Num Peaks: 44
123.0451	141
124.0516	54
125.0605	125
135.0816	60
139.076	184
151.11189	47
153.0919	1000
154.0954	91
161.1337	61
167.1075	66
179.1076	164
180.0787	192
181.0853	64
191.14371	72
192.07851	47
195.1028	59
205.1236	647
206.1261	124
207.1387	75
213.1124	50
215.144	50
217.1236	67
219.1396	51
232.11079	209
235.1342	89
245.1548	58
257.15469	155
261.14969	87
271.17068	119
273.1506	83
275.1655	298
276.16769	57
281.13831	49
291.15979	70
293.17581	238
295.17081	47
313.18109	323
314.18481	92
331.19141	255
332.1958	79
349.20209	326
350.2052	86
367.21271	458
368.21609	96

NAME: Forskolin; LC-ESI-QTOF; MS2; [M-H]-; CE
PRECURSORMZ: 409.223177
PRECURSORTYPE: [M-H]-
FORMULA: C22H34O7
Ontology: Triterpenoids
INCHIKEY: OHCQJHSOBUTRHG-KGGHGJDLSA-N
SMILES: CC(=O)O[C@H]1[C@@H](O)[C@H]2C(C)(C)CC[C@H](O)[C@]2(C)[C@@]2(O)C(=O)C[C@@](C)(O[C@]12C)C=C
RETENTIONTIME: 
CCS: 202.6590981
IONMODE: Negative
INSTRUMENTTYPE: LC-ESI-QTOF
INSTRUMENT: 
COLLISIONENERGY: 40
Comment: registered in MassBank
Num Peaks: 36
95.0505	69
97.0662	70
121.0651	61
122.0373	94
123.0448	273
124.052	81
125.0968	170
135.0811	159
137.09689	106
139.07629	347
151.07629	96
153.0921	1000
154.0947	72
161.13361	192
163.1122	103
167.108	87
173.0965	65
179.10809	183
180.07899	102
191.14439	70
192.07851	68
205.1234	686
206.1268	134
207.13879	74
209.1185	61
215.144	136
217.1226	90
219.13789	81
232.1105	165
257.15491	218
271.17059	65
275.1647	75
295.16971	59
313.18109	141
331.19119	63
367.21289	170

NAME: Cochlioquinone A; LC-ESI-QTOF; MS2; [M-H]-; CE
PRECURSORMZ: 531.296342
PRECURSORTYPE: [M-H]-
FORMULA: C30H44O8
Ontology: Oxanes
INCHIKEY: MERDNJKHMKQNFC-PGCPQKQNSA-N
SMILES: CC[C@H](C)[C@@H](OC(C)=O)[C@@H](C)C1=CC(=O)C2=C(OC3[C@@H](C)C[C@H]4O[C@H](CC[C@]4(C)C3C2O)C(C)(C)O)C1=O
RETENTIONTIME: 
CCS: -1
IONMODE: Negative
INSTRUMENTTYPE: LC-ESI-QTOF
INSTRUMENT: 
COLLISIONENERGY: 20
Comment: registered in MassBank
Num Peaks: 3
471.2756	56
472.27991	16
531.29651	1000

NAME: Cochlioquinone A; LC-ESI-QTOF; MS2; [M-H]-; CE
PRECURSORMZ: 531.296342
PRECURSORTYPE: [M-H]-
FORMULA: C30H44O8
Ontology: Oxanes
INCHIKEY: MERDNJKHMKQNFC-PGCPQKQNSA-N
SMILES: CC[C@H](C)[C@@H](OC(C)=O)[C@@H](C)C1=CC(=O)C2=C(OC3[C@@H](C)C[C@H]4O[C@H](CC[C@]4(C)C3C2O)C(C)(C)O)C1=O
RETENTIONTIME: 
CCS: -1
IONMODE: Negative
INSTRUMENTTYPE: LC-ESI-QTOF
INSTRUMENT: 
COLLISIONENERGY: 30
Comment: registered in MassBank
Num Peaks: 7
471.27509	532
472.27939	168
473.28741	68
474.29239	24
489.28561	34
490.29019	10
531.29657	1000

NAME: Cochlioquinone A; LC-ESI-QTOF; MS2; [M-H]-; CE
PRECURSORMZ: 531.296342
PRECURSORTYPE: [M-H]-
FORMULA: C30H44O8
Ontology: Oxanes
INCHIKEY: MERDNJKHMKQNFC-PGCPQKQNSA-N
SMILES: CC[C@H](C)[C@@H](OC(C)=O)[C@@H](C)C1=CC(=O)C2=C(OC3[C@@H](C)C[C@H]4O[C@H](CC[C@]4(C)C3C2O)C(C)(C)O)C1=O
RETENTIONTIME: 
CCS: -1
IONMODE: Negative
INSTRUMENTTYPE: LC-ESI-QTOF
INSTRUMENT: 
COLLISIONENERGY: 40
Comment: registered in MassBank
Num Peaks: 14
247.0985	10
249.1098	13
376.19229	11
387.21841	27
403.21191	19
414.20529	14
455.2822	30
471.27591	1000
472.27951	317
473.28949	126
474.29419	31
489.28809	36
490.28922	24
531.29712	202

NAME: Cochlioquinone A; LC-ESI-QTOF; MS2; [M-H]-; CE
PRECURSORMZ: 531.296342
PRECURSORTYPE: [M-H]-
FORMULA: C30H44O8
Ontology: Oxanes
INCHIKEY: MERDNJKHMKQNFC-PGCPQKQNSA-N
SMILES: CC[C@H](C)[C@@H](OC(C)=O)[C@@H](C)C1=CC(=O)C2=C(OC3[C@@H](C)C[C@H]4O[C@H](CC[C@]4(C)C3C2O)C(C)(C)O)C1=O
RETENTIONTIME: 
CCS: -1
IONMODE: Negative
INSTRUMENTTYPE: LC-ESI-QTOF
INSTRUMENT: 
COLLISIONENERGY: 50
Comment: registered in MassBank
Num Peaks: 22
191.03481	56
219.1031	27
221.11819	39
233.08189	17
247.09801	55
248.1053	114
249.1122	35
265.10751	20
387.21799	43
403.2131	37
404.21719	15
414.20499	96
415.20889	24
453.26569	25
454.2709	15
455.2814	97
456.28549	35
471.2757	1000
472.2793	336
473.28711	77
474.29169	23
489.2858	16

NAME: Lapachol; LC-ESI-QTOF; MS2; [M-H]-; CE
PRECURSORMZ: 241.087018
PRECURSORTYPE: [M-H]-
FORMULA: C15H14O3
Ontology: Vitamin K compounds
INCHIKEY: CIEYTVIYYGTCCI-UHFFFAOYSA-N
SMILES: CC(C)=CCC1=C(O)C(=O)C2=CC=CC=C2C1=O
RETENTIONTIME: 
CCS: 167.2575103
IONMODE: Negative
INSTRUMENTTYPE: LC-ESI-QTOF
INSTRUMENT: 
COLLISIONENERGY: 10
Comment: registered in MassBank
Num Peaks: 2
186.0323	14
241.08749	1000

NAME: Lapachol; LC-ESI-QTOF; MS2; [M-H]-; CE
PRECURSORMZ: 241.087018
PRECURSORTYPE: [M-H]-
FORMULA: C15H14O3
Ontology: Vitamin K compounds
INCHIKEY: CIEYTVIYYGTCCI-UHFFFAOYSA-N
SMILES: CC(C)=CCC1=C(O)C(=O)C2=CC=CC=C2C1=O
RETENTIONTIME: 
CCS: 167.2575103
IONMODE: Negative
INSTRUMENTTYPE: LC-ESI-QTOF
INSTRUMENT: 
COLLISIONENERGY: 20
Comment: registered in MassBank
Num Peaks: 9
186.0327	670
187.0358	78
198.0327	10
213.09241	83
214.09621	11
222.06889	15
223.0768	45
226.064	71
241.0876	1000

NAME: Lapachol; LC-ESI-QTOF; MS2; [M-H]-; CE
PRECURSORMZ: 241.087018
PRECURSORTYPE: [M-H]-
FORMULA: C15H14O3
Ontology: Vitamin K compounds
INCHIKEY: CIEYTVIYYGTCCI-UHFFFAOYSA-N
SMILES: CC(C)=CCC1=C(O)C(=O)C2=CC=CC=C2C1=O
RETENTIONTIME: 
CCS: 167.2575103
IONMODE: Negative
INSTRUMENTTYPE: LC-ESI-QTOF
INSTRUMENT: 
COLLISIONENERGY: 30
Comment: registered in MassBank
Num Peaks: 18
145.0287	14
158.0369	22
186.0318	1000
187.0352	123
188.0377	12
197.0607	18
198.0681	65
199.03951	10
208.05231	12
213.09171	114
214.0947	19
218.0219	13
222.06841	14
223.0755	22
225.0551	79
226.063	155
227.06641	23
241.0867	111

NAME: Lapachol; LC-ESI-QTOF; MS2; [M-H]-; CE
PRECURSORMZ: 241.087018
PRECURSORTYPE: [M-H]-
FORMULA: C15H14O3
Ontology: Vitamin K compounds
INCHIKEY: CIEYTVIYYGTCCI-UHFFFAOYSA-N
SMILES: CC(C)=CCC1=C(O)C(=O)C2=CC=CC=C2C1=O
RETENTIONTIME: 
CCS: 167.2575103
IONMODE: Negative
INSTRUMENTTYPE: LC-ESI-QTOF
INSTRUMENT: 
COLLISIONENERGY: 40
Comment: registered in MassBank
Num Peaks: 33
116.0265	33
145.0293	119
146.0332	11
158.03709	48
159.04359	15
169.0654	17
171.0448	59
173.0246	25
179.05009	22
186.0323	1000
187.0358	136
188.03931	16
195.0446	36
196.0524	12
197.0609	551
198.06731	169
199.0403	86
200.04559	17
206.07359	12
207.0455	11
208.05251	31
209.05991	20
211.0761	58
213.092	66
214.0957	20
221.06081	20
222.0675	12
225.05569	731
226.0612	146
227.0647	22
239.07159	38
240.0766	11
241.086	12

NAME: Lapachol; LC-ESI-QTOF; MS2; [M-H]-; CE
PRECURSORMZ: 241.087018
PRECURSORTYPE: [M-H]-
FORMULA: C15H14O3
Ontology: Vitamin K compounds
INCHIKEY: CIEYTVIYYGTCCI-UHFFFAOYSA-N
SMILES: CC(C)=CCC1=C(O)C(=O)C2=CC=CC=C2C1=O
RETENTIONTIME: 
CCS: 167.2575103
IONMODE: Negative
INSTRUMENTTYPE: LC-ESI-QTOF
INSTRUMENT: 
COLLISIONENERGY: 50
Comment: registered in MassBank
Num Peaks: 31
88.0318	12
101.0401	21
116.0269	71
145.02921	115
158.03751	29
159.04449	16
167.0493	12
169.0654	65
171.045	214
172.0486	25
179.05	48
180.0562	14
182.0374	41
183.08141	12
186.032	129
187.0365	15
195.045	162
196.0513	34
197.06059	1000
197.1067	22
198.06441	172
199.04021	68
200.0441	12
208.0519	17
209.0607	20
210.03281	16
211.07651	74
223.04201	12
225.05569	273
226.05881	40
239.07021	15

NAME: Quercitrin; LC-ESI-QTOF; MS2; [M-H]-; CE
PRECURSORMZ: 447.093285
PRECURSORTYPE: [M-H]-
FORMULA: C21H20O11
Ontology: Flavonoid-3-O-glycosides
INCHIKEY: OXGUCUVFOIWWQJ-HQBVPOQASA-N
SMILES: C[C@@H]1O[C@@H](OC2=C(OC3=CC(O)=CC(O)=C3C2=O)C2=CC(O)=C(O)C=C2)[C@H](O)[C@H](O)[C@H]1O
RETENTIONTIME: 
CCS: 200.6827075
IONMODE: Negative
INSTRUMENTTYPE: LC-ESI-QTOF
INSTRUMENT: 
COLLISIONENERGY: 10
Comment: registered in MassBank
Num Peaks: 3
301.03531	10
447.0936	1000
447.1976	11

NAME: Quercitrin; LC-ESI-QTOF; MS2; [M-H]-; CE
PRECURSORMZ: 447.093285
PRECURSORTYPE: [M-H]-
FORMULA: C21H20O11
Ontology: Flavonoid-3-O-glycosides
INCHIKEY: OXGUCUVFOIWWQJ-HQBVPOQASA-N
SMILES: C[C@@H]1O[C@@H](OC2=C(OC3=CC(O)=CC(O)=C3C2=O)C2=CC(O)=C(O)C=C2)[C@H](O)[C@H](O)[C@H]1O
RETENTIONTIME: 
CCS: 200.6827075
IONMODE: Negative
INSTRUMENTTYPE: LC-ESI-QTOF
INSTRUMENT: 
COLLISIONENERGY: 20
Comment: registered in MassBank
Num Peaks: 5
300.0267	152
301.0343	190
302.03781	35
447.09259	1000
447.17029	13

NAME: Quercitrin; LC-ESI-QTOF; MS2; [M-H]-; CE
PRECURSORMZ: 447.093285
PRECURSORTYPE: [M-H]-
FORMULA: C21H20O11
Ontology: Flavonoid-3-O-glycosides
INCHIKEY: OXGUCUVFOIWWQJ-HQBVPOQASA-N
SMILES: C[C@@H]1O[C@@H](OC2=C(OC3=CC(O)=CC(O)=C3C2=O)C2=CC(O)=C(O)C=C2)[C@H](O)[C@H](O)[C@H]1O
RETENTIONTIME: 
CCS: 200.6827075
IONMODE: Negative
INSTRUMENTTYPE: LC-ESI-QTOF
INSTRUMENT: 
COLLISIONENERGY: 30
Comment: registered in MassBank
Num Peaks: 10
151.0041	13
178.9989	14
255.0295	11
271.02429	16
300.0278	1000
300.11041	11
301.03491	790
302.03809	126
303.04111	21
447.09369	218

NAME: Quercitrin; LC-ESI-QTOF; MS2; [M-H]-; CE
PRECURSORMZ: 447.093285
PRECURSORTYPE: [M-H]-
FORMULA: C21H20O11
Ontology: Flavonoid-3-O-glycosides
INCHIKEY: OXGUCUVFOIWWQJ-HQBVPOQASA-N
SMILES: C[C@@H]1O[C@@H](OC2=C(OC3=CC(O)=CC(O)=C3C2=O)C2=CC(O)=C(O)C=C2)[C@H](O)[C@H](O)[C@H]1O
RETENTIONTIME: 
CCS: 200.6827075
IONMODE: Negative
INSTRUMENTTYPE: LC-ESI-QTOF
INSTRUMENT: 
COLLISIONENERGY: 40
Comment: registered in MassBank
Num Peaks: 17
151.00391	42
163.0036	14
178.9986	37
243.0298	25
245.04581	15
254.0215	12
255.03011	88
256.03369	14
271.02499	155
272.03049	37
273.0401	23
283.02521	24
300.0278	1000
300.10059	11
301.03448	478
302.03769	84
303.04019	15

NAME: Quercitrin; LC-ESI-QTOF; MS2; [M-H]-; CE
PRECURSORMZ: 447.093285
PRECURSORTYPE: [M-H]-
FORMULA: C21H20O11
Ontology: Flavonoid-3-O-glycosides
INCHIKEY: OXGUCUVFOIWWQJ-HQBVPOQASA-N
SMILES: C[C@@H]1O[C@@H](OC2=C(OC3=CC(O)=CC(O)=C3C2=O)C2=CC(O)=C(O)C=C2)[C@H](O)[C@H](O)[C@H]1O
RETENTIONTIME: 
CCS: 200.6827075
IONMODE: Negative
INSTRUMENTTYPE: LC-ESI-QTOF
INSTRUMENT: 
COLLISIONENERGY: 50
Comment: registered in MassBank
Num Peaks: 50
107.014	10
108.0216	13
109.0298	18
121.0295	20
135.0088	18
148.0163	22
149.02431	15
151.00369	140
152.0081	21
163.0036	64
164.0107	26
169.0141	20
178.9985	66
180.00259	11
187.0401	14
190.99899	12
192.00661	18
201.0556	17
203.0343	11
211.03999	33
215.0352	15
216.0425	26
226.02679	21
227.03461	55
228.0401	15
229.0502	28
239.0341	16
240.0397	11
243.0296	229
244.0345	40
245.0448	85
246.04829	15
254.0219	54
255.0298	469
256.0332	71
257.04031	21
271.0246	1000
271.0885	11
272.02899	172
273.0383	55
274.04221	10
283.02469	50
284.02979	15
299.01971	31
300.02719	890
300.0802	11
301.0336	305
301.0957	12
302.03641	55
303.03931	11

NAME: Rutin; LC-ESI-QTOF; MS2; [M-H]-; CE
PRECURSORMZ: 609.146108
PRECURSORTYPE: [M-H]-
FORMULA: C27H30O16
Ontology: Flavonoid-3-O-glycosides
INCHIKEY: IKGXIBQEEMLURG-NVPNHPEKSA-N
SMILES: C[C@@H]1O[C@@H](OC[C@H]2O[C@@H](OC3=C(OC4=CC(O)=CC(O)=C4C3=O)C3=CC(O)=C(O)C=C3)[C@H](O)[C@@H](O)[C@@H]2O)[C@H](O)[C@H](O)[C@H]1O
RETENTIONTIME: 
CCS: 227.7127405
IONMODE: Negative
INSTRUMENTTYPE: LC-ESI-QTOF
INSTRUMENT: 
COLLISIONENERGY: 30
Comment: registered in MassBank
Num Peaks: 4
300.02731	81
301.03448	88
302.03839	14
609.14539	1000

NAME: Rutin; LC-ESI-QTOF; MS2; [M-H]-; CE
PRECURSORMZ: 609.146108
PRECURSORTYPE: [M-H]-
FORMULA: C27H30O16
Ontology: Flavonoid-3-O-glycosides
INCHIKEY: IKGXIBQEEMLURG-NVPNHPEKSA-N
SMILES: C[C@@H]1O[C@@H](OC[C@H]2O[C@@H](OC3=C(OC4=CC(O)=CC(O)=C4C3=O)C3=CC(O)=C(O)C=C3)[C@H](O)[C@@H](O)[C@@H]2O)[C@H](O)[C@H](O)[C@H]1O
RETENTIONTIME: 
CCS: 227.7127405
IONMODE: Negative
INSTRUMENTTYPE: LC-ESI-QTOF
INSTRUMENT: 
COLLISIONENERGY: 40
Comment: registered in MassBank
Num Peaks: 9
151.0036	11
178.9987	18
300.0274	1000
300.1073	11
301.0343	564
302.0376	90
303.0401	13
343.04581	20
609.14581	704

NAME: Rutin; LC-ESI-QTOF; MS2; [M-H]-; CE
PRECURSORMZ: 609.146108
PRECURSORTYPE: [M-H]-
FORMULA: C27H30O16
Ontology: Flavonoid-3-O-glycosides
INCHIKEY: IKGXIBQEEMLURG-NVPNHPEKSA-N
SMILES: C[C@@H]1O[C@@H](OC[C@H]2O[C@@H](OC3=C(OC4=CC(O)=CC(O)=C4C3=O)C3=CC(O)=C(O)C=C3)[C@H](O)[C@@H](O)[C@@H]2O)[C@H](O)[C@H](O)[C@H]1O
RETENTIONTIME: 
CCS: 227.7127405
IONMODE: Negative
INSTRUMENTTYPE: LC-ESI-QTOF
INSTRUMENT: 
COLLISIONENERGY: 50
Comment: registered in MassBank
Num Peaks: 9
151.0034	15
178.99831	18
255.0298	26
271.02469	49
272.0307	17
300.0275	1000
301.03369	373
302.03699	59
609.146	38

NAME: steviolmonoside; LC-ESI-QQ; MS2; CE
PRECURSORMZ: 479.265042
PRECURSORTYPE: [M-H]-
FORMULA: C26H40O8
Ontology: Steviol glycosides
INCHIKEY: QSIDJGUAAUSPMG-CULFPKEHSA-N
SMILES: C[C@@]12CCC[C@](C)([C@H]1CC[C@@]13CC(=C)[C@@](C1)(CC[C@@H]23)O[C@@H]1O[C@H](CO)[C@@H](O)[C@H](O)[C@H]1O)C(O)=O
RETENTIONTIME: 
CCS: 216.1895505
IONMODE: Negative
INSTRUMENTTYPE: LC-ESI-QQ
INSTRUMENT: 
COLLISIONENERGY: 20.0
Comment: registered in MassBank
Num Peaks: 5
316.39999	23
317	654
478.29999	196
479	1000
479.5	62

NAME: steviolmonoside; LC-ESI-QQ; MS2; CE
PRECURSORMZ: 479.265042
PRECURSORTYPE: [M-H]-
FORMULA: C26H40O8
Ontology: Steviol glycosides
INCHIKEY: QSIDJGUAAUSPMG-CULFPKEHSA-N
SMILES: C[C@@]12CCC[C@](C)([C@H]1CC[C@@]13CC(=C)[C@@](C1)(CC[C@@H]23)O[C@@H]1O[C@H](CO)[C@@H](O)[C@H](O)[C@H]1O)C(O)=O
RETENTIONTIME: 
CCS: 216.1895505
IONMODE: Negative
INSTRUMENTTYPE: LC-ESI-QQ
INSTRUMENT: 
COLLISIONENERGY: 40.0
Comment: registered in MassBank
Num Peaks: 4
316.5	76
317.10001	1000
478.29999	14
478.89999	123

NAME: steviolmonoside; LC-ESI-QQ; MS2; CE
PRECURSORMZ: 479.265042
PRECURSORTYPE: [M-H]-
FORMULA: C26H40O8
Ontology: Steviol glycosides
INCHIKEY: QSIDJGUAAUSPMG-CULFPKEHSA-N
SMILES: C[C@@]12CCC[C@](C)([C@H]1CC[C@@]13CC(=C)[C@@](C1)(CC[C@@H]23)O[C@@H]1O[C@H](CO)[C@@H](O)[C@H](O)[C@H]1O)C(O)=O
RETENTIONTIME: 
CCS: 216.1895505
IONMODE: Negative
INSTRUMENTTYPE: LC-ESI-QQ
INSTRUMENT: 
COLLISIONENERGY: 60.0
Comment: registered in MassBank
Num Peaks: 12
300.10001	50
304.29999	40
316.79999	1000
317.5	292
373.79999	36
376.5	22
394.5	50
411.5	24
427.20001	26
431.29999	62
436.29999	21
481.20001	27

NAME: steviolbioside; LC-ESI-QQ; MS2; CE
PRECURSORMZ: 641.317865
PRECURSORTYPE: [M-H]-
FORMULA: C32H50O13
Ontology: Steviol glycosides
INCHIKEY: OMHUCGDTACNQEX-OSHKXICASA-N
SMILES: C[C@@]12CCC[C@](C)([C@H]1CC[C@@]13CC(=C)[C@@](C1)(CC[C@@H]23)O[C@@H]1O[C@H](CO)[C@@H](O)[C@H](O)[C@H]1O[C@@H]1O[C@H](CO)[C@@H](O)[C@H](O)[C@H]1O)C(O)=O
RETENTIONTIME: 
CCS: 258.5826114
IONMODE: Negative
INSTRUMENTTYPE: LC-ESI-QQ
INSTRUMENT: 
COLLISIONENERGY: 20.0
Comment: registered in MassBank
Num Peaks: 4
478.89999	40
640.20001	352
640.90002	1000
641.40002	31

NAME: steviolbioside; LC-ESI-QQ; MS2; CE
PRECURSORMZ: 641.317865
PRECURSORTYPE: [M-H]-
FORMULA: C32H50O13
Ontology: Steviol glycosides
INCHIKEY: OMHUCGDTACNQEX-OSHKXICASA-N
SMILES: C[C@@]12CCC[C@](C)([C@H]1CC[C@@]13CC(=C)[C@@](C1)(CC[C@@H]23)O[C@@H]1O[C@H](CO)[C@@H](O)[C@H](O)[C@H]1O[C@@H]1O[C@H](CO)[C@@H](O)[C@H](O)[C@H]1O)C(O)=O
RETENTIONTIME: 
CCS: 258.5826114
IONMODE: Negative
INSTRUMENTTYPE: LC-ESI-QQ
INSTRUMENT: 
COLLISIONENERGY: 40.0
Comment: registered in MassBank
Num Peaks: 6
317	75
478.29999	67
478.89999	429
640.09998	148
640.79999	1000
641.5	232

NAME: steviolbioside; LC-ESI-QQ; MS2; CE
PRECURSORMZ: 641.317865
PRECURSORTYPE: [M-H]-
FORMULA: C32H50O13
Ontology: Steviol glycosides
INCHIKEY: OMHUCGDTACNQEX-OSHKXICASA-N
SMILES: C[C@@]12CCC[C@](C)([C@H]1CC[C@@]13CC(=C)[C@@](C1)(CC[C@@H]23)O[C@@H]1O[C@H](CO)[C@@H](O)[C@H](O)[C@H]1O[C@@H]1O[C@H](CO)[C@@H](O)[C@H](O)[C@H]1O)C(O)=O
RETENTIONTIME: 
CCS: 258.5826114
IONMODE: Negative
INSTRUMENTTYPE: LC-ESI-QQ
INSTRUMENT: 
COLLISIONENERGY: 60.0
Comment: registered in MassBank
Num Peaks: 9
316.39999	27
316.89999	1000
317.60001	157
413.20001	36
461	84
478.20001	154
479	468
479.60001	44
640.90002	29

NAME: rubusoside; LC-ESI-QQ; MS2; CE
PRECURSORMZ: 641.317865
PRECURSORTYPE: [M-H]-
FORMULA: C32H50O13
Ontology: Steviol glycosides
INCHIKEY: YWPVROCHNBYFTP-OSHKXICASA-N
SMILES: C[C@@]12CCC[C@](C)([C@H]1CC[C@@]13CC(=C)[C@@](C1)(CC[C@@H]23)O[C@@H]1O[C@H](CO)[C@@H](O)[C@H](O)[C@H]1O)C(=O)O[C@@H]1O[C@H](CO)[C@@H](O)[C@H](O)[C@H]1O
RETENTIONTIME: 
CCS: 278.1837114
IONMODE: Negative
INSTRUMENTTYPE: LC-ESI-QQ
INSTRUMENT: 
COLLISIONENERGY: 20.0
Comment: registered in MassBank
Num Peaks: 6
478.20001	71
478.89999	1000
496.29999	15
497	46
640.09998	68
640.90002	157

NAME: rubusoside; LC-ESI-QQ; MS2; CE
PRECURSORMZ: 641.317865
PRECURSORTYPE: [M-H]-
FORMULA: C32H50O13
Ontology: Steviol glycosides
INCHIKEY: YWPVROCHNBYFTP-OSHKXICASA-N
SMILES: C[C@@]12CCC[C@](C)([C@H]1CC[C@@]13CC(=C)[C@@](C1)(CC[C@@H]23)O[C@@H]1O[C@H](CO)[C@@H](O)[C@H](O)[C@H]1O)C(=O)O[C@@H]1O[C@H](CO)[C@@H](O)[C@H](O)[C@H]1O
RETENTIONTIME: 
CCS: 278.1837114
IONMODE: Negative
INSTRUMENTTYPE: LC-ESI-QQ
INSTRUMENT: 
COLLISIONENERGY: 40.0
Comment: registered in MassBank
Num Peaks: 5
317.10001	66
478.29999	89
478.89999	1000
497	22
640.79999	40

NAME: rubusoside; LC-ESI-QQ; MS2; CE
PRECURSORMZ: 641.317865
PRECURSORTYPE: [M-H]-
FORMULA: C32H50O13
Ontology: Steviol glycosides
INCHIKEY: YWPVROCHNBYFTP-OSHKXICASA-N
SMILES: C[C@@]12CCC[C@](C)([C@H]1CC[C@@]13CC(=C)[C@@](C1)(CC[C@@H]23)O[C@@H]1O[C@H](CO)[C@@H](O)[C@H](O)[C@H]1O)C(=O)O[C@@H]1O[C@H](CO)[C@@H](O)[C@H](O)[C@H]1O
RETENTIONTIME: 
CCS: 278.1837114
IONMODE: Negative
INSTRUMENTTYPE: LC-ESI-QQ
INSTRUMENT: 
COLLISIONENERGY: 60.0
Comment: registered in MassBank
Num Peaks: 5
316.60001	122
317.20001	1000
317.70001	41
478.60001	525
479.29999	375

NAME: dulcoside B; LC-ESI-QQ; MS2; CE
PRECURSORMZ: 787.375774
PRECURSORTYPE: [M-H]-
FORMULA: C38H60O17
Ontology: Steviol glycosides
INCHIKEY: RAIDWZDHEYTVLQ-KKZJXQHPSA-N
SMILES: C[C@@H]1O[C@@H](O[C@H]2[C@H](O[C@@]34C[C@]5(CC3=C)CC[C@H]3[C@@](C)(CCC[C@@]3(C)C(O)=O)[C@@H]5CC4)O[C@H](CO)[C@@H](O)[C@@H]2O[C@@H]2O[C@H](CO)[C@@H](O)[C@H](O)[C@H]2O)[C@H](O)[C@H](O)[C@H]1O
RETENTIONTIME: 
CCS: -1
IONMODE: Negative
INSTRUMENTTYPE: LC-ESI-QQ
INSTRUMENT: 
COLLISIONENERGY: 20.0
Comment: registered in MassBank
Num Peaks: 3
785.79999	19
786.29999	597
787.20001	1000

NAME: dulcoside B; LC-ESI-QQ; MS2; CE
PRECURSORMZ: 787.375774
PRECURSORTYPE: [M-H]-
FORMULA: C38H60O17
Ontology: Steviol glycosides
INCHIKEY: RAIDWZDHEYTVLQ-KKZJXQHPSA-N
SMILES: C[C@@H]1O[C@@H](O[C@H]2[C@H](O[C@@]34C[C@]5(CC3=C)CC[C@H]3[C@@](C)(CCC[C@@]3(C)C(O)=O)[C@@H]5CC4)O[C@H](CO)[C@@H](O)[C@@H]2O[C@@H]2O[C@H](CO)[C@@H](O)[C@H](O)[C@H]2O)[C@H](O)[C@H](O)[C@H]1O
RETENTIONTIME: 
CCS: -1
IONMODE: Negative
INSTRUMENTTYPE: LC-ESI-QQ
INSTRUMENT: 
COLLISIONENERGY: 40.0
Comment: registered in MassBank
Num Peaks: 13
317.20001	19
413.20001	12
478.89999	20
606.29999	10
607.29999	22
624.29999	93
625.09998	201
625.70001	11
640.70001	41
641.5	16
785.59998	10
786.29999	339
787	1000

NAME: dulcoside B; LC-ESI-QQ; MS2; CE
PRECURSORMZ: 787.375774
PRECURSORTYPE: [M-H]-
FORMULA: C38H60O17
Ontology: Steviol glycosides
INCHIKEY: RAIDWZDHEYTVLQ-KKZJXQHPSA-N
SMILES: C[C@@H]1O[C@@H](O[C@H]2[C@H](O[C@@]34C[C@]5(CC3=C)CC[C@H]3[C@@](C)(CCC[C@@]3(C)C(O)=O)[C@@H]5CC4)O[C@H](CO)[C@@H](O)[C@@H]2O[C@@H]2O[C@H](CO)[C@@H](O)[C@H](O)[C@H]2O)[C@H](O)[C@H](O)[C@H]1O
RETENTIONTIME: 
CCS: -1
IONMODE: Negative
INSTRUMENTTYPE: LC-ESI-QQ
INSTRUMENT: 
COLLISIONENERGY: 60.0
Comment: registered in MassBank
Num Peaks: 22
316.60001	239
317.29999	446
370.70001	28
371.5	11
387.20001	17
412.29999	39
413	262
413.60001	12
460.60001	115
461.39999	59
478.29999	106
479	1000
479.60001	64
606	12
606.59998	51
607.29999	28
624.40002	223
625.20001	425
626.09998	15
640.29999	13
641.09998	28
787.20001	25

NAME: dulcoside A; LC-ESI-QQ; MS2; CE
PRECURSORMZ: 787.375774
PRECURSORTYPE: [M-H]-
FORMULA: C38H60O17
Ontology: Steviol glycosides
INCHIKEY: CANAPGLEBDTCAF-NTIPNFSCSA-N
SMILES: C[C@@H]1O[C@@H](O[C@@H]2[C@@H](O)[C@H](O)[C@@H](CO)O[C@H]2O[C@@]23C[C@]4(CC2=C)CC[C@H]2[C@@](C)(CCC[C@@]2(C)C(=O)O[C@@H]2O[C@H](CO)[C@@H](O)[C@H](O)[C@H]2O)[C@@H]4CC3)[C@H](O)[C@H](O)[C@H]1O
RETENTIONTIME: 
CCS: 288.0561677
IONMODE: Negative
INSTRUMENTTYPE: LC-ESI-QQ
INSTRUMENT: 
COLLISIONENERGY: 20.0
Comment: registered in MassBank
Num Peaks: 6
624.20001	214
624.90002	1000
625.5	150
626.29999	14
786.29999	182
787.20001	213

NAME: dulcoside A; LC-ESI-QQ; MS2; CE
PRECURSORMZ: 787.375774
PRECURSORTYPE: [M-H]-
FORMULA: C38H60O17
Ontology: Steviol glycosides
INCHIKEY: CANAPGLEBDTCAF-NTIPNFSCSA-N
SMILES: C[C@@H]1O[C@@H](O[C@@H]2[C@@H](O)[C@H](O)[C@@H](CO)O[C@H]2O[C@@]23C[C@]4(CC2=C)CC[C@H]2[C@@](C)(CCC[C@@]2(C)C(=O)O[C@@H]2O[C@H](CO)[C@@H](O)[C@H](O)[C@H]2O)[C@@H]4CC3)[C@H](O)[C@H](O)[C@H]1O
RETENTIONTIME: 
CCS: 288.0561677
IONMODE: Negative
INSTRUMENTTYPE: LC-ESI-QQ
INSTRUMENT: 
COLLISIONENERGY: 40.0
Comment: registered in MassBank
Num Peaks: 9
317.20001	16
478.70001	27
624.20001	237
624.90002	1000
625.5	211
626.40002	11
786.20001	52
787	173
787.59998	49

NAME: dulcoside A; LC-ESI-QQ; MS2; CE
PRECURSORMZ: 787.375774
PRECURSORTYPE: [M-H]-
FORMULA: C38H60O17
Ontology: Steviol glycosides
INCHIKEY: CANAPGLEBDTCAF-NTIPNFSCSA-N
SMILES: C[C@@H]1O[C@@H](O[C@@H]2[C@@H](O)[C@H](O)[C@@H](CO)O[C@H]2O[C@@]23C[C@]4(CC2=C)CC[C@H]2[C@@](C)(CCC[C@@]2(C)C(=O)O[C@@H]2O[C@H](CO)[C@@H](O)[C@H](O)[C@H]2O)[C@@H]4CC3)[C@H](O)[C@H](O)[C@H]1O
RETENTIONTIME: 
CCS: 288.0561677
IONMODE: Negative
INSTRUMENTTYPE: LC-ESI-QQ
INSTRUMENT: 
COLLISIONENERGY: 60.0
Comment: registered in MassBank
Num Peaks: 18
316.70001	82
317.29999	432
358.89999	36
371.5	29
413.10001	48
413.79999	90
460.5	70
461.20001	147
462.89999	38
478.39999	281
479.10001	1000
479.70001	127
624.40002	461
625.09998	837
625.79999	78
641.29999	22
651.70001	19
787.09998	43

NAME: rebaudioside B; LC-ESI-QQ; MS2; CE
PRECURSORMZ: 803.370689
PRECURSORTYPE: [M-H]-
FORMULA: C38H60O18
Ontology: Steviol glycosides
INCHIKEY: DRSKVOAJKLUMCL-MMUIXFKXSA-N
SMILES: C[C@@]12CCC[C@](C)([C@H]1CC[C@@]13CC(=C)[C@@](C1)(CC[C@@H]23)O[C@@H]1O[C@H](CO)[C@@H](O)[C@H](O[C@@H]2O[C@H](CO)[C@@H](O)[C@H](O)[C@H]2O)[C@H]1O[C@@H]1O[C@H](CO)[C@@H](O)[C@H](O)[C@H]1O)C(O)=O
RETENTIONTIME: 
CCS: 279.2761443
IONMODE: Negative
INSTRUMENTTYPE: LC-ESI-QQ
INSTRUMENT: 
COLLISIONENERGY: 20.0
Comment: registered in MassBank
Num Peaks: 2
802.20001	454
803.09998	1000

NAME: rebaudioside B; LC-ESI-QQ; MS2; CE
PRECURSORMZ: 803.370689
PRECURSORTYPE: [M-H]-
FORMULA: C38H60O18
Ontology: Steviol glycosides
INCHIKEY: DRSKVOAJKLUMCL-MMUIXFKXSA-N
SMILES: C[C@@]12CCC[C@](C)([C@H]1CC[C@@]13CC(=C)[C@@](C1)(CC[C@@H]23)O[C@@H]1O[C@H](CO)[C@@H](O)[C@H](O[C@@H]2O[C@H](CO)[C@@H](O)[C@H](O)[C@H]2O)[C@H]1O[C@@H]1O[C@H](CO)[C@@H](O)[C@H](O)[C@H]1O)C(O)=O
RETENTIONTIME: 
CCS: 279.2761443
IONMODE: Negative
INSTRUMENTTYPE: LC-ESI-QQ
INSTRUMENT: 
COLLISIONENERGY: 40.0
Comment: registered in MassBank
Num Peaks: 9
317.10001	31
412.70001	10
479	11
623.20001	12
640.29999	97
641.20001	133
801.59998	15
802.29999	471
803.09998	1000

NAME: rebaudioside B; LC-ESI-QQ; MS2; CE
PRECURSORMZ: 803.370689
PRECURSORTYPE: [M-H]-
FORMULA: C38H60O18
Ontology: Steviol glycosides
INCHIKEY: DRSKVOAJKLUMCL-MMUIXFKXSA-N
SMILES: C[C@@]12CCC[C@](C)([C@H]1CC[C@@]13CC(=C)[C@@](C1)(CC[C@@H]23)O[C@@H]1O[C@H](CO)[C@@H](O)[C@H](O[C@@H]2O[C@H](CO)[C@@H](O)[C@H](O)[C@H]2O)[C@H]1O[C@@H]1O[C@H](CO)[C@@H](O)[C@H](O)[C@H]1O)C(O)=O
RETENTIONTIME: 
CCS: 279.2761443
IONMODE: Negative
INSTRUMENTTYPE: LC-ESI-QQ
INSTRUMENT: 
COLLISIONENERGY: 60.0
Comment: registered in MassBank
Num Peaks: 30
316.5	83
317.10001	1000
317.79999	70
318.5	11
331.20001	16
371	22
372.29999	19
373.10001	60
412.39999	121
413.10001	471
413.70001	36
414.70001	10
424.89999	14
431	10
442.89999	32
460.79999	158
461.5	54
478.39999	284
479.10001	992
479.79999	62
480.60001	23
622.29999	19
623.09998	41
623.90002	12
640.09998	99
640.70001	550
641.40002	286
642.20001	46
802.5	49
803.29999	86

NAME: rebaudioside G; LC-ESI-QQ; MS2; CE
PRECURSORMZ: 803.370689
PRECURSORTYPE: [M-H]-
FORMULA: C38H60O18
Ontology: Steviol glycosides
INCHIKEY: OKPSCKUJXYCMPR-GXTBKCSKSA-N
SMILES: C[C@@]12CCC[C@](C)([C@H]1CC[C@@]13CC(=C)[C@@](C1)(CC[C@@H]23)O[C@@H]1O[C@H](CO)[C@@H](O)[C@H](O[C@@H]2O[C@H](CO)[C@@H](O)[C@H](O)[C@H]2O)[C@H]1O)C(=O)O[C@@H]1O[C@H](CO)[C@@H](O)[C@H](O)[C@H]1O
RETENTIONTIME: 
CCS: -1
IONMODE: Negative
INSTRUMENTTYPE: LC-ESI-QQ
INSTRUMENT: 
COLLISIONENERGY: 20.0
Comment: registered in MassBank
Num Peaks: 6
640.09998	184
640.79999	1000
641.40002	146
642.5	13
802.20001	89
803.09998	213

NAME: rebaudioside G; LC-ESI-QQ; MS2; CE
PRECURSORMZ: 803.370689
PRECURSORTYPE: [M-H]-
FORMULA: C38H60O18
Ontology: Steviol glycosides
INCHIKEY: OKPSCKUJXYCMPR-GXTBKCSKSA-N
SMILES: C[C@@]12CCC[C@](C)([C@H]1CC[C@@]13CC(=C)[C@@](C1)(CC[C@@H]23)O[C@@H]1O[C@H](CO)[C@@H](O)[C@H](O[C@@H]2O[C@H](CO)[C@@H](O)[C@H](O)[C@H]2O)[C@H]1O)C(=O)O[C@@H]1O[C@H](CO)[C@@H](O)[C@H](O)[C@H]1O
RETENTIONTIME: 
CCS: -1
IONMODE: Negative
INSTRUMENTTYPE: LC-ESI-QQ
INSTRUMENT: 
COLLISIONENERGY: 40.0
Comment: registered in MassBank
Num Peaks: 7
478.89999	31
640.20001	160
640.79999	1000
641.40002	164
642.40002	13
802	14
803	21

NAME: rebaudioside G; LC-ESI-QQ; MS2; CE
PRECURSORMZ: 803.370689
PRECURSORTYPE: [M-H]-
FORMULA: C38H60O18
Ontology: Steviol glycosides
INCHIKEY: OKPSCKUJXYCMPR-GXTBKCSKSA-N
SMILES: C[C@@]12CCC[C@](C)([C@H]1CC[C@@]13CC(=C)[C@@](C1)(CC[C@@H]23)O[C@@H]1O[C@H](CO)[C@@H](O)[C@H](O[C@@H]2O[C@H](CO)[C@@H](O)[C@H](O)[C@H]2O)[C@H]1O)C(=O)O[C@@H]1O[C@H](CO)[C@@H](O)[C@H](O)[C@H]1O
RETENTIONTIME: 
CCS: -1
IONMODE: Negative
INSTRUMENTTYPE: LC-ESI-QQ
INSTRUMENT: 
COLLISIONENERGY: 60.0
Comment: registered in MassBank
Num Peaks: 12
317.10001	230
317.70001	24
460.29999	37
461	188
461.60001	20
478.29999	198
479	1000
479.70001	33
480.5	13
640.29999	116
641.09998	299
641.79999	18

NAME: stevioside; LC-ESI-QQ; MS2; CE
PRECURSORMZ: 803.370689
PRECURSORTYPE: [M-H]-
FORMULA: C38H60O18
Ontology: Steviol glycosides
INCHIKEY: UEDUENGHJMELGK-HYDKPPNVSA-N
SMILES: C[C@@]12CCC[C@](C)([C@H]1CC[C@@]13CC(=C)[C@@](C1)(CC[C@@H]23)O[C@@H]1O[C@H](CO)[C@@H](O)[C@H](O)[C@H]1O[C@@H]1O[C@H](CO)[C@@H](O)[C@H](O)[C@H]1O)C(=O)O[C@@H]1O[C@H](CO)[C@@H](O)[C@H](O)[C@H]1O
RETENTIONTIME: 
CCS: 253.2427099
IONMODE: Negative
INSTRUMENTTYPE: LC-ESI-QQ
INSTRUMENT: 
COLLISIONENERGY: 20.0
Comment: registered in MassBank
Num Peaks: 4
640.20001	271
640.90002	1000
641.40002	47
803.09998	16

NAME: stevioside; LC-ESI-QQ; MS2; CE
PRECURSORMZ: 803.370689
PRECURSORTYPE: [M-H]-
FORMULA: C38H60O18
Ontology: Steviol glycosides
INCHIKEY: UEDUENGHJMELGK-HYDKPPNVSA-N
SMILES: C[C@@]12CCC[C@](C)([C@H]1CC[C@@]13CC(=C)[C@@](C1)(CC[C@@H]23)O[C@@H]1O[C@H](CO)[C@@H](O)[C@H](O)[C@H]1O[C@@H]1O[C@H](CO)[C@@H](O)[C@H](O)[C@H]1O)C(=O)O[C@@H]1O[C@H](CO)[C@@H](O)[C@H](O)[C@H]1O
RETENTIONTIME: 
CCS: 253.2427099
IONMODE: Negative
INSTRUMENTTYPE: LC-ESI-QQ
INSTRUMENT: 
COLLISIONENERGY: 40.0
Comment: registered in MassBank
Num Peaks: 4
479.10001	13
640.20001	201
640.90002	1000
641.40002	43

NAME: stevioside; LC-ESI-QQ; MS2; CE
PRECURSORMZ: 803.370689
PRECURSORTYPE: [M-H]-
FORMULA: C38H60O18
Ontology: Steviol glycosides
INCHIKEY: UEDUENGHJMELGK-HYDKPPNVSA-N
SMILES: C[C@@]12CCC[C@](C)([C@H]1CC[C@@]13CC(=C)[C@@](C1)(CC[C@@H]23)O[C@@H]1O[C@H](CO)[C@@H](O)[C@H](O)[C@H]1O[C@@H]1O[C@H](CO)[C@@H](O)[C@H](O)[C@H]1O)C(=O)O[C@@H]1O[C@H](CO)[C@@H](O)[C@H](O)[C@H]1O
RETENTIONTIME: 
CCS: 253.2427099
IONMODE: Negative
INSTRUMENTTYPE: LC-ESI-QQ
INSTRUMENT: 
COLLISIONENERGY: 60.0
Comment: registered in MassBank
Num Peaks: 14
316.5	22
317.20001	270
370.89999	15
460.29999	10
460.89999	79
461.60001	14
478.29999	119
479	1000
479.60001	50
480.5	14
640.29999	367
641	856
641.70001	105
642.59998	14

NAME: rebaudioside C; LC-ESI-QQ; MS2; CE
PRECURSORMZ: 949.428597
PRECURSORTYPE: [M-H]-
FORMULA: C44H70O22
Ontology: Steviol glycosides
INCHIKEY: QSRAJVGDWKFOGU-WBXIDTKBSA-N
SMILES: C[C@@H]1O[C@@H](O[C@H]2[C@H](O[C@@]34C[C@]5(CC3=C)CC[C@H]3[C@@](C)(CCC[C@@]3(C)C(=O)O[C@@H]3O[C@H](CO)[C@@H](O)[C@H](O)[C@H]3O)[C@@H]5CC4)O[C@H](CO)[C@@H](O)[C@@H]2O[C@@H]2O[C@H](CO)[C@@H](O)[C@H](O)[C@H]2O)[C@H](O)[C@H](O)[C@H]1O
RETENTIONTIME: 
CCS: 314.0973653
IONMODE: Negative
INSTRUMENTTYPE: LC-ESI-QQ
INSTRUMENT: 
COLLISIONENERGY: 20.0
Comment: registered in MassBank
Num Peaks: 6
786.29999	391
787.09998	1000
787.79999	69
947.79999	38
948.40002	611
949.40002	856

NAME: rebaudioside C; LC-ESI-QQ; MS2; CE
PRECURSORMZ: 949.428597
PRECURSORTYPE: [M-H]-
FORMULA: C44H70O22
Ontology: Steviol glycosides
INCHIKEY: QSRAJVGDWKFOGU-WBXIDTKBSA-N
SMILES: C[C@@H]1O[C@@H](O[C@H]2[C@H](O[C@@]34C[C@]5(CC3=C)CC[C@H]3[C@@](C)(CCC[C@@]3(C)C(=O)O[C@@H]3O[C@H](CO)[C@@H](O)[C@H](O)[C@H]3O)[C@@H]5CC4)O[C@H](CO)[C@@H](O)[C@@H]2O[C@@H]2O[C@H](CO)[C@@H](O)[C@H](O)[C@H]2O)[C@H](O)[C@H](O)[C@H]1O
RETENTIONTIME: 
CCS: 314.0973653
IONMODE: Negative
INSTRUMENTTYPE: LC-ESI-QQ
INSTRUMENT: 
COLLISIONENERGY: 40.0
Comment: registered in MassBank
Num Peaks: 3
786.29999	371
787.09998	1000
787.70001	111

NAME: rebaudioside C; LC-ESI-QQ; MS2; CE
PRECURSORMZ: 949.428597
PRECURSORTYPE: [M-H]-
FORMULA: C44H70O22
Ontology: Steviol glycosides
INCHIKEY: QSRAJVGDWKFOGU-WBXIDTKBSA-N
SMILES: C[C@@H]1O[C@@H](O[C@H]2[C@H](O[C@@]34C[C@]5(CC3=C)CC[C@H]3[C@@](C)(CCC[C@@]3(C)C(=O)O[C@@H]3O[C@H](CO)[C@@H](O)[C@H](O)[C@H]3O)[C@@H]5CC4)O[C@H](CO)[C@@H](O)[C@@H]2O[C@@H]2O[C@H](CO)[C@@H](O)[C@H](O)[C@H]2O)[C@H](O)[C@H](O)[C@H]1O
RETENTIONTIME: 
CCS: 314.0973653
IONMODE: Negative
INSTRUMENTTYPE: LC-ESI-QQ
INSTRUMENT: 
COLLISIONENERGY: 60.0
Comment: registered in MassBank
Num Peaks: 21
316.60001	17
317.20001	160
412.29999	13
413	120
413.60001	24
443.10001	10
461	49
478.39999	46
479.10001	229
479.79999	13
606.29999	37
607.09998	99
624.29999	266
625	1000
625.70001	97
626.40002	10
640.5	144
641.29999	131
786.29999	368
787.20001	800
787.79999	156

NAME: rebaudioside F; LC-ESI-QQ; MS2; CE
PRECURSORMZ: 935.412947
PRECURSORTYPE: [M-H]-
FORMULA: C43H68O22
Ontology: Steviol glycosides
INCHIKEY: HYLAUKAHEAUVFE-AVBZULRRSA-N
SMILES: C[C@@]12CCC[C@](C)([C@H]1CC[C@@]13CC(=C)[C@@](C1)(CC[C@@H]23)O[C@@H]1O[C@H](CO)[C@@H](O)[C@H](O[C@@H]2O[C@H](CO)[C@@H](O)[C@H](O)[C@H]2O)[C@H]1O[C@@H]1OC[C@@H](O)[C@H](O)[C@H]1O)C(=O)O[C@@H]1O[C@H](CO)[C@@H](O)[C@H](O)[C@H]1O
RETENTIONTIME: 
CCS: 331.2626735
IONMODE: Negative
INSTRUMENTTYPE: LC-ESI-QQ
INSTRUMENT: 
COLLISIONENERGY: 20.0
Comment: registered in MassBank
Num Peaks: 7
771.79999	25
772.40002	510
773.20001	1000
773.79999	117
933.79999	67
934.40002	492
935.29999	712

NAME: rebaudioside F; LC-ESI-QQ; MS2; CE
PRECURSORMZ: 935.412947
PRECURSORTYPE: [M-H]-
FORMULA: C43H68O22
Ontology: Steviol glycosides
INCHIKEY: HYLAUKAHEAUVFE-AVBZULRRSA-N
SMILES: C[C@@]12CCC[C@](C)([C@H]1CC[C@@]13CC(=C)[C@@](C1)(CC[C@@H]23)O[C@@H]1O[C@H](CO)[C@@H](O)[C@H](O[C@@H]2O[C@H](CO)[C@@H](O)[C@H](O)[C@H]2O)[C@H]1O[C@@H]1OC[C@@H](O)[C@H](O)[C@H]1O)C(=O)O[C@@H]1O[C@H](CO)[C@@H](O)[C@H](O)[C@H]1O
RETENTIONTIME: 
CCS: 331.2626735
IONMODE: Negative
INSTRUMENTTYPE: LC-ESI-QQ
INSTRUMENT: 
COLLISIONENERGY: 40.0
Comment: registered in MassBank
Num Peaks: 5
771.79999	31
772.40002	583
773.20001	1000
773.90002	70
774.59998	16

NAME: rebaudioside F; LC-ESI-QQ; MS2; CE
PRECURSORMZ: 935.412947
PRECURSORTYPE: [M-H]-
FORMULA: C43H68O22
Ontology: Steviol glycosides
INCHIKEY: HYLAUKAHEAUVFE-AVBZULRRSA-N
SMILES: C[C@@]12CCC[C@](C)([C@H]1CC[C@@]13CC(=C)[C@@](C1)(CC[C@@H]23)O[C@@H]1O[C@H](CO)[C@@H](O)[C@H](O[C@@H]2O[C@H](CO)[C@@H](O)[C@H](O)[C@H]2O)[C@H]1O[C@@H]1OC[C@@H](O)[C@H](O)[C@H]1O)C(=O)O[C@@H]1O[C@H](CO)[C@@H](O)[C@H](O)[C@H]1O
RETENTIONTIME: 
CCS: 331.2626735
IONMODE: Negative
INSTRUMENTTYPE: LC-ESI-QQ
INSTRUMENT: 
COLLISIONENERGY: 60.0
Comment: registered in MassBank
Num Peaks: 25
316.60001	32
317.20001	295
412.20001	20
412.89999	166
413.60001	38
442.60001	17
443.39999	13
449.20001	14
460.89999	53
478.29999	63
479	338
479.60001	57
592.29999	19
593.09998	63
609.90002	27
610.5	562
611.40002	440
612.20001	17
640.20001	125
641	338
641.70001	64
772.20001	271
773	1000
773.70001	262
774.40002	15

NAME: rebaudioside A; LC-ESI-QQ; MS2; CE
PRECURSORMZ: 965.423512
PRECURSORTYPE: [M-H]-
FORMULA: C44H70O23
Ontology: Steviol glycosides
INCHIKEY: HELXLJCILKEWJH-NCGAPWICSA-N
SMILES: C[C@@]12CCC[C@](C)([C@H]1CC[C@@]13CC(=C)[C@@](C1)(CC[C@@H]23)O[C@@H]1O[C@H](CO)[C@@H](O)[C@H](O[C@@H]2O[C@H](CO)[C@@H](O)[C@H](O)[C@H]2O)[C@H]1O[C@@H]1O[C@H](CO)[C@@H](O)[C@H](O)[C@H]1O)C(=O)O[C@@H]1O[C@H](CO)[C@@H](O)[C@H](O)[C@H]1O
RETENTIONTIME: 
CCS: 326.0840082
IONMODE: Negative
INSTRUMENTTYPE: LC-ESI-QQ
INSTRUMENT: 
COLLISIONENERGY: 20.0
Comment: registered in MassBank
Num Peaks: 7
801.90002	14
802.5	515
803.40002	933
804	118
964	78
964.59998	719
965.59998	1000

NAME: rebaudioside A; LC-ESI-QQ; MS2; CE
PRECURSORMZ: 965.423512
PRECURSORTYPE: [M-H]-
FORMULA: C44H70O23
Ontology: Steviol glycosides
INCHIKEY: HELXLJCILKEWJH-NCGAPWICSA-N
SMILES: C[C@@]12CCC[C@](C)([C@H]1CC[C@@]13CC(=C)[C@@](C1)(CC[C@@H]23)O[C@@H]1O[C@H](CO)[C@@H](O)[C@H](O[C@@H]2O[C@H](CO)[C@@H](O)[C@H](O)[C@H]2O)[C@H]1O[C@@H]1O[C@H](CO)[C@@H](O)[C@H](O)[C@H]1O)C(=O)O[C@@H]1O[C@H](CO)[C@@H](O)[C@H](O)[C@H]1O
RETENTIONTIME: 
CCS: 326.0840082
IONMODE: Negative
INSTRUMENTTYPE: LC-ESI-QQ
INSTRUMENT: 
COLLISIONENERGY: 40.0
Comment: registered in MassBank
Num Peaks: 4
802	33
802.59998	588
803.40002	1000
804.20001	38

NAME: rebaudioside A; LC-ESI-QQ; MS2; CE
PRECURSORMZ: 965.423512
PRECURSORTYPE: [M-H]-
FORMULA: C44H70O23
Ontology: Steviol glycosides
INCHIKEY: HELXLJCILKEWJH-NCGAPWICSA-N
SMILES: C[C@@]12CCC[C@](C)([C@H]1CC[C@@]13CC(=C)[C@@](C1)(CC[C@@H]23)O[C@@H]1O[C@H](CO)[C@@H](O)[C@H](O[C@@H]2O[C@H](CO)[C@@H](O)[C@H](O)[C@H]2O)[C@H]1O[C@@H]1O[C@H](CO)[C@@H](O)[C@H](O)[C@H]1O)C(=O)O[C@@H]1O[C@H](CO)[C@@H](O)[C@H](O)[C@H]1O
RETENTIONTIME: 
CCS: 326.0840082
IONMODE: Negative
INSTRUMENTTYPE: LC-ESI-QQ
INSTRUMENT: 
COLLISIONENERGY: 60.0
Comment: registered in MassBank
Num Peaks: 20
316.60001	19
317.29999	228
317.89999	18
412.39999	19
413.10001	116
413.70001	26
443.39999	20
460.60001	11
461.39999	31
478.5	48
479.29999	142
622.79999	56
623.70001	32
640.5	335
641.29999	696
642	119
801.90002	26
802.5	666
803.5	1000
804.20001	163

NAME: rebaudioside A; LC-ESI-QQ; MS2; CE
PRECURSORMZ: 965.423512
PRECURSORTYPE: [M-H]-
FORMULA: C44H70O23
Ontology: Steviol glycosides
INCHIKEY: HELXLJCILKEWJH-NCGAPWICSA-N
SMILES: C[C@@]12CCC[C@](C)([C@H]1CC[C@@]13CC(=C)[C@@](C1)(CC[C@@H]23)O[C@@H]1O[C@H](CO)[C@@H](O)[C@H](O[C@@H]2O[C@H](CO)[C@@H](O)[C@H](O)[C@H]2O)[C@H]1O[C@@H]1O[C@H](CO)[C@@H](O)[C@H](O)[C@H]1O)C(=O)O[C@@H]1O[C@H](CO)[C@@H](O)[C@H](O)[C@H]1O
RETENTIONTIME: 
CCS: 326.0840082
IONMODE: Negative
INSTRUMENTTYPE: LC-ESI-QQ
INSTRUMENT: 
COLLISIONENERGY: 80.0
Comment: registered in MassBank
Num Peaks: 29
316.79999	221
317.5	747
318.10001	26
331.79999	15
359.29999	12
360.10001	12
370.70001	14
371.70001	18
372.79999	36
373.70001	36
400.79999	12
412.70001	232
413.60001	381
424.79999	12
443	20
443.79999	13
460.39999	28
461.10001	155
461.79999	54
478.60001	559
479.5	1000
480.10001	49
622.59998	30
623.5	17
640.20001	79
640.79999	364
641.79999	396
642.59998	14
803.59998	11

NAME: rebaudioside E; LC-ESI-QQ; MS2; CE
PRECURSORMZ: 965.423512
PRECURSORTYPE: [M-H]-
FORMULA: C44H70O23
Ontology: Steviol glycosides
INCHIKEY: RLLCWNUIHGPAJY-SFUUMPFESA-N
SMILES: C[C@@]12CCC[C@](C)([C@H]1CC[C@@]13CC(=C)[C@@](C1)(CC[C@@H]23)O[C@@H]1O[C@H](CO)[C@@H](O)[C@H](O)[C@H]1O[C@@H]1O[C@H](CO)[C@@H](O)[C@H](O)[C@H]1O)C(=O)O[C@@H]1O[C@H](CO)[C@@H](O)[C@H](O)[C@H]1O[C@@H]1O[C@H](CO)[C@@H](O)[C@H](O)[C@H]1O
RETENTIONTIME: 
CCS: 331.5013082
IONMODE: Negative
INSTRUMENTTYPE: LC-ESI-QQ
INSTRUMENT: 
COLLISIONENERGY: 20.0
Comment: registered in MassBank
Num Peaks: 8
640.90002	49
641.59998	17
802.5	26
803.40002	54
804.09998	33
964.09998	270
964.79999	537
965.70001	1000

NAME: rebaudioside E; LC-ESI-QQ; MS2; CE
PRECURSORMZ: 965.423512
PRECURSORTYPE: [M-H]-
FORMULA: C44H70O23
Ontology: Steviol glycosides
INCHIKEY: RLLCWNUIHGPAJY-SFUUMPFESA-N
SMILES: C[C@@]12CCC[C@](C)([C@H]1CC[C@@]13CC(=C)[C@@](C1)(CC[C@@H]23)O[C@@H]1O[C@H](CO)[C@@H](O)[C@H](O)[C@H]1O[C@@H]1O[C@H](CO)[C@@H](O)[C@H](O)[C@H]1O)C(=O)O[C@@H]1O[C@H](CO)[C@@H](O)[C@H](O)[C@H]1O[C@@H]1O[C@H](CO)[C@@H](O)[C@H](O)[C@H]1O
RETENTIONTIME: 
CCS: 331.5013082
IONMODE: Negative
INSTRUMENTTYPE: LC-ESI-QQ
INSTRUMENT: 
COLLISIONENERGY: 40.0
Comment: registered in MassBank
Num Peaks: 11
640.09998	56
640.79999	1000
641.59998	592
642.20001	61
682.79999	21
683.5	10
802.5	97
803.5	217
804.20001	19
964.40002	149
965.29999	229

NAME: rebaudioside E; LC-ESI-QQ; MS2; CE
PRECURSORMZ: 965.423512
PRECURSORTYPE: [M-H]-
FORMULA: C44H70O23
Ontology: Steviol glycosides
INCHIKEY: RLLCWNUIHGPAJY-SFUUMPFESA-N
SMILES: C[C@@]12CCC[C@](C)([C@H]1CC[C@@]13CC(=C)[C@@](C1)(CC[C@@H]23)O[C@@H]1O[C@H](CO)[C@@H](O)[C@H](O)[C@H]1O[C@@H]1O[C@H](CO)[C@@H](O)[C@H](O)[C@H]1O)C(=O)O[C@@H]1O[C@H](CO)[C@@H](O)[C@H](O)[C@H]1O[C@@H]1O[C@H](CO)[C@@H](O)[C@H](O)[C@H]1O
RETENTIONTIME: 
CCS: 331.5013082
IONMODE: Negative
INSTRUMENTTYPE: LC-ESI-QQ
INSTRUMENT: 
COLLISIONENERGY: 60.0
Comment: registered in MassBank
Num Peaks: 12
316.89999	26
317.60001	98
461.5	29
478.70001	184
479.5	246
640	28
640.70001	863
641.40002	1000
642	18
802	12
802.79999	65
803.79999	52

NAME: rebaudioside I; LC-ESI-QQ; MS2; CE
PRECURSORMZ: 1127.476336
PRECURSORTYPE: [M-H]-
FORMULA: C50H80O28
Ontology: Steviol glycosides
INCHIKEY: BSVKOVOOJNJHBR-PBQKZBBNSA-N
SMILES: C[C@@]12CCC[C@](C)([C@H]1CC[C@@]13CC(=C)[C@@](C1)(CC[C@@H]23)O[C@@H]1O[C@H](CO)[C@@H](O)[C@H](O[C@@H]2O[C@H](CO)[C@@H](O)[C@H](O)[C@H]2O)[C@H]1O[C@@H]1O[C@H](CO)[C@@H](O)[C@H](O)[C@H]1O)C(=O)O[C@@H]1O[C@H](CO)[C@@H](O)[C@H](O[C@@H]2O[C@H](CO)[C@@H](O)[C@H](O)[C@H]2O)[C@H]1O
RETENTIONTIME: 
CCS: -1
IONMODE: Negative
INSTRUMENTTYPE: LC-ESI-QQ
INSTRUMENT: 
COLLISIONENERGY: 40.0
Comment: registered in MassBank
Num Peaks: 6
801.90002	37
802.5	429
803.40002	1000
804	198
1126.19995	13
1127	17

NAME: rebaudioside I; LC-ESI-QQ; MS2; CE
PRECURSORMZ: 1127.476336
PRECURSORTYPE: [M-H]-
FORMULA: C50H80O28
Ontology: Steviol glycosides
INCHIKEY: BSVKOVOOJNJHBR-PBQKZBBNSA-N
SMILES: C[C@@]12CCC[C@](C)([C@H]1CC[C@@]13CC(=C)[C@@](C1)(CC[C@@H]23)O[C@@H]1O[C@H](CO)[C@@H](O)[C@H](O[C@@H]2O[C@H](CO)[C@@H](O)[C@H](O)[C@H]2O)[C@H]1O[C@@H]1O[C@H](CO)[C@@H](O)[C@H](O)[C@H]1O)C(=O)O[C@@H]1O[C@H](CO)[C@@H](O)[C@H](O[C@@H]2O[C@H](CO)[C@@H](O)[C@H](O)[C@H]2O)[C@H]1O
RETENTIONTIME: 
CCS: -1
IONMODE: Negative
INSTRUMENTTYPE: LC-ESI-QQ
INSTRUMENT: 
COLLISIONENERGY: 60.0
Comment: registered in MassBank
Num Peaks: 8
317.29999	15
413.20001	10
640.5	46
641.40002	113
801.90002	38
802.59998	458
803.5	1000
804.20001	115

NAME: rebaudioside I; LC-ESI-QQ; MS2; CE
PRECURSORMZ: 1127.476336
PRECURSORTYPE: [M-H]-
FORMULA: C50H80O28
Ontology: Steviol glycosides
INCHIKEY: BSVKOVOOJNJHBR-PBQKZBBNSA-N
SMILES: C[C@@]12CCC[C@](C)([C@H]1CC[C@@]13CC(=C)[C@@](C1)(CC[C@@H]23)O[C@@H]1O[C@H](CO)[C@@H](O)[C@H](O[C@@H]2O[C@H](CO)[C@@H](O)[C@H](O)[C@H]2O)[C@H]1O[C@@H]1O[C@H](CO)[C@@H](O)[C@H](O)[C@H]1O)C(=O)O[C@@H]1O[C@H](CO)[C@@H](O)[C@H](O[C@@H]2O[C@H](CO)[C@@H](O)[C@H](O)[C@H]2O)[C@H]1O
RETENTIONTIME: 
CCS: -1
IONMODE: Negative
INSTRUMENTTYPE: LC-ESI-QQ
INSTRUMENT: 
COLLISIONENERGY: 80.0
Comment: registered in MassBank
Num Peaks: 27
316.70001	221
317.5	642
318	20
371	26
373.29999	10
412.79999	163
413.79999	212
425.29999	26
443.70001	40
460.70001	21
461.5	69
478.29999	99
479.10001	339
479.89999	259
622.40002	45
623.20001	10
623.70001	60
639.59998	23
640.40002	383
641	58
641.59998	1000
642.09998	38
802	19
802.70001	182
803.20001	10
803.70001	275
804.29999	34

NAME: rebaudioside H; LC-ESI-QQ; MS2; CE
PRECURSORMZ: 1111.481421
PRECURSORTYPE: [M-H]-
FORMULA: C50H80O27
Ontology: Steviol glycosides
INCHIKEY: UYOANCNCPRFKOY-PGTJKNIJSA-N
SMILES: C[C@@H]1O[C@@H](O[C@H]2[C@H](O[C@@]34C[C@]5(CC3=C)CC[C@H]3[C@@](C)(CCC[C@@]3(C)C(=O)O[C@@H]3O[C@H](CO)[C@@H](O)[C@H](O)[C@H]3O)[C@@H]5CC4)O[C@H](CO)[C@@H](O)[C@@H]2O[C@@H]2O[C@H](CO)[C@@H](O)[C@H](O)[C@H]2O)[C@H](O)[C@H](O[C@@H]2O[C@H](CO)[C@@H](O)[C@H](O)[C@H]2O)[C@H]1O
RETENTIONTIME: 
CCS: -1
IONMODE: Negative
INSTRUMENTTYPE: LC-ESI-QQ
INSTRUMENT: 
COLLISIONENERGY: 40.0
Comment: registered in MassBank
Num Peaks: 9
786.79999	33
787.79999	34
948	38
948.59998	570
949.5	1000
950.29999	84
1110.09998	24
1110.90002	84
1112	68

NAME: rebaudioside H; LC-ESI-QQ; MS2; CE
PRECURSORMZ: 1111.481421
PRECURSORTYPE: [M-H]-
FORMULA: C50H80O27
Ontology: Steviol glycosides
INCHIKEY: UYOANCNCPRFKOY-PGTJKNIJSA-N
SMILES: C[C@@H]1O[C@@H](O[C@H]2[C@H](O[C@@]34C[C@]5(CC3=C)CC[C@H]3[C@@](C)(CCC[C@@]3(C)C(=O)O[C@@H]3O[C@H](CO)[C@@H](O)[C@H](O)[C@H]3O)[C@@H]5CC4)O[C@H](CO)[C@@H](O)[C@@H]2O[C@@H]2O[C@H](CO)[C@@H](O)[C@H](O)[C@H]2O)[C@H](O)[C@H](O[C@@H]2O[C@H](CO)[C@@H](O)[C@H](O)[C@H]2O)[C@H]1O
RETENTIONTIME: 
CCS: -1
IONMODE: Negative
INSTRUMENTTYPE: LC-ESI-QQ
INSTRUMENT: 
COLLISIONENERGY: 60.0
Comment: registered in MassBank
Num Peaks: 19
317.29999	19
479.29999	19
607.09998	10
624.59998	36
625.5	46
640.40002	26
641.40002	39
769	13
770.09998	17
786.20001	45
786.79999	159
787.70001	207
788.40002	15
802.59998	30
803.5	34
948.20001	374
948.90002	993
949.79999	1000
951.09998	15

NAME: rebaudioside H; LC-ESI-QQ; MS2; CE
PRECURSORMZ: 1111.481421
PRECURSORTYPE: [M-H]-
FORMULA: C50H80O27
Ontology: Steviol glycosides
INCHIKEY: UYOANCNCPRFKOY-PGTJKNIJSA-N
SMILES: C[C@@H]1O[C@@H](O[C@H]2[C@H](O[C@@]34C[C@]5(CC3=C)CC[C@H]3[C@@](C)(CCC[C@@]3(C)C(=O)O[C@@H]3O[C@H](CO)[C@@H](O)[C@H](O)[C@H]3O)[C@@H]5CC4)O[C@H](CO)[C@@H](O)[C@@H]2O[C@@H]2O[C@H](CO)[C@@H](O)[C@H](O)[C@H]2O)[C@H](O)[C@H](O[C@@H]2O[C@H](CO)[C@@H](O)[C@H](O)[C@H]2O)[C@H]1O
RETENTIONTIME: 
CCS: -1
IONMODE: Negative
INSTRUMENTTYPE: LC-ESI-QQ
INSTRUMENT: 
COLLISIONENERGY: 80.0
Comment: registered in MassBank
Num Peaks: 49
316.79999	215
317.60001	638
318.79999	13
371.70001	11
373.20001	12
373.89999	14
412.39999	47
413.20001	335
414	58
431.70001	50
443	17
443.89999	20
460.89999	188
461.70001	100
478.39999	135
479	838
479.79999	641
493.20001	12
497.5	17
501.70001	16
588.40002	20
606.09998	36
606.79999	85
607.59998	191
608.40002	12
610.79999	21
623.40002	12
623.90002	38
624.40002	331
625.20001	882
625.90002	285
640.09998	36
640.70001	281
641.70001	434
642.5	18
668	23
768.5	94
769.09998	26
769.70001	246
786.09998	44
786.59998	574
787.79999	1000
802.59998	10
803.5	20
922.09998	11
948.40002	399
949.29999	668
950.09998	601
951.20001	23

NAME: rebaudioside D; LC-ESI-QQ; MS2; CE
PRECURSORMZ: 1127.476336
PRECURSORTYPE: [M-H]-
FORMULA: C50H80O28
Ontology: Steviol glycosides
INCHIKEY: RPYRMTHVSUWHSV-CUZJHZIBSA-N
SMILES: C[C@@]12CCC[C@](C)([C@H]1CC[C@@]13CC(=C)[C@@](C1)(CC[C@@H]23)O[C@@H]1O[C@H](CO)[C@@H](O)[C@H](O[C@@H]2O[C@H](CO)[C@@H](O)[C@H](O)[C@H]2O)[C@H]1O[C@@H]1O[C@H](CO)[C@@H](O)[C@H](O)[C@H]1O)C(=O)O[C@@H]1O[C@H](CO)[C@@H](O)[C@H](O)[C@H]1O[C@@H]1O[C@H](CO)[C@@H](O)[C@H](O)[C@H]1O
RETENTIONTIME: 
CCS: 344.1712908
IONMODE: Negative
INSTRUMENTTYPE: LC-ESI-QQ
INSTRUMENT: 
COLLISIONENERGY: 40.0
Comment: registered in MassBank
Num Peaks: 10
801.90002	13
802.5	180
803.40002	374
804.09998	61
964.59998	24
965.59998	28
966.40002	12
1126.09998	344
1126.90002	751
1127.40002	19

NAME: rebaudioside D; LC-ESI-QQ; MS2; CE
PRECURSORMZ: 1127.476336
PRECURSORTYPE: [M-H]-
FORMULA: C50H80O28
Ontology: Steviol glycosides
INCHIKEY: RPYRMTHVSUWHSV-CUZJHZIBSA-N
SMILES: C[C@@]12CCC[C@](C)([C@H]1CC[C@@]13CC(=C)[C@@](C1)(CC[C@@H]23)O[C@@H]1O[C@H](CO)[C@@H](O)[C@H](O[C@@H]2O[C@H](CO)[C@@H](O)[C@H](O)[C@H]2O)[C@H]1O[C@@H]1O[C@H](CO)[C@@H](O)[C@H](O)[C@H]1O)C(=O)O[C@@H]1O[C@H](CO)[C@@H](O)[C@H](O)[C@H]1O[C@@H]1O[C@H](CO)[C@@H](O)[C@H](O)[C@H]1O
RETENTIONTIME: 
CCS: 344.1712908
IONMODE: Negative
INSTRUMENTTYPE: LC-ESI-QQ
INSTRUMENT: 
COLLISIONENERGY: 60.0
Comment: registered in MassBank
Num Peaks: 18
317.20001	46
413.29999	17
478.79999	12
479.5	12
622.40002	14
623.20001	28
623.90002	13
640.59998	150
641.40002	269
642.09998	34
802.09998	55
802.70001	679
803.5	1000
804.09998	55
964.79999	19
966.20001	16
1126.80005	15
1127.80005	17

NAME: rebaudioside D; LC-ESI-QQ; MS2; CE
PRECURSORMZ: 1127.476336
PRECURSORTYPE: [M-H]-
FORMULA: C50H80O28
Ontology: Steviol glycosides
INCHIKEY: RPYRMTHVSUWHSV-CUZJHZIBSA-N
SMILES: C[C@@]12CCC[C@](C)([C@H]1CC[C@@]13CC(=C)[C@@](C1)(CC[C@@H]23)O[C@@H]1O[C@H](CO)[C@@H](O)[C@H](O[C@@H]2O[C@H](CO)[C@@H](O)[C@H](O)[C@H]2O)[C@H]1O[C@@H]1O[C@H](CO)[C@@H](O)[C@H](O)[C@H]1O)C(=O)O[C@@H]1O[C@H](CO)[C@@H](O)[C@H](O)[C@H]1O[C@@H]1O[C@H](CO)[C@@H](O)[C@H](O)[C@H]1O
RETENTIONTIME: 
CCS: 344.1712908
IONMODE: Negative
INSTRUMENTTYPE: LC-ESI-QQ
INSTRUMENT: 
COLLISIONENERGY: 80.0
Comment: registered in MassBank
Num Peaks: 28
316.79999	172
317.60001	424
370.70001	20
371.60001	12
373.70001	19
412.70001	114
413.39999	249
414	28
424.79999	18
425.70001	24
442.60001	22
443.60001	32
460.39999	39
461.20001	134
461.79999	28
478.70001	431
479.5	715
622.09998	13
622.79999	51
623.70001	73
640	49
640.70001	635
641.5	1000
642.20001	292
802	28
802.59998	169
803.40002	225
804.09998	109

NAME: rebaudioside M; LC-ESI-QQ; MS2; CE
PRECURSORMZ: 1289.529159
PRECURSORTYPE: [M-H]-
FORMULA: C56H90O33
Ontology: Steviol glycosides
INCHIKEY: GSGVXNMGMKBGQU-PHESRWQRSA-N
SMILES: C[C@@]12CCC[C@](C)([C@H]1CC[C@@]13CC(=C)[C@@](C1)(CC[C@@H]23)O[C@@H]1O[C@H](CO)[C@@H](O)[C@H](O[C@@H]2O[C@H](CO)[C@@H](O)[C@H](O)[C@H]2O)[C@H]1O[C@@H]1O[C@H](CO)[C@@H](O)[C@H](O)[C@H]1O)C(=O)O[C@@H]1O[C@H](CO)[C@@H](O)[C@H](O[C@@H]2O[C@H](CO)[C@@H](O)[C@H](O)[C@H]2O)[C@H]1O[C@@H]1O[C@H](CO)[C@@H](O)[C@H](O)[C@H]1O
RETENTIONTIME: 
CCS: -1
IONMODE: Negative
INSTRUMENTTYPE: LC-ESI-QQ
INSTRUMENT: 
COLLISIONENERGY: 60.0
Comment: registered in MassBank
Num Peaks: 14
317.29999	13
623.29999	13
640.59998	46
641.40002	137
802.40002	420
803.29999	1000
803.90002	172
845.40002	19
1126.5	18
1127.40002	23
1128.30005	20
1287.59998	23
1288.30005	92
1289.30005	75

NAME: rebaudioside M; LC-ESI-QQ; MS2; CE
PRECURSORMZ: 1289.529159
PRECURSORTYPE: [M-H]-
FORMULA: C56H90O33
Ontology: Steviol glycosides
INCHIKEY: GSGVXNMGMKBGQU-PHESRWQRSA-N
SMILES: C[C@@]12CCC[C@](C)([C@H]1CC[C@@]13CC(=C)[C@@](C1)(CC[C@@H]23)O[C@@H]1O[C@H](CO)[C@@H](O)[C@H](O[C@@H]2O[C@H](CO)[C@@H](O)[C@H](O)[C@H]2O)[C@H]1O[C@@H]1O[C@H](CO)[C@@H](O)[C@H](O)[C@H]1O)C(=O)O[C@@H]1O[C@H](CO)[C@@H](O)[C@H](O[C@@H]2O[C@H](CO)[C@@H](O)[C@H](O)[C@H]2O)[C@H]1O[C@@H]1O[C@H](CO)[C@@H](O)[C@H](O)[C@H]1O
RETENTIONTIME: 
CCS: -1
IONMODE: Negative
INSTRUMENTTYPE: LC-ESI-QQ
INSTRUMENT: 
COLLISIONENERGY: 80.0
Comment: registered in MassBank
Num Peaks: 24
316.79999	45
317.5	179
412.60001	64
413.60001	108
442.5	13
443.5	20
461.29999	38
462	23
478.70001	77
479.60001	158
480.20001	10
622.29999	14
623.09998	58
623.90002	36
639.79999	18
640.29999	329
641.29999	1000
641.90002	303
682.5	21
683.79999	22
802	110
802.70001	840
803.70001	923
804.29999	78

NAME: rebaudioside M; LC-ESI-QQ; MS2; CE
PRECURSORMZ: 1289.529159
PRECURSORTYPE: [M-H]-
FORMULA: C56H90O33
Ontology: Steviol glycosides
INCHIKEY: GSGVXNMGMKBGQU-PHESRWQRSA-N
SMILES: C[C@@]12CCC[C@](C)([C@H]1CC[C@@]13CC(=C)[C@@](C1)(CC[C@@H]23)O[C@@H]1O[C@H](CO)[C@@H](O)[C@H](O[C@@H]2O[C@H](CO)[C@@H](O)[C@H](O)[C@H]2O)[C@H]1O[C@@H]1O[C@H](CO)[C@@H](O)[C@H](O)[C@H]1O)C(=O)O[C@@H]1O[C@H](CO)[C@@H](O)[C@H](O[C@@H]2O[C@H](CO)[C@@H](O)[C@H](O)[C@H]2O)[C@H]1O[C@@H]1O[C@H](CO)[C@@H](O)[C@H](O)[C@H]1O
RETENTIONTIME: 
CCS: -1
IONMODE: Negative
INSTRUMENTTYPE: LC-ESI-QQ
INSTRUMENT: 
COLLISIONENERGY: 100.0
Comment: registered in MassBank
Num Peaks: 24
315.29999	34
318	65
461.29999	69
477.5	64
478.5	134
479.70001	142
480.89999	129
580.40002	38
626.29999	26
638.20001	32
638.90002	402
640	61
640.70001	709
641.5	1000
642.5	735
724.59998	26
798.70001	28
802.40002	135
803.09998	425
803.90002	91
804.5	31
1128.90002	122
1158.5	32
1206.90002	28

NAME: rebaudioside N; LC-ESI-QQ; MS2; CE
PRECURSORMZ: 1273.534245
PRECURSORTYPE: [M-H]-
FORMULA: C56H90O32
Ontology: Steviol glycosides
INCHIKEY: AKEKAGBWNXIWSS-ZFXKUSSPSA-N
SMILES: C[C@@H]1O[C@@H](O[C@H]2[C@H](OC(=O)[C@]3(C)CCC[C@@]4(C)[C@@H]5CC[C@@]6(C[C@]5(CC6=C)CC[C@H]34)O[C@@H]3O[C@H](CO)[C@@H](O)[C@H](O[C@@H]4O[C@H](CO)[C@@H](O)[C@H](O)[C@H]4O)[C@H]3O[C@@H]3O[C@H](CO)[C@@H](O)[C@H](O)[C@H]3O)O[C@H](CO)[C@@H](O)[C@@H]2O[C@@H]2O[C@H](CO)[C@@H](O)[C@H](O)[C@H]2O)[C@H](O)[C@H](O)[C@H]1O
RETENTIONTIME: 
CCS: -1
IONMODE: Negative
INSTRUMENTTYPE: LC-ESI-QQ
INSTRUMENT: 
COLLISIONENERGY: 60.0
Comment: registered in MassBank
Num Peaks: 15
317.29999	15
622.79999	13
623.70001	18
640.59998	88
641.5	126
802.40002	432
803.29999	1000
803.90002	229
844.79999	11
1110.30005	31
1111.30005	41
1112.09998	39
1271.90002	41
1272.69995	111
1273.80005	134

NAME: rebaudioside N; LC-ESI-QQ; MS2; CE
PRECURSORMZ: 1273.534245
PRECURSORTYPE: [M-H]-
FORMULA: C56H90O32
Ontology: Steviol glycosides
INCHIKEY: AKEKAGBWNXIWSS-ZFXKUSSPSA-N
SMILES: C[C@@H]1O[C@@H](O[C@H]2[C@H](OC(=O)[C@]3(C)CCC[C@@]4(C)[C@@H]5CC[C@@]6(C[C@]5(CC6=C)CC[C@H]34)O[C@@H]3O[C@H](CO)[C@@H](O)[C@H](O[C@@H]4O[C@H](CO)[C@@H](O)[C@H](O)[C@H]4O)[C@H]3O[C@@H]3O[C@H](CO)[C@@H](O)[C@H](O)[C@H]3O)O[C@H](CO)[C@@H](O)[C@@H]2O[C@@H]2O[C@H](CO)[C@@H](O)[C@H](O)[C@H]2O)[C@H](O)[C@H](O)[C@H]1O
RETENTIONTIME: 
CCS: -1
IONMODE: Negative
INSTRUMENTTYPE: LC-ESI-QQ
INSTRUMENT: 
COLLISIONENERGY: 80.0
Comment: registered in MassBank
Num Peaks: 22
316.89999	65
317.70001	138
412.70001	55
413.60001	90
425.60001	11
443.5	21
460.79999	24
461.60001	36
478.60001	91
479.39999	207
480	15
622.29999	16
623.09998	84
623.79999	45
639.90002	31
640.59998	481
641.5	1000
642.09998	114
802	100
802.70001	629
803.59998	770
804.29999	166

NAME: rebaudioside N; LC-ESI-QQ; MS2; CE
PRECURSORMZ: 1273.534245
PRECURSORTYPE: [M-H]-
FORMULA: C56H90O32
Ontology: Steviol glycosides
INCHIKEY: AKEKAGBWNXIWSS-ZFXKUSSPSA-N
SMILES: C[C@@H]1O[C@@H](O[C@H]2[C@H](OC(=O)[C@]3(C)CCC[C@@]4(C)[C@@H]5CC[C@@]6(C[C@]5(CC6=C)CC[C@H]34)O[C@@H]3O[C@H](CO)[C@@H](O)[C@H](O[C@@H]4O[C@H](CO)[C@@H](O)[C@H](O)[C@H]4O)[C@H]3O[C@@H]3O[C@H](CO)[C@@H](O)[C@H](O)[C@H]3O)O[C@H](CO)[C@@H](O)[C@@H]2O[C@@H]2O[C@H](CO)[C@@H](O)[C@H](O)[C@H]2O)[C@H](O)[C@H](O)[C@H]1O
RETENTIONTIME: 
CCS: -1
IONMODE: Negative
INSTRUMENTTYPE: LC-ESI-QQ
INSTRUMENT: 
COLLISIONENERGY: 100.0
Comment: registered in MassBank
Num Peaks: 15
413	28
413.79999	164
462.20001	50
478.5	226
479.39999	353
480	33
640.29999	352
641.20001	1000
641.90002	632
642.5	62
801.79999	90
802.79999	253
804	86
947.90002	74
1006.5	25

NAME: rebaudioside O; LC-ESI-QQ; MS2; CE
PRECURSORMZ: 1435.587068
PRECURSORTYPE: [M-H]-
FORMULA: C62H100O37
Ontology: Steviol glycosides
INCHIKEY: KTOQMKFUTRIEQB-GXSUQLSCSA-N
SMILES: C[C@@H]1O[C@@H](O[C@H]2[C@H](OC(=O)[C@]3(C)CCC[C@@]4(C)[C@@H]5CC[C@@]6(C[C@]5(CC6=C)CC[C@H]34)O[C@@H]3O[C@H](CO)[C@@H](O)[C@H](O[C@@H]4O[C@H](CO)[C@@H](O)[C@H](O)[C@H]4O)[C@H]3O[C@@H]3O[C@H](CO)[C@@H](O)[C@H](O)[C@H]3O)O[C@H](CO)[C@@H](O)[C@@H]2O[C@@H]2O[C@H](CO)[C@@H](O)[C@H](O)[C@H]2O)[C@H](O)[C@H](O[C@@H]2O[C@H](CO)[C@@H](O)[C@H](O)[C@H]2O)[C@H]1O
RETENTIONTIME: 
CCS: -1
IONMODE: Negative
INSTRUMENTTYPE: LC-ESI-QQ
INSTRUMENT: 
COLLISIONENERGY: 60.0
Comment: registered in MassBank
Num Peaks: 20
623.59998	11
640.40002	29
641.29999	89
641.90002	32
802	19
802.59998	517
803.5	1000
804.20001	114
805	10
1111.30005	13
1112.30005	12
1272.19995	72
1273.19995	137
1274.09998	95
1274.80005	18
1433.09998	20
1433.69995	237
1434.59998	627
1435.09998	29
1435.59998	713

NAME: rebaudioside O; LC-ESI-QQ; MS2; CE
PRECURSORMZ: 1435.587068
PRECURSORTYPE: [M-H]-
FORMULA: C62H100O37
Ontology: Steviol glycosides
INCHIKEY: KTOQMKFUTRIEQB-GXSUQLSCSA-N
SMILES: C[C@@H]1O[C@@H](O[C@H]2[C@H](OC(=O)[C@]3(C)CCC[C@@]4(C)[C@@H]5CC[C@@]6(C[C@]5(CC6=C)CC[C@H]34)O[C@@H]3O[C@H](CO)[C@@H](O)[C@H](O[C@@H]4O[C@H](CO)[C@@H](O)[C@H](O)[C@H]4O)[C@H]3O[C@@H]3O[C@H](CO)[C@@H](O)[C@H](O)[C@H]3O)O[C@H](CO)[C@@H](O)[C@@H]2O[C@@H]2O[C@H](CO)[C@@H](O)[C@H](O)[C@H]2O)[C@H](O)[C@H](O[C@@H]2O[C@H](CO)[C@@H](O)[C@H](O)[C@H]2O)[C@H]1O
RETENTIONTIME: 
CCS: -1
IONMODE: Negative
INSTRUMENTTYPE: LC-ESI-QQ
INSTRUMENT: 
COLLISIONENERGY: 80.0
Comment: registered in MassBank
Num Peaks: 19
316.79999	10
317.60001	36
412.79999	14
413.70001	22
461.5	14
478.70001	22
479.60001	31
622.79999	27
623.70001	41
640	11
640.70001	246
641.59998	400
642.20001	30
802	47
802.59998	827
803.09998	34
803.70001	1000
804.40002	47
1272.59998	16

NAME: rebaudioside O; LC-ESI-QQ; MS2; CE
PRECURSORMZ: 1435.587068
PRECURSORTYPE: [M-H]-
FORMULA: C62H100O37
Ontology: Steviol glycosides
INCHIKEY: KTOQMKFUTRIEQB-GXSUQLSCSA-N
SMILES: C[C@@H]1O[C@@H](O[C@H]2[C@H](OC(=O)[C@]3(C)CCC[C@@]4(C)[C@@H]5CC[C@@]6(C[C@]5(CC6=C)CC[C@H]34)O[C@@H]3O[C@H](CO)[C@@H](O)[C@H](O[C@@H]4O[C@H](CO)[C@@H](O)[C@H](O)[C@H]4O)[C@H]3O[C@@H]3O[C@H](CO)[C@@H](O)[C@H](O)[C@H]3O)O[C@H](CO)[C@@H](O)[C@@H]2O[C@@H]2O[C@H](CO)[C@@H](O)[C@H](O)[C@H]2O)[C@H](O)[C@H](O[C@@H]2O[C@H](CO)[C@@H](O)[C@H](O)[C@H]2O)[C@H]1O
RETENTIONTIME: 
CCS: -1
IONMODE: Negative
INSTRUMENTTYPE: LC-ESI-QQ
INSTRUMENT: 
COLLISIONENERGY: 100.0
Comment: registered in MassBank
Num Peaks: 16
317.60001	74
413.10001	61
479	44
479.70001	98
623.90002	49
635.59998	63
640.40002	419
641	172
641.90002	1000
802	298
802.90002	221
803.79999	503
804.5	118
964.79999	38
1332.5	65
1435.19995	36

NAME: Naringenin; LC-ESI-QTOF; MS2; CE
PRECURSORMZ: 271.061197
PRECURSORTYPE: [M-H]-
FORMULA: C15H12O5
Ontology: Flavanones
INCHIKEY: FTVWIRXFELQLPI-UHFFFAOYNA-N
SMILES: OC1=CC=C(C=C1)C1CC(=O)C2=C(O)C=C(O)C=C2O1
RETENTIONTIME: 
CCS: 163.1992494
IONMODE: Negative
INSTRUMENTTYPE: LC-ESI-QTOF
INSTRUMENT: 
COLLISIONENERGY: 15
Comment: registered in MassBank
Num Peaks: 4
119.052	12
151.004	106
177.01801	27
271.05499	1000

NAME: Naringenin; LC-ESI-QTOF; MS2; CE
PRECURSORMZ: 271.061197
PRECURSORTYPE: [M-H]-
FORMULA: C15H12O5
Ontology: Flavanones
INCHIKEY: FTVWIRXFELQLPI-UHFFFAOYNA-N
SMILES: OC1=CC=C(C=C1)C1CC(=O)C2=C(O)C=C(O)C=C2O1
RETENTIONTIME: 
CCS: 163.1992494
IONMODE: Negative
INSTRUMENTTYPE: LC-ESI-QTOF
INSTRUMENT: 
COLLISIONENERGY: 25
Comment: registered in MassBank
Num Peaks: 13
83.014	15
93.035	87
107.017	171
119.05	494
125.024	17
145.03101	15
151.00301	1000
165.021	53
169.01199	24
177.017	152
185.058	10
227.071	33
271.061	426

NAME: Naringenin; LC-ESI-QTOF; MS2; CE
PRECURSORMZ: 271.061197
PRECURSORTYPE: [M-H]-
FORMULA: C15H12O5
Ontology: Flavanones
INCHIKEY: FTVWIRXFELQLPI-UHFFFAOYNA-N
SMILES: OC1=CC=C(C=C1)C1CC(=O)C2=C(O)C=C(O)C=C2O1
RETENTIONTIME: 
CCS: 163.1992494
IONMODE: Negative
INSTRUMENTTYPE: LC-ESI-QTOF
INSTRUMENT: 
COLLISIONENERGY: 40
Comment: registered in MassBank
Num Peaks: 17
63.025	152
65.004	187
83.013	100
93.034	74
107.016	316
108.024	13
117.036	23
119.05	1000
121.029	14
143.052	28
145.03101	28
151.004	211
161.062	32
165.02	20
177.017	31
185.058	18
187.037	61

NAME: Naringenin; LC-ESI-QTOF; MS2; CE
PRECURSORMZ: 271.061197
PRECURSORTYPE: [M-H]-
FORMULA: C15H12O5
Ontology: Flavanones
INCHIKEY: FTVWIRXFELQLPI-UHFFFAOYNA-N
SMILES: OC1=CC=C(C=C1)C1CC(=O)C2=C(O)C=C(O)C=C2O1
RETENTIONTIME: 
CCS: 163.1992494
IONMODE: Negative
INSTRUMENTTYPE: LC-ESI-QTOF
INSTRUMENT: 
COLLISIONENERGY: 55
Comment: registered in MassBank
Num Peaks: 13
63.025	298
65.004	459
68.999	19
83.012	93
93.035	100
107.016	75
108.024	13
115.057	11
117.035	97
119.05	1000
143.05299	25
145.03101	25
187.037	12

NAME: Naringenin chalcone; LC-ESI-QTOF; MS2; CE
PRECURSORMZ: 271.061197
PRECURSORTYPE: [M-H]-
FORMULA: C15H12O5
Ontology: 2'-Hydroxychalcones
INCHIKEY: YQHMWTPYORBCMF-ZZXKWVIFSA-N
SMILES: OC1=CC=C(\C=C\C(=O)C2=C(O)C=C(O)C=C2O)C=C1
RETENTIONTIME: 
CCS: 161.6604035
IONMODE: Negative
INSTRUMENTTYPE: LC-ESI-QTOF
INSTRUMENT: 
COLLISIONENERGY: 15
Comment: registered in MassBank
Num Peaks: 4
119.051	21
151.005	167
177.01601	28
271.05499	1000

NAME: Naringenin chalcone; LC-ESI-QTOF; MS2; CE
PRECURSORMZ: 271.061197
PRECURSORTYPE: [M-H]-
FORMULA: C15H12O5
Ontology: 2'-Hydroxychalcones
INCHIKEY: YQHMWTPYORBCMF-ZZXKWVIFSA-N
SMILES: OC1=CC=C(\C=C\C(=O)C2=C(O)C=C(O)C=C2O)C=C1
RETENTIONTIME: 
CCS: 161.6604035
IONMODE: Negative
INSTRUMENTTYPE: LC-ESI-QTOF
INSTRUMENT: 
COLLISIONENERGY: 25
Comment: registered in MassBank
Num Peaks: 15
65.004	9
83.013	18
93.035	81
107.016	180
119.05	476
125.024	19
145.03101	17
151.002	1000
165.02	68
169.01199	23
177.017	138
185.058	20
187.03799	20
227.071	52
271.061	382

NAME: Naringenin chalcone; LC-ESI-QTOF; MS2; CE
PRECURSORMZ: 271.061197
PRECURSORTYPE: [M-H]-
FORMULA: C15H12O5
Ontology: 2'-Hydroxychalcones
INCHIKEY: YQHMWTPYORBCMF-ZZXKWVIFSA-N
SMILES: OC1=CC=C(\C=C\C(=O)C2=C(O)C=C(O)C=C2O)C=C1
RETENTIONTIME: 
CCS: 161.6604035
IONMODE: Negative
INSTRUMENTTYPE: LC-ESI-QTOF
INSTRUMENT: 
COLLISIONENERGY: 40
Comment: registered in MassBank
Num Peaks: 20
63.025	157
65.004	225
83.013	117
93.034	76
107.016	356
108.024	13
109.031	14
117.035	37
119.05	1000
121.029	16
133.03	11
137.02499	14
143.052	44
145.03101	42
151.004	234
161.061	39
165.019	25
177.017	32
185.05701	29
187.036	89

NAME: Naringenin chalcone; LC-ESI-QTOF; MS2; CE
PRECURSORMZ: 271.061197
PRECURSORTYPE: [M-H]-
FORMULA: C15H12O5
Ontology: 2'-Hydroxychalcones
INCHIKEY: YQHMWTPYORBCMF-ZZXKWVIFSA-N
SMILES: OC1=CC=C(\C=C\C(=O)C2=C(O)C=C(O)C=C2O)C=C1
RETENTIONTIME: 
CCS: 161.6604035
IONMODE: Negative
INSTRUMENTTYPE: LC-ESI-QTOF
INSTRUMENT: 
COLLISIONENERGY: 55
Comment: registered in MassBank
Num Peaks: 14
63.025	307
65.004	548
68.999	26
83.012	106
93.035	107
107.016	88
108.024	14
115.057	16
117.035	137
119.05	1000
143.05099	32
145.03101	33
151.00301	14
187.035	14

NAME: Quercetin; LC-ESI-QTOF; MS2; CE
PRECURSORMZ: 301.035376
PRECURSORTYPE: [M-H]-
FORMULA: C15H10O7
Ontology: Flavonols
INCHIKEY: REFJWTPEDVJJIY-UHFFFAOYSA-N
SMILES: OC1=CC(O)=C2C(OC(=C(O)C2=O)C2=CC(O)=C(O)C=C2)=C1
RETENTIONTIME: 
CCS: 166.0397546
IONMODE: Negative
INSTRUMENTTYPE: LC-ESI-QTOF
INSTRUMENT: 
COLLISIONENERGY: 15
Comment: registered in MassBank
Num Peaks: 3
151.006	32
178.998	40
301.02899	1000

NAME: Quercetin; LC-ESI-QTOF; MS2; CE
PRECURSORMZ: 301.035376
PRECURSORTYPE: [M-H]-
FORMULA: C15H10O7
Ontology: Flavonols
INCHIKEY: REFJWTPEDVJJIY-UHFFFAOYSA-N
SMILES: OC1=CC(O)=C2C(OC(=C(O)C2=O)C2=CC(O)=C(O)C=C2)=C1
RETENTIONTIME: 
CCS: 166.0397546
IONMODE: Negative
INSTRUMENTTYPE: LC-ESI-QTOF
INSTRUMENT: 
COLLISIONENERGY: 25
Comment: registered in MassBank
Num Peaks: 14
107.016	76
121.029	176
125.023	10
149.026	20
151.004	1000
163.019	20
169.013	16
178.996	648
193.00999	29
229.052	41
245.049	20
257.048	24
273.04401	90
301.035	766

NAME: Quercetin; LC-ESI-QTOF; MS2; CE
PRECURSORMZ: 301.035376
PRECURSORTYPE: [M-H]-
FORMULA: C15H10O7
Ontology: Flavonols
INCHIKEY: REFJWTPEDVJJIY-UHFFFAOYSA-N
SMILES: OC1=CC(O)=C2C(OC(=C(O)C2=O)C2=CC(O)=C(O)C=C2)=C1
RETENTIONTIME: 
CCS: 166.0397546
IONMODE: Negative
INSTRUMENTTYPE: LC-ESI-QTOF
INSTRUMENT: 
COLLISIONENERGY: 40
Comment: registered in MassBank
Num Peaks: 48
63.024	123
65.003	164
83.012	119
93.034	93
95.014	12
96.022	11
107.016	655
108.024	38
109.031	82
120.022	11
121.029	520
124.016	24
125.024	18
133.03	10
135.04201	16
136.017	14
139.04201	72
145.032	14
147.04201	16
148.019	14
149.02499	96
151.004	1000
152.01199	18
159.047	33
161.02699	46
163.02299	82
164.01401	64
169.013	44
173.058	12
175.03799	21
177.05499	13
178.99699	103
183.045	21
185.05701	13
187.03799	33
193.00999	22
199.035	15
201.05099	36
203.03101	17
205.04601	14
211.03799	31
227.037	44
229.05099	27
243.035	32
245.05	45
255.032	19
273.043	13
301.04001	21

NAME: Quercetin; LC-ESI-QTOF; MS2; CE
PRECURSORMZ: 301.035376
PRECURSORTYPE: [M-H]-
FORMULA: C15H10O7
Ontology: Flavonols
INCHIKEY: REFJWTPEDVJJIY-UHFFFAOYSA-N
SMILES: OC1=CC(O)=C2C(OC(=C(O)C2=O)C2=CC(O)=C(O)C=C2)=C1
RETENTIONTIME: 
CCS: 166.0397546
IONMODE: Negative
INSTRUMENTTYPE: LC-ESI-QTOF
INSTRUMENT: 
COLLISIONENERGY: 55
Comment: registered in MassBank
Num Peaks: 50
63.024	714
65.003	1000
67.019	17
83.012	314
93.033	452
95.014	36
96.021	42
107.016	530
108.024	145
109.031	154
115.057	16
117.034	39
119.015	25
120.023	26
121.03	533
124.016	25
130.04201	17
131.05	22
132.022	25
133.02901	110
134.037	15
135.045	52
137.02499	19
139.041	132
143.052	20
145.032	36
146.03799	15
147.04401	26
148.019	32
149.026	54
151.005	241
155.05299	18
157.034	16
158.03999	37
159.048	57
161.02699	91
162.035	15
163.009	46
164.01401	23
169.019	21
171.04601	18
175.03799	20
177.056	18
182.036	17
183.043	36
187.03799	19
199.036	29
211.039	24
227.035	44
243.034	17

NAME: Resveratrol; LC-ESI-QTOF; MS2; CE
PRECURSORMZ: 227.071368
PRECURSORTYPE: [M-H]-
FORMULA: C14H12O3
Ontology: Stilbenes
INCHIKEY: LUKBXSAWLPMMSZ-OWOJBTEDSA-N
SMILES: OC1=CC=C(\C=C\C2=CC(O)=CC(O)=C2)C=C1
RETENTIONTIME: 
CCS: 151.7606782
IONMODE: Negative
INSTRUMENTTYPE: LC-ESI-QTOF
INSTRUMENT: 
COLLISIONENERGY: 15
Comment: registered in MassBank
Num Peaks: 3
158.979	15
185.061	16
227.06799	1000

NAME: Resveratrol; LC-ESI-QTOF; MS2; CE
PRECURSORMZ: 227.071368
PRECURSORTYPE: [M-H]-
FORMULA: C14H12O3
Ontology: Stilbenes
INCHIKEY: LUKBXSAWLPMMSZ-OWOJBTEDSA-N
SMILES: OC1=CC=C(\C=C\C2=CC(O)=CC(O)=C2)C=C1
RETENTIONTIME: 
CCS: 151.7606782
IONMODE: Negative
INSTRUMENTTYPE: LC-ESI-QTOF
INSTRUMENT: 
COLLISIONENERGY: 25
Comment: registered in MassBank
Num Peaks: 17
107.048	8
114.986	13
117.032	12
119.048	20
130.981	10
141.071	37
143.05	261
145.02901	18
157.06599	54
159.082	97
181.064	30
182.071	45
183.078	125
184.05299	10
185.05701	518
225.05701	19
227.071	1000

NAME: Resveratrol; LC-ESI-QTOF; MS2; CE
PRECURSORMZ: 227.071368
PRECURSORTYPE: [M-H]-
FORMULA: C14H12O3
Ontology: Stilbenes
INCHIKEY: LUKBXSAWLPMMSZ-OWOJBTEDSA-N
SMILES: OC1=CC=C(\C=C\C2=CC(O)=CC(O)=C2)C=C1
RETENTIONTIME: 
CCS: 151.7606782
IONMODE: Negative
INSTRUMENTTYPE: LC-ESI-QTOF
INSTRUMENT: 
COLLISIONENERGY: 40
Comment: registered in MassBank
Num Peaks: 17
93.031	18
115.053	143
117.032	134
119.048	81
141.07001	30
143.049	1000
145.02901	15
156.058	29
157.06599	43
159.08099	42
167.05	18
180.056	28
181.064	63
182.071	59
183.075	36
184.05099	16
185.05701	80

NAME: Resveratrol; LC-ESI-QTOF; MS2; CE
PRECURSORMZ: 227.071368
PRECURSORTYPE: [M-H]-
FORMULA: C14H12O3
Ontology: Stilbenes
INCHIKEY: LUKBXSAWLPMMSZ-OWOJBTEDSA-N
SMILES: OC1=CC=C(\C=C\C2=CC(O)=CC(O)=C2)C=C1
RETENTIONTIME: 
CCS: 151.7606782
IONMODE: Negative
INSTRUMENTTYPE: LC-ESI-QTOF
INSTRUMENT: 
COLLISIONENERGY: 55
Comment: registered in MassBank
Num Peaks: 24
64.999	11
65.035	25
89.035	10
93.031	135
114.045	13
115.053	822
116.024	28
117.032	462
119.048	196
129.069	8
130.039	8
139.054	21
141.034	45
142.041	20
143.05	1000
152.065	9
156.05901	31
157.06599	28
167.05	41
169.065	20
180.056	72
181.063	32
182.069	11
183.04201	25

NAME: Daidzein; LC-ESI-QTOF; MS2; CE
PRECURSORMZ: 253.050632
PRECURSORTYPE: [M-H]-
FORMULA: C15H10O4
Ontology: Isoflavones
INCHIKEY: ZQSIJRDFPHDXIC-UHFFFAOYSA-N
SMILES: OC1=CC=C(C=C1)C1=COC2=C(C=CC(O)=C2)C1=O
RETENTIONTIME: 
CCS: 158.7776973
IONMODE: Negative
INSTRUMENTTYPE: LC-ESI-QTOF
INSTRUMENT: 
COLLISIONENERGY: 25
Comment: registered in MassBank
Num Peaks: 8
135.03101	10
197.06799	12
208.062	19
209.06799	28
223.048	16
224.054	42
225.062	24
253.04601	1000

NAME: Daidzein; LC-ESI-QTOF; MS2; CE
PRECURSORMZ: 253.050632
PRECURSORTYPE: [M-H]-
FORMULA: C15H10O4
Ontology: Isoflavones
INCHIKEY: ZQSIJRDFPHDXIC-UHFFFAOYSA-N
SMILES: OC1=CC=C(C=C1)C1=COC2=C(C=CC(O)=C2)C1=O
RETENTIONTIME: 
CCS: 158.7776973
IONMODE: Negative
INSTRUMENTTYPE: LC-ESI-QTOF
INSTRUMENT: 
COLLISIONENERGY: 40
Comment: registered in MassBank
Num Peaks: 45
65.032	9
89.066	25
91.045	347
104.055	26
105.064	10
116.052	21
117.06	105
123.068	9
127.078	13
132.043	462
133.05099	660
135.03	410
141.09	16
143.073	26
152.084	20
153.03999	41
154.063	14
155.071	36
159.06599	22
160.037	37
167.069	66
168.075	45
169.082	170
179.065	29
180.07001	269
181.077	66
182.049	65
183.056	66
185.07001	12
195.054	311
196.05901	311
197.06599	211
207.052	38
208.058	854
209.06599	363
210.03799	46
211.04601	47
213.06	11
223.045	855
224.052	771
225.061	244
226.032	21
251.037	53
252.045	114
253.05099	1000

NAME: Daidzein; LC-ESI-QTOF; MS2; CE
PRECURSORMZ: 253.050632
PRECURSORTYPE: [M-H]-
FORMULA: C15H10O4
Ontology: Isoflavones
INCHIKEY: ZQSIJRDFPHDXIC-UHFFFAOYSA-N
SMILES: OC1=CC=C(C=C1)C1=COC2=C(C=CC(O)=C2)C1=O
RETENTIONTIME: 
CCS: 158.7776973
IONMODE: Negative
INSTRUMENTTYPE: LC-ESI-QTOF
INSTRUMENT: 
COLLISIONENERGY: 55
Comment: registered in MassBank
Num Peaks: 39
63.052	20
65.032	77
67.047	12
77.066	16
89.064	49
91.043	534
92.051	14
93.059	12
95.072	12
104.055	157
105.063	10
107.042	15
116.052	29
117.06	89
127.077	9
129.058	15
130.064	14
132.043	1000
133.05099	298
135.03	83
141.06	32
143.073	18
152.08501	16
153.04401	15
154.063	41
155.071	23
167.06799	162
168.073	18
169.08099	47
180.069	215
182.049	39
183.05499	14
195.052	669
196.05701	53
197.064	16
208.058	270
223.045	568
224.05299	50
251.037	25

NAME: Catechin; LC-ESI-QTOF; MS2; CE
PRECURSORMZ: 289.071762
PRECURSORTYPE: [M-H]-
FORMULA: C15H14O6
Ontology: Catechins
INCHIKEY: PFTAWBLQPZVEMU-DZGCQCFKSA-N
SMILES: O[C@H]1CC2=C(O)C=C(O)C=C2O[C@@H]1C1=CC(O)=C(O)C=C1
RETENTIONTIME: 
CCS: 167.2576758
IONMODE: Negative
INSTRUMENTTYPE: LC-ESI-QTOF
INSTRUMENT: 
COLLISIONENERGY: 15
Comment: registered in MassBank
Num Peaks: 8
109.031	10
125.022	20
137.024	14
179.032	27
203.067	20
205.047	32
245.08299	142
289.06601	1000

NAME: Catechin; LC-ESI-QTOF; MS2; CE
PRECURSORMZ: 289.071762
PRECURSORTYPE: [M-H]-
FORMULA: C15H14O6
Ontology: Catechins
INCHIKEY: PFTAWBLQPZVEMU-DZGCQCFKSA-N
SMILES: O[C@H]1CC2=C(O)C=C(O)C=C2O[C@@H]1C1=CC(O)=C(O)C=C1
RETENTIONTIME: 
CCS: 167.2576758
IONMODE: Negative
INSTRUMENTTYPE: LC-ESI-QTOF
INSTRUMENT: 
COLLISIONENERGY: 25
Comment: registered in MassBank
Num Peaks: 55
81.031	16
83.011	16
95.049	42
97.029	105
108.022	12
109.031	728
121.028	78
122.036	17
123.043	308
125.022	660
135.04401	54
137.024	350
138.03101	23
139.03999	111
145.03	21
146.037	21
147.045	13
149.024	169
150.03101	18
151.039	371
159.047	55
160.05299	40
161.061	202
162.033	65
163.041	33
164.01199	104
165.019	212
166.026	35
167.034	112
173.06	20
174.034	22
175.04201	114
177.052	18
179.03101	364
180.03999	17
185.05901	27
186.065	18
187.036	199
188.04401	161
199.07001	29
201.06599	40
202.05701	124
203.065	786
205.04401	664
212.04401	24
217.08	73
221.08099	275
227.071	152
229.05	15
230.058	47
231.03101	47
245.08299	1000
247.062	83
271.06299	48
289.07101	782

NAME: Catechin; LC-ESI-QTOF; MS2; CE
PRECURSORMZ: 289.071762
PRECURSORTYPE: [M-H]-
FORMULA: C15H14O6
Ontology: Catechins
INCHIKEY: PFTAWBLQPZVEMU-DZGCQCFKSA-N
SMILES: O[C@H]1CC2=C(O)C=C(O)C=C2O[C@@H]1C1=CC(O)=C(O)C=C1
RETENTIONTIME: 
CCS: 167.2576758
IONMODE: Negative
INSTRUMENTTYPE: LC-ESI-QTOF
INSTRUMENT: 
COLLISIONENERGY: 40
Comment: registered in MassBank
Num Peaks: 65
55.019	10
57.034	102
69.033	21
80.023	11
81.031	60
83.01	78
93.033	65
95.047	129
97.028	207
99.045	17
105.036	30
107.051	23
108.022	91
109.03	1000
111.045	15
113.061	9
117.034	29
119.049	11
120.02	11
121.028	181
122.036	146
123.043	898
124.014	10
125.022	344
131.048	18
133.028	26
135.04401	96
137.024	266
138.03101	56
139.03999	127
143.049	16
145.02901	87
146.03799	63
147.045	30
149.024	123
150.03101	87
151.039	239
157.06599	28
158.03799	18
159.045	148
160.05299	77
161.06	134
162.032	47
163.03999	52
164.01199	117
165.01801	47
167.035	16
173.058	71
174.032	27
175.07001	97
177.052	28
179.032	16
183.04401	11
184.049	10
185.056	37
187.036	109
188.043	83
199.06799	21
201.05	51
202.05701	42
203.064	140
205.045	46
212.04401	22
221.078	76
227.07001	20

NAME: Catechin; LC-ESI-QTOF; MS2; CE
PRECURSORMZ: 289.071762
PRECURSORTYPE: [M-H]-
FORMULA: C15H14O6
Ontology: Catechins
INCHIKEY: PFTAWBLQPZVEMU-DZGCQCFKSA-N
SMILES: O[C@H]1CC2=C(O)C=C(O)C=C2O[C@@H]1C1=CC(O)=C(O)C=C1
RETENTIONTIME: 
CCS: 167.2576758
IONMODE: Negative
INSTRUMENTTYPE: LC-ESI-QTOF
INSTRUMENT: 
COLLISIONENERGY: 55
Comment: registered in MassBank
Num Peaks: 61
55.019	69
57.033	318
65.039	18
67.018	24
69.033	143
77.037	13
80.023	31
81.031	93
83.01	149
91.018	18
93.031	151
95.047	144
96.019	16
97.027	194
105.036	59
107.051	27
108.023	300
109.03	1000
115.056	12
117.034	90
119.049	16
120.02	20
121.028	152
122.036	290
123.043	662
125.022	79
129.034	8
130.03799	20
131.048	36
132.019	12
133.028	41
134.036	25
135.04401	116
137.024	165
138.032	15
139.03999	58
143.049	15
145.03	98
146.03799	49
147.04401	29
148.017	22
149.026	49
150.03101	68
151.039	40
157.06599	19
158.03799	46
159.045	189
160.05299	30
161.058	34
162.032	24
163.036	19
164.011	36
172.049	14
173.05701	87
174.03101	18
175.05701	46
183.041	15
185.05701	12
187.035	46
188.043	17
201.048	28

NAME: Resveratrol; LC-ESI-QQ; MS2; CE
PRECURSORMZ: 227.071368
PRECURSORTYPE: [M-H]-
FORMULA: C14H12O3
Ontology: Stilbenes
INCHIKEY: LUKBXSAWLPMMSZ-OWOJBTEDSA-N
SMILES: OC1=CC=C(\C=C\C2=CC(O)=CC(O)=C2)C=C1
RETENTIONTIME: 
CCS: 151.7606782
IONMODE: Negative
INSTRUMENTTYPE: LC-ESI-QQ
INSTRUMENT: 
COLLISIONENERGY: 20
Comment: registered in MassBank
Num Peaks: 18
117	9
119	14
141	42
143	377
145	21
157	77
159	119
167	7
168	7
181	37
182	58
183	175
184	9
185	769
209	10
212	20
225	29
227	1000

NAME: Resveratrol; LC-ESI-QQ; MS2; CE
PRECURSORMZ: 227.071368
PRECURSORTYPE: [M-H]-
FORMULA: C14H12O3
Ontology: Stilbenes
INCHIKEY: LUKBXSAWLPMMSZ-OWOJBTEDSA-N
SMILES: OC1=CC=C(\C=C\C2=CC(O)=CC(O)=C2)C=C1
RETENTIONTIME: 
CCS: 151.7606782
IONMODE: Negative
INSTRUMENTTYPE: LC-ESI-QQ
INSTRUMENT: 
COLLISIONENERGY: 25
Comment: registered in MassBank
Num Peaks: 23
115	20
117	52
119	22
141	36
143	1000
145	25
155	11
156	12
157	106
159	133
161	7
167	14
168	8
170	11
180	22
181	125
182	161
183	124
184	25
185	632
212	6
225	25
227	197

NAME: Nicotianamine; LC-ESI-QQ; MS2; CE
PRECURSORMZ: 302.135759
PRECURSORTYPE: [M-H]-
FORMULA: C12H21N3O6
Ontology: L-alpha-amino acids
INCHIKEY: KRGPXXHMOXVMMM-CIUDSAMLSA-N
SMILES: N[C@@H](CCN[C@@H](CCN1CC[C@H]1C(O)=O)C(O)=O)C(O)=O
RETENTIONTIME: 
CCS: 169.5380074
IONMODE: Negative
INSTRUMENTTYPE: LC-ESI-QQ
INSTRUMENT: 
COLLISIONENERGY: 20
Comment: registered in MassBank
Num Peaks: 28
57	9
70	8
71	13
99	9
100	8
101	5
117	25
128	8
129	7
140	26
157	5
182	105
183	10
184	12
186	43
200	44
201	33
212	105
213	11
240	88
241	11
256	8
258	30
274	9
283	6
284	1000
285	24
302	133

NAME: Nicotianamine; LC-ESI-QQ; MS2; CE
PRECURSORMZ: 302.135759
PRECURSORTYPE: [M-H]-
FORMULA: C12H21N3O6
Ontology: L-alpha-amino acids
INCHIKEY: KRGPXXHMOXVMMM-CIUDSAMLSA-N
SMILES: N[C@@H](CCN[C@@H](CCN1CC[C@H]1C(O)=O)C(O)=O)C(O)=O
RETENTIONTIME: 
CCS: 169.5380074
IONMODE: Negative
INSTRUMENTTYPE: LC-ESI-QQ
INSTRUMENT: 
COLLISIONENERGY: 25
Comment: registered in MassBank
Num Peaks: 46
55	6
68	48
71	220
84	5
86	11
96	47
99	165
100	70
111	49
114	8
117	251
118	33
139	21
140	130
156	11
157	87
165	16
167	64
171	15
182	1000
184	104
186	462
187	78
199	58
200	398
201	260
202	76
212	383
213	88
214	24
218	56
224	15
230	20
238	25
239	97
240	121
241	110
251	27
255	45
256	26
258	190
267	28
277	19
284	582
285	29
302	97

NAME: Nicotianamine; LC-ESI-QQ; MS2; CE
PRECURSORMZ: 302.135759
PRECURSORTYPE: [M-H]-
FORMULA: C12H21N3O6
Ontology: L-alpha-amino acids
INCHIKEY: KRGPXXHMOXVMMM-CIUDSAMLSA-N
SMILES: N[C@@H](CCN[C@@H](CCN1CC[C@H]1C(O)=O)C(O)=O)C(O)=O
RETENTIONTIME: 
CCS: 169.5380074
IONMODE: Negative
INSTRUMENTTYPE: LC-ESI-QQ
INSTRUMENT: 
COLLISIONENERGY: 30
Comment: registered in MassBank
Num Peaks: 46
66	9
71	359
72	29
73	57
82	29
83	10
84	108
85	65
94	42
99	772
100	261
101	17
111	230
112	175
113	98
117	275
118	67
123	6
125	20
127	55
128	25
129	61
139	37
140	102
143	15
156	47
157	56
166	24
181	11
182	1000
183	64
185	16
186	887
187	296
194	16
197	32
200	316
201	466
206	63
212	400
213	508
240	152
241	74
264	29
266	11
302	40

NAME: Nicotianamine; LC-ESI-QQ; MS2; CE
PRECURSORMZ: 302.135759
PRECURSORTYPE: [M-H]-
FORMULA: C12H21N3O6
Ontology: L-alpha-amino acids
INCHIKEY: KRGPXXHMOXVMMM-CIUDSAMLSA-N
SMILES: N[C@@H](CCN[C@@H](CCN1CC[C@H]1C(O)=O)C(O)=O)C(O)=O
RETENTIONTIME: 
CCS: 169.5380074
IONMODE: Negative
INSTRUMENTTYPE: LC-ESI-QQ
INSTRUMENT: 
COLLISIONENERGY: 35
Comment: registered in MassBank
Num Peaks: 41
59	222
68	23
69	16
70	107
71	853
72	222
73	107
84	99
85	16
86	10
94	106
95	47
96	12
97	22
98	60
99	491
100	434
112	264
117	47
118	54
125	229
129	233
140	120
143	59
155	302
156	36
157	186
165	35
167	328
181	39
182	1000
183	71
186	892
187	61
195	28
200	402
205	36
212	181
213	108
240	12
304	14

NAME: Quercetin; LC-ESI-QQ; MS2; CE
PRECURSORMZ: 301.035376
PRECURSORTYPE: [M-H]-
FORMULA: C15H10O7
Ontology: Flavonols
INCHIKEY: REFJWTPEDVJJIY-UHFFFAOYSA-N
SMILES: OC1=CC(O)=C2C(OC(=C(O)C2=O)C2=CC(O)=C(O)C=C2)=C1
RETENTIONTIME: 
CCS: 166.0397546
IONMODE: Negative
INSTRUMENTTYPE: LC-ESI-QQ
INSTRUMENT: 
COLLISIONENERGY: 20
Comment: registered in MassBank
Num Peaks: 28
107	50
109	7
121	91
125	8
149	13
151	836
163	14
164	9
175	6
179	618
187	10
189	7
192	8
193	35
201	11
205	7
211	12
225	7
227	7
229	47
231	6
239	11
245	25
255	5
257	31
273	116
299	15
301	1000

NAME: Quercetin; LC-ESI-QQ; MS2; CE
PRECURSORMZ: 301.035376
PRECURSORTYPE: [M-H]-
FORMULA: C15H10O7
Ontology: Flavonols
INCHIKEY: REFJWTPEDVJJIY-UHFFFAOYSA-N
SMILES: OC1=CC(O)=C2C(OC(=C(O)C2=O)C2=CC(O)=C(O)C=C2)=C1
RETENTIONTIME: 
CCS: 166.0397546
IONMODE: Negative
INSTRUMENTTYPE: LC-ESI-QQ
INSTRUMENT: 
COLLISIONENERGY: 25
Comment: registered in MassBank
Num Peaks: 47
65	18
83	22
93	12
107	161
109	14
121	167
125	8
147	7
149	33
151	1000
152	5
159	10
161	7
163	41
164	22
175	16
179	364
183	7
185	9
187	16
189	14
191	7
192	9
193	28
195	6
201	16
203	6
205	13
211	17
213	5
215	6
225	5
227	10
229	43
230	7
231	16
240	6
243	11
245	55
255	21
256	7
257	12
271	5
273	80
284	7
299	27
301	153

NAME: Quercetin; LC-ESI-QQ; MS2; CE
PRECURSORMZ: 301.035376
PRECURSORTYPE: [M-H]-
FORMULA: C15H10O7
Ontology: Flavonols
INCHIKEY: REFJWTPEDVJJIY-UHFFFAOYSA-N
SMILES: OC1=CC(O)=C2C(OC(=C(O)C2=O)C2=CC(O)=C(O)C=C2)=C1
RETENTIONTIME: 
CCS: 166.0397546
IONMODE: Negative
INSTRUMENTTYPE: LC-ESI-QQ
INSTRUMENT: 
COLLISIONENERGY: 30
Comment: registered in MassBank
Num Peaks: 65
63	19
65	65
83	62
93	30
107	274
108	9
109	32
120	5
121	297
123	8
124	12
125	17
133	5
135	9
136	5
143	5
145	8
147	12
148	6
149	51
151	1000
152	7
158	9
159	31
161	36
163	73
164	39
165	9
167	6
171	6
173	11
175	24
177	12
179	142
183	13
185	11
187	36
189	15
192	5
193	25
199	9
201	31
203	14
205	12
211	30
213	11
214	7
215	6
217	11
225	12
227	20
228	6
229	29
230	9
240	7
243	48
244	6
245	65
255	10
256	6
272	6
273	24
284	10
299	8
301	18

NAME: Kaempferol; LC-ESI-QQ; MS2; CE
PRECURSORMZ: 285.040462
PRECURSORTYPE: [M-H]-
FORMULA: C15H10O6
Ontology: Flavonols
INCHIKEY: IYRMWMYZSQPJKC-UHFFFAOYSA-N
SMILES: OC1=CC=C(C=C1)C1=C(O)C(=O)C2=C(O)C=C(O)C=C2O1
RETENTIONTIME: 
CCS: 163.4159869
IONMODE: Negative
INSTRUMENTTYPE: LC-ESI-QQ
INSTRUMENT: 
COLLISIONENERGY: 30
Comment: registered in MassBank
Num Peaks: 85
65	5
83	11
92	6
93	70
95	6
105	10
107	31
108	18
109	37
115	6
117	36
119	18
120	13
121	7
123	11
129	6
130	16
131	26
133	25
135	30
136	14
137	36
141	13
143	69
145	73
146	5
147	10
151	28
153	5
154	73
155	49
156	19
157	79
158	19
159	118
161	63
163	45
164	32
165	10
167	61
168	27
169	74
170	7
171	113
173	62
174	10
175	6
179	5
182	13
183	52
184	36
185	164
186	7
187	139
189	19
191	9
192	7
195	37
196	12
197	10
198	22
199	13
200	6
201	51
210	17
211	125
212	15
213	64
214	85
215	39
219	21
223	5
227	95
229	114
239	188
240	30
241	16
243	56
255	96
256	13
257	23
267	27
268	22
284	15
285	1000

NAME: Kaempferol; LC-ESI-QQ; MS2; CE
PRECURSORMZ: 285.040462
PRECURSORTYPE: [M-H]-
FORMULA: C15H10O6
Ontology: Flavonols
INCHIKEY: IYRMWMYZSQPJKC-UHFFFAOYSA-N
SMILES: OC1=CC=C(C=C1)C1=C(O)C(=O)C2=C(O)C=C(O)C=C2O1
RETENTIONTIME: 
CCS: 163.4159869
IONMODE: Negative
INSTRUMENTTYPE: LC-ESI-QQ
INSTRUMENT: 
COLLISIONENERGY: 35
Comment: registered in MassBank
Num Peaks: 129
59	6
63	24
65	80
67	39
69	12
77	7
78	5
79	23
80	12
83	99
89	7
91	92
92	64
93	699
94	18
95	116
97	18
105	53
107	190
108	304
109	255
110	5
111	10
115	59
117	915
118	9
119	216
120	97
121	141
123	155
124	24
125	26
127	9
128	19
129	136
130	124
131	240
132	57
133	200
135	320
136	138
137	196
139	39
141	148
142	19
143	798
144	9
145	664
146	58
147	36
148	17
149	8
150	10
151	146
153	18
154	379
155	475
156	377
157	645
158	280
159	933
160	6
161	516
162	14
163	177
164	123
165	57
167	387
168	134
169	275
170	66
171	514
172	13
173	332
174	43
175	52
179	12
180	14
182	271
183	680
184	400
185	606
186	31
187	713
188	21
189	31
190	25
191	113
192	24
195	310
196	110
197	65
198	105
199	119
200	74
201	168
202	36
205	7
210	178
211	977
212	69
213	276
214	346
215	78
216	11
217	25
219	42
223	41
224	15
225	15
226	22
227	933
228	35
229	256
238	60
239	823
240	147
241	26
242	9
243	116
255	540
256	48
257	39
267	174
268	81
269	15
283	15
284	20
285	1000

NAME: Kaempferol; LC-ESI-QQ; MS2; CE
PRECURSORMZ: 285.040462
PRECURSORTYPE: [M-H]-
FORMULA: C15H10O6
Ontology: Flavonols
INCHIKEY: IYRMWMYZSQPJKC-UHFFFAOYSA-N
SMILES: OC1=CC=C(C=C1)C1=C(O)C(=O)C2=C(O)C=C(O)C=C2O1
RETENTIONTIME: 
CCS: 163.4159869
IONMODE: Negative
INSTRUMENTTYPE: LC-ESI-QQ
INSTRUMENT: 
COLLISIONENERGY: 40
Comment: registered in MassBank
Num Peaks: 119
63	20
65	118
67	27
69	9
77	8
79	32
80	19
83	27
91	47
92	70
93	607
94	9
95	55
103	6
104	8
105	53
107	96
108	274
109	129
115	53
116	18
117	1000
119	136
120	50
121	78
122	8
123	78
124	10
126	10
127	6
128	12
129	90
130	141
131	194
132	100
133	134
134	6
135	116
136	34
137	78
139	29
141	107
142	26
143	600
144	21
145	547
146	19
147	34
151	33
153	35
154	186
155	250
156	349
157	308
158	326
159	473
160	24
161	324
163	98
164	20
165	16
167	289
168	54
169	91
170	22
171	232
172	44
173	132
174	68
175	14
179	14
182	314
183	488
184	146
185	273
186	44
187	297
189	13
190	15
191	59
195	89
196	33
197	56
198	48
199	38
200	22
201	97
203	7
205	14
210	232
211	473
212	11
213	158
214	67
215	14
216	9
217	5
222	7
223	33
225	8
226	22
227	624
228	7
229	45
238	67
239	327
240	51
241	6
242	9
243	25
255	288
256	17
257	7
266	17
267	145
268	41
269	14
284	9
285	70

NAME: Xanthohumol; LC-ESI-QQ; MS2; CE
PRECURSORMZ: 353.139447
PRECURSORTYPE: [M-H]-
FORMULA: C21H22O5
Ontology: 3-prenylated chalcones
INCHIKEY: ORXQGKIUCDPEAJ-YRNVUSSQSA-N
SMILES: COC1=C(C(=O)\C=C\C2=CC=C(O)C=C2)C(O)=C(CC=C(C)C)C(O)=C1
RETENTIONTIME: 
CCS: 186.297841
IONMODE: Negative
INSTRUMENTTYPE: LC-ESI-QQ
INSTRUMENT: 
COLLISIONENERGY: 15
Comment: registered in MassBank
Num Peaks: 5
119	52
218	7
233	223
295	6
353	1000

NAME: Xanthohumol; LC-ESI-QQ; MS2; CE
PRECURSORMZ: 353.139447
PRECURSORTYPE: [M-H]-
FORMULA: C21H22O5
Ontology: 3-prenylated chalcones
INCHIKEY: ORXQGKIUCDPEAJ-YRNVUSSQSA-N
SMILES: COC1=C(C(=O)\C=C\C2=CC=C(O)C=C2)C(O)=C(CC=C(C)C)C(O)=C1
RETENTIONTIME: 
CCS: 186.297841
IONMODE: Negative
INSTRUMENTTYPE: LC-ESI-QQ
INSTRUMENT: 
COLLISIONENERGY: 20
Comment: registered in MassBank
Num Peaks: 27
119	440
133	10
145	17
159	8
163	8
165	35
173	9
175	22
189	52
190	14
201	8
203	11
205	7
207	5
218	76
232	6
233	912
247	30
270	8
277	8
283	22
295	77
309	13
311	5
323	5
338	14
353	1000

NAME: Xanthohumol; LC-ESI-QQ; MS2; CE
PRECURSORMZ: 353.139447
PRECURSORTYPE: [M-H]-
FORMULA: C21H22O5
Ontology: 3-prenylated chalcones
INCHIKEY: ORXQGKIUCDPEAJ-YRNVUSSQSA-N
SMILES: COC1=C(C(=O)\C=C\C2=CC=C(O)C=C2)C(O)=C(CC=C(C)C)C(O)=C1
RETENTIONTIME: 
CCS: 186.297841
IONMODE: Negative
INSTRUMENTTYPE: LC-ESI-QQ
INSTRUMENT: 
COLLISIONENERGY: 25
Comment: registered in MassBank
Num Peaks: 58
119	1000
121	6
131	6
133	44
138	9
145	36
146	5
148	7
150	18
157	14
159	38
161	19
162	10
163	95
164	6
165	131
173	30
174	19
175	181
176	18
177	16
189	213
190	105
191	10
192	14
199	6
201	14
203	76
204	28
205	20
207	17
209	6
217	13
218	252
219	11
231	10
232	26
233	912
241	11
242	6
247	58
251	17
253	11
255	6
267	6
269	7
270	23
277	21
283	68
293	10
295	241
296	11
309	8
310	18
311	32
323	22
325	6
353	206

NAME: Methyl-13-hydroperoxy-delta9E,11E-octadecadienoic acid; FAB-EBEB; MS2; m/z
PRECURSORMZ: 311.222783
PRECURSORTYPE: [M-CH3]-
FORMULA: C19H34O4
Ontology: Lineolic acids and derivatives
INCHIKEY: WWBBEXJQOOTEIL-ZQHUEGGHNA-N
SMILES: CCCCCC(OO)\C=C\C=C\CCCCCCCC(=O)OC
RETENTIONTIME: 
CCS: -1
IONMODE: Negative
INSTRUMENTTYPE: FAB-EBEB
INSTRUMENT: 
COLLISIONENERGY: 3
Comment: registered in MassBank
Num Peaks: 4
223.1617	30
277.21399	20
293.17719	576
311.28479	1000

NAME: Methyl-9-hydroperoxy-delta10E,12E-octadecadienoic acid; FAB-EBEB; MS2; m/z
PRECURSORMZ: 311.222783
PRECURSORTYPE: [M-CH3]-
FORMULA: C19H34O4
Ontology: Lineolic acids and derivatives
INCHIKEY: NAIVAZYIMZYEHW-KDFHGORWNA-N
SMILES: CCCCC\C=C\C=C\C(CCCCCCCC(=O)OC)OO
RETENTIONTIME: 
CCS: -1
IONMODE: Negative
INSTRUMENTTYPE: FAB-EBEB
INSTRUMENT: 
COLLISIONENERGY: 3
Comment: registered in MassBank
Num Peaks: 5
171.07069	10
237.2238	10
277.21149	30
293.2077	586
311.27802	1000

NAME: Methyl-13-hydroperoxy-delta9Z,11E-octadecadienoic acid; FAB-EBEB; MS2; m/z
PRECURSORMZ: 311.222783
PRECURSORTYPE: [M-CH3]-
FORMULA: C19H34O4
Ontology: Lineolic acids and derivatives
INCHIKEY: WWBBEXJQOOTEIL-GDVMHIJENA-N
SMILES: CCCCCC(OO)\C=C\C=C/CCCCCCCC(=O)OC
RETENTIONTIME: 
CCS: -1
IONMODE: Negative
INSTRUMENTTYPE: FAB-EBEB
INSTRUMENT: 
COLLISIONENERGY: 3
Comment: registered in MassBank
Num Peaks: 8
127.0608	10
223.1609	40
265.16791	10
277.2131	61
279.19031	10
289.70459	10
293.28049	808
311.21719	1000

NAME: Methyl-9-hydroperoxy-delta10E,12Z-octadecadienoic acid; FAB-EBEB; MS2; m/z
PRECURSORMZ: 311.222783
PRECURSORTYPE: [M-CH3]-
FORMULA: C19H34O4
Ontology: Lineolic acids and derivatives
INCHIKEY: NAIVAZYIMZYEHW-BSZOFBHHNA-N
SMILES: CCCCC\C=C/C=C/C(CCCCCCCC(=O)OC)OO
RETENTIONTIME: 
CCS: -1
IONMODE: Negative
INSTRUMENTTYPE: FAB-EBEB
INSTRUMENT: 
COLLISIONENERGY: 3
Comment: registered in MassBank
Num Peaks: 12
57.9178	10
70.9162	10
141.0777	10
171.0941	30
221.18919	20
237.2466	30
251.1492	10
277.24521	91
279.2131	10
289.9798	10
293.31699	899
311.26959	1000

NAME: Linoleic acid; FAB-EBEB; MS2; m/z
PRECURSORMZ: 279.232954
PRECURSORTYPE: [M-H]-
FORMULA: C18H32O2
Ontology: Lineolic acids and derivatives
INCHIKEY: OYHQOLUKZRVURQ-HZJYTTRNSA-N
SMILES: CCCCC\C=C/C\C=C/CCCCCCCC(O)=O
RETENTIONTIME: 
CCS: 178.4762236
IONMODE: Negative
INSTRUMENTTYPE: FAB-EBEB
INSTRUMENT: 
COLLISIONENERGY: 3
Comment: registered in MassBank
Num Peaks: 12
57.8994	20
70.9066	30
113.0517	10
127.068	51
181.1282	10
195.12379	10
207.1497	10
221.24609	20
235.187	10
249.1852	10
277.26099	30
279.3064	1000

NAME: Oleic acid; FAB-EBEB; MS2; m/z
PRECURSORMZ: 281.248604
PRECURSORTYPE: [M-H]-
FORMULA: C18H34O2
Ontology: Long-chain fatty acids
INCHIKEY: ZQPPMHVWECSIRJ-KTKRTIGZSA-N
SMILES: CCCCCCCC\C=C/CCCCCCCC(O)=O
RETENTIONTIME: 
CCS: 179.4275268
IONMODE: Negative
INSTRUMENTTYPE: FAB-EBEB
INSTRUMENT: 
COLLISIONENERGY: 3
Comment: registered in MassBank
Num Peaks: 13
57.9435	10
70.9424	10
127.1225	30
181.18719	10
182.2025	10
195.18871	30
209.2325	10
223.3277	10
237.2514	10
251.2636	10
265.31491	10
279.35229	20
281.40359	1000

NAME: Ricinoleic acid; FAB-EBEB; MS2; m/z
PRECURSORMZ: 297.243519
PRECURSORTYPE: [M-H]-
FORMULA: C18H34O3
Ontology: Long-chain fatty acids
INCHIKEY: WBHHMMIMDMUBKC-XFXZXTDPNA-N
SMILES: CCCCCCC(O)C\C=C/CCCCCCCC(O)=O
RETENTIONTIME: 
CCS: 181.3014604
IONMODE: Negative
INSTRUMENTTYPE: FAB-EBEB
INSTRUMENT: 
COLLISIONENERGY: 3
Comment: registered in MassBank
Num Peaks: 10
57.9029	10
70.8976	10
127.062	30
181.1319	30
182.1351	10
183.15421	71
211.1266	20
279.36111	81
295.3172	20
297.32501	1000

NAME: Glucoibarin; LC-ESI-ITFT; MS2; HCD; CE 15.0 eV; [M-H]-
PRECURSORMZ: 478.088082
PRECURSORTYPE: [M-H]-
FORMULA: C15H29NO10S3
Ontology: Alkylglucosinolates
INCHIKEY: LQZALQLZOQQFGM-CMMZSJJMSA-N
SMILES: CS(=O)CCCCCCC\C(S[C@@H]1O[C@H](CO)[C@@H](O)[C@H](O)[C@H]1O)=N/OS(O)(=O)=O
RETENTIONTIME: 
CCS: 222.7418062
IONMODE: Negative
INSTRUMENTTYPE: LC-ESI-ITFT
INSTRUMENT: 
COLLISIONENERGY: 15.0
Comment: registered in MassBank
Num Peaks: 3
299.11761	11
477.9346	7
478.08701	1000

NAME: Glucoibarin; LC-ESI-ITFT; MS2; HCD; CE 25.0 eV; [M-H]-
PRECURSORMZ: 478.088082
PRECURSORTYPE: [M-H]-
FORMULA: C15H29NO10S3
Ontology: Alkylglucosinolates
INCHIKEY: LQZALQLZOQQFGM-CMMZSJJMSA-N
SMILES: CS(=O)CCCCCCC\C(S[C@@H]1O[C@H](CO)[C@@H](O)[C@H](O)[C@H]1O)=N/OS(O)(=O)=O
RETENTIONTIME: 
CCS: 222.7418062
IONMODE: Negative
INSTRUMENTTYPE: LC-ESI-ITFT
INSTRUMENT: 
COLLISIONENERGY: 25.0
Comment: registered in MassBank
Num Peaks: 3
291.61829	10
299.14099	20
478.0863	1000

NAME: Glucoibarin; LC-ESI-ITFT; MS2; HCD; CE 5.0 eV; [M-H]-
PRECURSORMZ: 478.088082
PRECURSORTYPE: [M-H]-
FORMULA: C15H29NO10S3
Ontology: Alkylglucosinolates
INCHIKEY: LQZALQLZOQQFGM-CMMZSJJMSA-N
SMILES: CS(=O)CCCCCCC\C(S[C@@H]1O[C@H](CO)[C@@H](O)[C@H](O)[C@H]1O)=N/OS(O)(=O)=O
RETENTIONTIME: 
CCS: 222.7418062
IONMODE: Negative
INSTRUMENTTYPE: LC-ESI-ITFT
INSTRUMENT: 
COLLISIONENERGY: 5.0
Comment: registered in MassBank
Num Peaks: 2
299.13489	8
478.0874	1000

NAME: Glucoibarin; LC-ESI-ITFT; MS2; HCD; CE 35.0 eV; [M-H]-
PRECURSORMZ: 478.088082
PRECURSORTYPE: [M-H]-
FORMULA: C15H29NO10S3
Ontology: Alkylglucosinolates
INCHIKEY: LQZALQLZOQQFGM-CMMZSJJMSA-N
SMILES: CS(=O)CCCCCCC\C(S[C@@H]1O[C@H](CO)[C@@H](O)[C@H](O)[C@H]1O)=N/OS(O)(=O)=O
RETENTIONTIME: 
CCS: 222.7418062
IONMODE: Negative
INSTRUMENTTYPE: LC-ESI-ITFT
INSTRUMENT: 
COLLISIONENERGY: 35.0
Comment: registered in MassBank
Num Peaks: 4
291.59329	13
299.1369	25
414.08701	22
478.08771	1000

NAME: Glucoibarin; LC-ESI-ITFT; MS2; HCD; CE 20.0 eV; [M-H]-
PRECURSORMZ: 478.088082
PRECURSORTYPE: [M-H]-
FORMULA: C15H29NO10S3
Ontology: Alkylglucosinolates
INCHIKEY: LQZALQLZOQQFGM-CMMZSJJMSA-N
SMILES: CS(=O)CCCCCCC\C(S[C@@H]1O[C@H](CO)[C@@H](O)[C@H](O)[C@H]1O)=N/OS(O)(=O)=O
RETENTIONTIME: 
CCS: 222.7418062
IONMODE: Negative
INSTRUMENTTYPE: LC-ESI-ITFT
INSTRUMENT: 
COLLISIONENERGY: 20.0
Comment: registered in MassBank
Num Peaks: 2
299.13809	15
478.08661	1000

NAME: Glucoibarin; LC-ESI-ITFT; MS2; HCD; CE 30.0 eV; [M-H]-
PRECURSORMZ: 478.088082
PRECURSORTYPE: [M-H]-
FORMULA: C15H29NO10S3
Ontology: Alkylglucosinolates
INCHIKEY: LQZALQLZOQQFGM-CMMZSJJMSA-N
SMILES: CS(=O)CCCCCCC\C(S[C@@H]1O[C@H](CO)[C@@H](O)[C@H](O)[C@H]1O)=N/OS(O)(=O)=O
RETENTIONTIME: 
CCS: 222.7418062
IONMODE: Negative
INSTRUMENTTYPE: LC-ESI-ITFT
INSTRUMENT: 
COLLISIONENERGY: 30.0
Comment: registered in MassBank
Num Peaks: 2
299.12009	29
478.0864	1000

NAME: Glucoibarin; LC-ESI-ITFT; MS2; HCD; CE 45.0 eV; [M-H]-
PRECURSORMZ: 478.088082
PRECURSORTYPE: [M-H]-
FORMULA: C15H29NO10S3
Ontology: Alkylglucosinolates
INCHIKEY: LQZALQLZOQQFGM-CMMZSJJMSA-N
SMILES: CS(=O)CCCCCCC\C(S[C@@H]1O[C@H](CO)[C@@H](O)[C@H](O)[C@H]1O)=N/OS(O)(=O)=O
RETENTIONTIME: 
CCS: 222.7418062
IONMODE: Negative
INSTRUMENTTYPE: LC-ESI-ITFT
INSTRUMENT: 
COLLISIONENERGY: 45.0
Comment: registered in MassBank
Num Peaks: 3
299.13391	74
414.08929	141
478.08719	1000

NAME: Glucoibarin; LC-ESI-ITFT; MS2; HCD; CE 40.0 eV; [M-H]-
PRECURSORMZ: 478.088082
PRECURSORTYPE: [M-H]-
FORMULA: C15H29NO10S3
Ontology: Alkylglucosinolates
INCHIKEY: LQZALQLZOQQFGM-CMMZSJJMSA-N
SMILES: CS(=O)CCCCCCC\C(S[C@@H]1O[C@H](CO)[C@@H](O)[C@H](O)[C@H]1O)=N/OS(O)(=O)=O
RETENTIONTIME: 
CCS: 222.7418062
IONMODE: Negative
INSTRUMENTTYPE: LC-ESI-ITFT
INSTRUMENT: 
COLLISIONENERGY: 40.0
Comment: registered in MassBank
Num Peaks: 4
291.63049	30
299.14539	59
414.09439	48
478.08731	1000

NAME: Glucoibarin; LC-ESI-ITFT; MS2; HCD; CE 50.0 eV; [M-H]-
PRECURSORMZ: 478.088082
PRECURSORTYPE: [M-H]-
FORMULA: C15H29NO10S3
Ontology: Alkylglucosinolates
INCHIKEY: LQZALQLZOQQFGM-CMMZSJJMSA-N
SMILES: CS(=O)CCCCCCC\C(S[C@@H]1O[C@H](CO)[C@@H](O)[C@H](O)[C@H]1O)=N/OS(O)(=O)=O
RETENTIONTIME: 
CCS: 222.7418062
IONMODE: Negative
INSTRUMENTTYPE: LC-ESI-ITFT
INSTRUMENT: 
COLLISIONENERGY: 50.0
Comment: registered in MassBank
Num Peaks: 10
252.0369	6
259.01349	7
274.98959	6
290.98529	10
299.1044	8
414.08939	261
463.06509	24
477.93439	6
478.08749	1000
478.23581	5

NAME: Glucoibarin; LC-ESI-ITFT; MS2; HCD; CE 10.0 eV; [M-H]-
PRECURSORMZ: 478.088082
PRECURSORTYPE: [M-H]-
FORMULA: C15H29NO10S3
Ontology: Alkylglucosinolates
INCHIKEY: LQZALQLZOQQFGM-CMMZSJJMSA-N
SMILES: CS(=O)CCCCCCC\C(S[C@@H]1O[C@H](CO)[C@@H](O)[C@H](O)[C@H]1O)=N/OS(O)(=O)=O
RETENTIONTIME: 
CCS: 222.7418062
IONMODE: Negative
INSTRUMENTTYPE: LC-ESI-ITFT
INSTRUMENT: 
COLLISIONENERGY: 10.0
Comment: registered in MassBank
Num Peaks: 2
299.13611	137
478.08719	1000

NAME: Glucoibarin; LC-ESI-ITFT; MS2; HCD; CE 65.0 eV; [M-H]-
PRECURSORMZ: 478.088082
PRECURSORTYPE: [M-H]-
FORMULA: C15H29NO10S3
Ontology: Alkylglucosinolates
INCHIKEY: LQZALQLZOQQFGM-CMMZSJJMSA-N
SMILES: CS(=O)CCCCCCC\C(S[C@@H]1O[C@H](CO)[C@@H](O)[C@H](O)[C@H]1O)=N/OS(O)(=O)=O
RETENTIONTIME: 
CCS: 222.7418062
IONMODE: Negative
INSTRUMENTTYPE: LC-ESI-ITFT
INSTRUMENT: 
COLLISIONENERGY: 65.0
Comment: registered in MassBank
Num Peaks: 8
220.06461	96
252.037	99
259.01221	84
274.98959	69
299.00909	52
414.0896	1000
463.06409	277
478.08719	588

NAME: Glucoibarin; LC-ESI-ITFT; MS2; HCD; CE 90.0 eV; [M-H]-
PRECURSORMZ: 478.088082
PRECURSORTYPE: [M-H]-
FORMULA: C15H29NO10S3
Ontology: Alkylglucosinolates
INCHIKEY: LQZALQLZOQQFGM-CMMZSJJMSA-N
SMILES: CS(=O)CCCCCCC\C(S[C@@H]1O[C@H](CO)[C@@H](O)[C@H](O)[C@H]1O)=N/OS(O)(=O)=O
RETENTIONTIME: 
CCS: 222.7418062
IONMODE: Negative
INSTRUMENTTYPE: LC-ESI-ITFT
INSTRUMENT: 
COLLISIONENERGY: 90.0
Comment: registered in MassBank
Num Peaks: 23
135.9711	771
138.9704	231
168.9507	217
172.08009	415
178.01801	99
188.0761	78
192.03329	836
220.0648	982
221.0638	186
236.0777	188
241.0022	106
252.0369	961
253.03889	79
259.01291	1000
274.98999	736
285.02969	82
291.61691	97
299.03369	154
372.04141	87
414.08969	606
415.09311	112
463.064	695
464.0683	123

NAME: Glucoibarin; LC-ESI-ITFT; MS2; HCD; CE 60.0 eV; [M-H]-
PRECURSORMZ: 478.088082
PRECURSORTYPE: [M-H]-
FORMULA: C15H29NO10S3
Ontology: Alkylglucosinolates
INCHIKEY: LQZALQLZOQQFGM-CMMZSJJMSA-N
SMILES: CS(=O)CCCCCCC\C(S[C@@H]1O[C@H](CO)[C@@H](O)[C@H](O)[C@H]1O)=N/OS(O)(=O)=O
RETENTIONTIME: 
CCS: 222.7418062
IONMODE: Negative
INSTRUMENTTYPE: LC-ESI-ITFT
INSTRUMENT: 
COLLISIONENERGY: 60.0
Comment: registered in MassBank
Num Peaks: 13
74.99142	90
79.95773	50
95.95253	416
96.96031	1000
128.93221	24
220.0654	58
252.03799	52
259.01401	35
274.9902	34
299.00879	42
414.09009	379
463.0657	34
478.08859	159

NAME: Glucoibarin; LC-ESI-ITFT; MS2; HCD; CE 80.0 eV; [M-H]-
PRECURSORMZ: 478.088082
PRECURSORTYPE: [M-H]-
FORMULA: C15H29NO10S3
Ontology: Alkylglucosinolates
INCHIKEY: LQZALQLZOQQFGM-CMMZSJJMSA-N
SMILES: CS(=O)CCCCCCC\C(S[C@@H]1O[C@H](CO)[C@@H](O)[C@H](O)[C@H]1O)=N/OS(O)(=O)=O
RETENTIONTIME: 
CCS: 222.7418062
IONMODE: Negative
INSTRUMENTTYPE: LC-ESI-ITFT
INSTRUMENT: 
COLLISIONENERGY: 80.0
Comment: registered in MassBank
Num Peaks: 26
135.97121	175
138.97079	48
163.0612	23
168.9509	73
172.08051	105
192.03349	215
220.0647	475
221.0318	27
221.0656	54
227.024	25
236.0782	133
241.00211	26
252.03729	465
253.04179	39
259.01309	403
260.0155	28
274.98981	331
285.02951	65
299.03741	42
358.02689	38
372.04181	50
414.09021	1000
415.0928	174
463.0643	642
464.06799	122
478.08771	118

NAME: Glucoibarin; LC-ESI-ITFT; MS2; HCD; CE 75.0 eV; [M-H]-
PRECURSORMZ: 478.088082
PRECURSORTYPE: [M-H]-
FORMULA: C15H29NO10S3
Ontology: Alkylglucosinolates
INCHIKEY: LQZALQLZOQQFGM-CMMZSJJMSA-N
SMILES: CS(=O)CCCCCCC\C(S[C@@H]1O[C@H](CO)[C@@H](O)[C@H](O)[C@H]1O)=N/OS(O)(=O)=O
RETENTIONTIME: 
CCS: 222.7418062
IONMODE: Negative
INSTRUMENTTYPE: LC-ESI-ITFT
INSTRUMENT: 
COLLISIONENERGY: 75.0
Comment: registered in MassBank
Num Peaks: 19
135.97099	68
168.9509	29
172.08031	52
192.0332	76
220.0647	242
221.0654	29
227.02431	23
236.07809	68
252.0372	249
259.01279	213
274.98959	175
285.02811	38
299.03561	35
372.0405	19
414.08951	1000
415.09259	131
463.06409	534
464.0665	71
478.08719	207

NAME: Glucoibarin; LC-ESI-ITFT; MS2; HCD; CE 55.0 eV; [M-H]-
PRECURSORMZ: 478.088082
PRECURSORTYPE: [M-H]-
FORMULA: C15H29NO10S3
Ontology: Alkylglucosinolates
INCHIKEY: LQZALQLZOQQFGM-CMMZSJJMSA-N
SMILES: CS(=O)CCCCCCC\C(S[C@@H]1O[C@H](CO)[C@@H](O)[C@H](O)[C@H]1O)=N/OS(O)(=O)=O
RETENTIONTIME: 
CCS: 222.7418062
IONMODE: Negative
INSTRUMENTTYPE: LC-ESI-ITFT
INSTRUMENT: 
COLLISIONENERGY: 55.0
Comment: registered in MassBank
Num Peaks: 4
299.01639	163
414.08881	618
463.06271	111
478.08649	1000

NAME: Glucoibarin; LC-ESI-ITFT; MS2; HCD; CE 85.0 eV; [M-H]-
PRECURSORMZ: 478.088082
PRECURSORTYPE: [M-H]-
FORMULA: C15H29NO10S3
Ontology: Alkylglucosinolates
INCHIKEY: LQZALQLZOQQFGM-CMMZSJJMSA-N
SMILES: CS(=O)CCCCCCC\C(S[C@@H]1O[C@H](CO)[C@@H](O)[C@H](O)[C@H]1O)=N/OS(O)(=O)=O
RETENTIONTIME: 
CCS: 222.7418062
IONMODE: Negative
INSTRUMENTTYPE: LC-ESI-ITFT
INSTRUMENT: 
COLLISIONENERGY: 85.0
Comment: registered in MassBank
Num Peaks: 6
220.06351	554
252.0376	579
291.6091	495
299.03311	1000
414.0907	673
463.06229	613

NAME: Glucoibarin; LC-ESI-ITFT; MS2; HCD; CE 70.0 eV; [M-H]-
PRECURSORMZ: 478.088082
PRECURSORTYPE: [M-H]-
FORMULA: C15H29NO10S3
Ontology: Alkylglucosinolates
INCHIKEY: LQZALQLZOQQFGM-CMMZSJJMSA-N
SMILES: CS(=O)CCCCCCC\C(S[C@@H]1O[C@H](CO)[C@@H](O)[C@H](O)[C@H]1O)=N/OS(O)(=O)=O
RETENTIONTIME: 
CCS: 222.7418062
IONMODE: Negative
INSTRUMENTTYPE: LC-ESI-ITFT
INSTRUMENT: 
COLLISIONENERGY: 70.0
Comment: registered in MassBank
Num Peaks: 9
220.0643	139
252.0368	147
259.0127	112
274.98969	115
291.5918	46
299.0209	73
414.08911	1000
463.06351	467
478.08691	382

NAME: beta-D-Glucopyranose,1-thio-,1-(5-(methylsulfinyl)-N-(sulfooxy)-4-pentenimidate; LC-ESI-ITFT; MS2; HCD; CE 15.0 eV; [M-H]-
PRECURSORMZ: 450.020396
PRECURSORTYPE: [M-H]-
FORMULA: C12H21NO11S3
Ontology: Monosaccharides
INCHIKEY: URMYQRGDHJRORU-IPQUCONDSA-N
SMILES: CS(=O)\C=C\CC(C(O)=NOS(O)(=O)=O)[C@@]1(S)O[C@H](CO)[C@@H](O)[C@H](O)[C@H]1O
RETENTIONTIME: 
CCS: -1
IONMODE: Negative
INSTRUMENTTYPE: LC-ESI-ITFT
INSTRUMENT: 
COLLISIONENERGY: 15.0
Comment: registered in MassBank
Num Peaks: 2
450.05679	1000
450.17859	6

NAME: beta-D-Glucopyranose,1-thio-,1-(5-(methylsulfinyl)-N-(sulfooxy)-4-pentenimidate; LC-ESI-ITFT; MS2; HCD; CE 35.0 eV; [M-H]-
PRECURSORMZ: 450.020396
PRECURSORTYPE: [M-H]-
FORMULA: C12H21NO11S3
Ontology: Monosaccharides
INCHIKEY: URMYQRGDHJRORU-IPQUCONDSA-N
SMILES: CS(=O)\C=C\CC(C(O)=NOS(O)(=O)=O)[C@@]1(S)O[C@H](CO)[C@@H](O)[C@H](O)[C@H]1O
RETENTIONTIME: 
CCS: -1
IONMODE: Negative
INSTRUMENTTYPE: LC-ESI-ITFT
INSTRUMENT: 
COLLISIONENERGY: 35.0
Comment: registered in MassBank
Num Peaks: 2
386.05759	30
450.05661	1000

NAME: beta-D-Glucopyranose,1-thio-,1-(5-(methylsulfinyl)-N-(sulfooxy)-4-pentenimidate; LC-ESI-ITFT; MS2; HCD; CE 20.0 eV; [M-H]-
PRECURSORMZ: 450.020396
PRECURSORTYPE: [M-H]-
FORMULA: C12H21NO11S3
Ontology: Monosaccharides
INCHIKEY: URMYQRGDHJRORU-IPQUCONDSA-N
SMILES: CS(=O)\C=C\CC(C(O)=NOS(O)(=O)=O)[C@@]1(S)O[C@H](CO)[C@@H](O)[C@H](O)[C@H]1O
RETENTIONTIME: 
CCS: -1
IONMODE: Negative
INSTRUMENTTYPE: LC-ESI-ITFT
INSTRUMENT: 
COLLISIONENERGY: 20.0
Comment: registered in MassBank
Num Peaks: 2
449.91711	7
450.05649	1000

NAME: beta-D-Glucopyranose,1-thio-,1-(5-(methylsulfinyl)-N-(sulfooxy)-4-pentenimidate; LC-ESI-ITFT; MS2; HCD; CE 30.0 eV; [M-H]-
PRECURSORMZ: 450.020396
PRECURSORTYPE: [M-H]-
FORMULA: C12H21NO11S3
Ontology: Monosaccharides
INCHIKEY: URMYQRGDHJRORU-IPQUCONDSA-N
SMILES: CS(=O)\C=C\CC(C(O)=NOS(O)(=O)=O)[C@@]1(S)O[C@H](CO)[C@@H](O)[C@H](O)[C@H]1O
RETENTIONTIME: 
CCS: -1
IONMODE: Negative
INSTRUMENTTYPE: LC-ESI-ITFT
INSTRUMENT: 
COLLISIONENERGY: 30.0
Comment: registered in MassBank
Num Peaks: 2
299.13409	11
450.05661	1000

NAME: beta-D-Glucopyranose,1-thio-,1-(5-(methylsulfinyl)-N-(sulfooxy)-4-pentenimidate; LC-ESI-ITFT; MS2; HCD; CE 45.0 eV; [M-H]-
PRECURSORMZ: 450.020396
PRECURSORTYPE: [M-H]-
FORMULA: C12H21NO11S3
Ontology: Monosaccharides
INCHIKEY: URMYQRGDHJRORU-IPQUCONDSA-N
SMILES: CS(=O)\C=C\CC(C(O)=NOS(O)(=O)=O)[C@@]1(S)O[C@H](CO)[C@@H](O)[C@H](O)[C@H]1O
RETENTIONTIME: 
CCS: -1
IONMODE: Negative
INSTRUMENTTYPE: LC-ESI-ITFT
INSTRUMENT: 
COLLISIONENERGY: 45.0
Comment: registered in MassBank
Num Peaks: 2
386.05759	142
450.0564	1000

NAME: beta-D-Glucopyranose,1-thio-,1-(5-(methylsulfinyl)-N-(sulfooxy)-4-pentenimidate; LC-ESI-ITFT; MS2; HCD; CE 40.0 eV; [M-H]-
PRECURSORMZ: 450.020396
PRECURSORTYPE: [M-H]-
FORMULA: C12H21NO11S3
Ontology: Monosaccharides
INCHIKEY: URMYQRGDHJRORU-IPQUCONDSA-N
SMILES: CS(=O)\C=C\CC(C(O)=NOS(O)(=O)=O)[C@@]1(S)O[C@H](CO)[C@@H](O)[C@H](O)[C@H]1O
RETENTIONTIME: 
CCS: -1
IONMODE: Negative
INSTRUMENTTYPE: LC-ESI-ITFT
INSTRUMENT: 
COLLISIONENERGY: 40.0
Comment: registered in MassBank
Num Peaks: 3
299.13641	18
386.05869	62
450.0556	1000

NAME: beta-D-Glucopyranose,1-thio-,1-(5-(methylsulfinyl)-N-(sulfooxy)-4-pentenimidate; LC-ESI-ITFT; MS2; HCD; CE 50.0 eV; [M-H]-
PRECURSORMZ: 450.020396
PRECURSORTYPE: [M-H]-
FORMULA: C12H21NO11S3
Ontology: Monosaccharides
INCHIKEY: URMYQRGDHJRORU-IPQUCONDSA-N
SMILES: CS(=O)\C=C\CC(C(O)=NOS(O)(=O)=O)[C@@]1(S)O[C@H](CO)[C@@H](O)[C@H](O)[C@H]1O
RETENTIONTIME: 
CCS: -1
IONMODE: Negative
INSTRUMENTTYPE: LC-ESI-ITFT
INSTRUMENT: 
COLLISIONENERGY: 50.0
Comment: registered in MassBank
Num Peaks: 3
299.13611	41
386.05811	272
450.05661	1000

NAME: beta-D-Glucopyranose,1-thio-,1-(5-(methylsulfinyl)-N-(sulfooxy)-4-pentenimidate; LC-ESI-ITFT; MS2; HCD; CE 10.0 eV; [M-H]-
PRECURSORMZ: 450.020396
PRECURSORTYPE: [M-H]-
FORMULA: C12H21NO11S3
Ontology: Monosaccharides
INCHIKEY: URMYQRGDHJRORU-IPQUCONDSA-N
SMILES: CS(=O)\C=C\CC(C(O)=NOS(O)(=O)=O)[C@@]1(S)O[C@H](CO)[C@@H](O)[C@H](O)[C@H]1O
RETENTIONTIME: 
CCS: -1
IONMODE: Negative
INSTRUMENTTYPE: LC-ESI-ITFT
INSTRUMENT: 
COLLISIONENERGY: 10.0
Comment: registered in MassBank
Num Peaks: 4
449.89569	6
449.93399	6
450.0567	1000
450.19681	8

NAME: beta-D-Glucopyranose,1-thio-,1-(5-(methylsulfinyl)-N-(sulfooxy)-4-pentenimidate; LC-ESI-ITFT; MS2; HCD; CE 65.0 eV; [M-H]-
PRECURSORMZ: 450.020396
PRECURSORTYPE: [M-H]-
FORMULA: C12H21NO11S3
Ontology: Monosaccharides
INCHIKEY: URMYQRGDHJRORU-IPQUCONDSA-N
SMILES: CS(=O)\C=C\CC(C(O)=NOS(O)(=O)=O)[C@@]1(S)O[C@H](CO)[C@@H](O)[C@H](O)[C@H]1O
RETENTIONTIME: 
CCS: -1
IONMODE: Negative
INSTRUMENTTYPE: LC-ESI-ITFT
INSTRUMENT: 
COLLISIONENERGY: 65.0
Comment: registered in MassBank
Num Peaks: 20
144.0488	14
176.0387	12
192.0332	394
193.0372	23
195.03259	12
208.0471	37
227.02299	15
256.9982	24
259.01279	104
272.02679	10
274.98981	78
290.98459	16
299.01459	10
370.1012	10
386.05829	1000
387.06131	160
388.05301	17
435.03311	298
436.03589	50
450.05649	629

NAME: beta-D-Glucopyranose,1-thio-,1-(5-(methylsulfinyl)-N-(sulfooxy)-4-pentenimidate; LC-ESI-ITFT; MS2; HCD; CE 90.0 eV; [M-H]-
PRECURSORMZ: 450.020396
PRECURSORTYPE: [M-H]-
FORMULA: C12H21NO11S3
Ontology: Monosaccharides
INCHIKEY: URMYQRGDHJRORU-IPQUCONDSA-N
SMILES: CS(=O)\C=C\CC(C(O)=NOS(O)(=O)=O)[C@@]1(S)O[C@H](CO)[C@@H](O)[C@H](O)[C@H]1O
RETENTIONTIME: 
CCS: -1
IONMODE: Negative
INSTRUMENTTYPE: LC-ESI-ITFT
INSTRUMENT: 
COLLISIONENERGY: 90.0
Comment: registered in MassBank
Num Peaks: 1
192.0331	1000

NAME: beta-D-Glucopyranose,1-thio-,1-(5-(methylsulfinyl)-N-(sulfooxy)-4-pentenimidate; LC-ESI-ITFT; MS2; HCD; CE 60.0 eV; [M-H]-
PRECURSORMZ: 450.020396
PRECURSORTYPE: [M-H]-
FORMULA: C12H21NO11S3
Ontology: Monosaccharides
INCHIKEY: URMYQRGDHJRORU-IPQUCONDSA-N
SMILES: CS(=O)\C=C\CC(C(O)=NOS(O)(=O)=O)[C@@]1(S)O[C@H](CO)[C@@H](O)[C@H](O)[C@H]1O
RETENTIONTIME: 
CCS: -1
IONMODE: Negative
INSTRUMENTTYPE: LC-ESI-ITFT
INSTRUMENT: 
COLLISIONENERGY: 60.0
Comment: registered in MassBank
Num Peaks: 4
192.0336	219
386.05801	955
435.03241	210
450.05661	1000

NAME: beta-D-Glucopyranose,1-thio-,1-(5-(methylsulfinyl)-N-(sulfooxy)-4-pentenimidate; LC-ESI-ITFT; MS2; HCD; CE 80.0 eV; [M-H]-
PRECURSORMZ: 450.020396
PRECURSORTYPE: [M-H]-
FORMULA: C12H21NO11S3
Ontology: Monosaccharides
INCHIKEY: URMYQRGDHJRORU-IPQUCONDSA-N
SMILES: CS(=O)\C=C\CC(C(O)=NOS(O)(=O)=O)[C@@]1(S)O[C@H](CO)[C@@H](O)[C@H](O)[C@H]1O
RETENTIONTIME: 
CCS: -1
IONMODE: Negative
INSTRUMENTTYPE: LC-ESI-ITFT
INSTRUMENT: 
COLLISIONENERGY: 80.0
Comment: registered in MassBank
Num Peaks: 12
192.03329	1000
193.0368	47
208.0472	65
256.99811	45
259.01321	218
274.9902	170
299.01511	42
386.05869	602
387.06311	58
435.03369	359
436.03329	38
450.05701	99

NAME: beta-D-Glucopyranose,1-thio-,1-(5-(methylsulfinyl)-N-(sulfooxy)-4-pentenimidate; LC-ESI-ITFT; MS2; HCD; CE 75.0 eV; [M-H]-
PRECURSORMZ: 450.020396
PRECURSORTYPE: [M-H]-
FORMULA: C12H21NO11S3
Ontology: Monosaccharides
INCHIKEY: URMYQRGDHJRORU-IPQUCONDSA-N
SMILES: CS(=O)\C=C\CC(C(O)=NOS(O)(=O)=O)[C@@]1(S)O[C@H](CO)[C@@H](O)[C@H](O)[C@H]1O
RETENTIONTIME: 
CCS: -1
IONMODE: Negative
INSTRUMENTTYPE: LC-ESI-ITFT
INSTRUMENT: 
COLLISIONENERGY: 75.0
Comment: registered in MassBank
Num Peaks: 14
144.0488	44
165.0229	29
192.0331	982
193.0367	56
208.047	88
256.99841	54
259.01291	243
274.98981	180
299.02481	23
386.0585	1000
387.06149	150
435.0332	510
436.0361	87
450.0563	227

NAME: beta-D-Glucopyranose,1-thio-,1-(5-(methylsulfinyl)-N-(sulfooxy)-4-pentenimidate; LC-ESI-ITFT; MS2; HCD; CE 55.0 eV; [M-H]-
PRECURSORMZ: 450.020396
PRECURSORTYPE: [M-H]-
FORMULA: C12H21NO11S3
Ontology: Monosaccharides
INCHIKEY: URMYQRGDHJRORU-IPQUCONDSA-N
SMILES: CS(=O)\C=C\CC(C(O)=NOS(O)(=O)=O)[C@@]1(S)O[C@H](CO)[C@@H](O)[C@H](O)[C@H]1O
RETENTIONTIME: 
CCS: -1
IONMODE: Negative
INSTRUMENTTYPE: LC-ESI-ITFT
INSTRUMENT: 
COLLISIONENERGY: 55.0
Comment: registered in MassBank
Num Peaks: 4
192.03349	94
386.05869	560
435.03391	82
450.05688	1000

NAME: beta-D-Glucopyranose,1-thio-,1-(5-(methylsulfinyl)-N-(sulfooxy)-4-pentenimidate; LC-ESI-ITFT; MS2; HCD; CE 85.0 eV; [M-H]-
PRECURSORMZ: 450.020396
PRECURSORTYPE: [M-H]-
FORMULA: C12H21NO11S3
Ontology: Monosaccharides
INCHIKEY: URMYQRGDHJRORU-IPQUCONDSA-N
SMILES: CS(=O)\C=C\CC(C(O)=NOS(O)(=O)=O)[C@@]1(S)O[C@H](CO)[C@@H](O)[C@H](O)[C@H]1O
RETENTIONTIME: 
CCS: -1
IONMODE: Negative
INSTRUMENTTYPE: LC-ESI-ITFT
INSTRUMENT: 
COLLISIONENERGY: 85.0
Comment: registered in MassBank
Num Peaks: 6
192.0334	1000
259.0127	194
274.99011	159
299.0123	105
386.0582	356
435.03381	289

NAME: beta-D-Glucopyranose,1-thio-,1-(5-(methylsulfinyl)-N-(sulfooxy)-4-pentenimidate; LC-ESI-ITFT; MS2; HCD; CE 70.0 eV; [M-H]-
PRECURSORMZ: 450.020396
PRECURSORTYPE: [M-H]-
FORMULA: C12H21NO11S3
Ontology: Monosaccharides
INCHIKEY: URMYQRGDHJRORU-IPQUCONDSA-N
SMILES: CS(=O)\C=C\CC(C(O)=NOS(O)(=O)=O)[C@@]1(S)O[C@H](CO)[C@@H](O)[C@H](O)[C@H]1O
RETENTIONTIME: 
CCS: -1
IONMODE: Negative
INSTRUMENTTYPE: LC-ESI-ITFT
INSTRUMENT: 
COLLISIONENERGY: 70.0
Comment: registered in MassBank
Num Peaks: 22
128.9324	14
144.0489	21
165.0229	16
176.0387	17
192.0332	647
193.03709	40
195.0332	13
208.0471	55
227.0233	17
256.99841	43
259.01309	154
274.98999	117
290.9848	14
299.02191	13
344.01099	15
386.05869	1000
387.06189	147
388.0549	24
435.03339	403
436.0361	64
437.0285	14
450.0567	378

NAME: L-alpha-Phosphatidylethanolamine (Soy); LC-ESI-ITFT; MS2; CE 20.0 eV; [M-H]-
PRECURSORMZ: 714.507928
PRECURSORTYPE: [M-H]-
FORMULA: C39H74NO8P
Ontology: Phosphatidylethanolamines
INCHIKEY: HBZNVZIRJWODIB-NHCUFCNUSA-N
SMILES: CCCCCCCCCCCCCCCC(=O)OC[C@H](COP(O)(=O)OCCN)OC(=O)CCCCCCC\C=C/C\C=C/CCCCC
RETENTIONTIME: 
CCS: 346.7199335
IONMODE: Negative
INSTRUMENTTYPE: LC-ESI-ITFT
INSTRUMENT: 
COLLISIONENERGY: 20.0
Comment: registered in MassBank
Num Peaks: 16
255.2238	7
255.233	450
277.2175	41
278.22079	11
279.1655	5
279.21649	8
279.22281	16
279.23309	1000
279.2421	25
279.24689	12
279.30139	7
434.26721	10
438.76611	6
452.2785	73
476.2789	6
714.50763	102

NAME: Glutamine; LC-ESI-ITFT; MS2; CE 15.0 eV; [M-H]-
PRECURSORMZ: 145.061866
PRECURSORTYPE: [M-H]-
FORMULA: C5H10N2O3
Ontology: Alpha amino acids
INCHIKEY: ZDXPYRJPNDTMRX-UHFFFAOYNA-N
SMILES: NC(CCC(O)=N)C(O)=O
RETENTIONTIME: 
CCS: 126.3474033
IONMODE: Negative
INSTRUMENTTYPE: LC-ESI-ITFT
INSTRUMENT: 
COLLISIONENERGY: 15.0
Comment: registered in MassBank
Num Peaks: 10
109.0414	98
127.0474	12
127.0498	11
127.0522	778
127.0561	12
128.0361	120
145.0569	15
145.0627	1000
145.0676	14
145.0695	8

NAME: Glutamine; LC-ESI-ITFT; MS2; CE 25.0 eV; [M-H]-
PRECURSORMZ: 145.061866
PRECURSORTYPE: [M-H]-
FORMULA: C5H10N2O3
Ontology: Alpha amino acids
INCHIKEY: ZDXPYRJPNDTMRX-UHFFFAOYNA-N
SMILES: NC(CCC(O)=N)C(O)=O
RETENTIONTIME: 
CCS: 126.3474033
IONMODE: Negative
INSTRUMENTTYPE: LC-ESI-ITFT
INSTRUMENT: 
COLLISIONENERGY: 25.0
Comment: registered in MassBank
Num Peaks: 10
109.0414	143
127.0441	6
127.0452	6
127.0475	14
127.0521	1000
127.0569	12
127.058	8
127.0614	6
128.0361	176
145.0627	112

NAME: Glutamine; LC-ESI-ITFT; MS2; CE 75.0 eV; [M-H]-
PRECURSORMZ: 145.061866
PRECURSORTYPE: [M-H]-
FORMULA: C5H10N2O3
Ontology: Alpha amino acids
INCHIKEY: ZDXPYRJPNDTMRX-UHFFFAOYNA-N
SMILES: NC(CCC(O)=N)C(O)=O
RETENTIONTIME: 
CCS: 126.3474033
IONMODE: Negative
INSTRUMENTTYPE: LC-ESI-ITFT
INSTRUMENT: 
COLLISIONENERGY: 75.0
Comment: registered in MassBank
Num Peaks: 5
84.04607	56
109.0414	136
127.0521	619
128.036	215
145.0627	1000

NAME: Glutamine; LC-ESI-ITFT; MS2; CE 20.0 eV; [M-H]-
PRECURSORMZ: 145.061866
PRECURSORTYPE: [M-H]-
FORMULA: C5H10N2O3
Ontology: Alpha amino acids
INCHIKEY: ZDXPYRJPNDTMRX-UHFFFAOYNA-N
SMILES: NC(CCC(O)=N)C(O)=O
RETENTIONTIME: 
CCS: 126.3474033
IONMODE: Negative
INSTRUMENTTYPE: LC-ESI-ITFT
INSTRUMENT: 
COLLISIONENERGY: 20.0
Comment: registered in MassBank
Num Peaks: 12
109.0414	65
127.0475	6
127.0497	8
127.0521	493
127.0569	7
128.0361	79
145.0527	6
145.0554	10
145.05769	12
145.06261	1000
145.0683	14
145.07111	7

NAME: Glutamine; LC-ESI-ITFT; MS2; CE 35.0 eV; [M-H]-
PRECURSORMZ: 145.061866
PRECURSORTYPE: [M-H]-
FORMULA: C5H10N2O3
Ontology: Alpha amino acids
INCHIKEY: ZDXPYRJPNDTMRX-UHFFFAOYNA-N
SMILES: NC(CCC(O)=N)C(O)=O
RETENTIONTIME: 
CCS: 126.3474033
IONMODE: Negative
INSTRUMENTTYPE: LC-ESI-ITFT
INSTRUMENT: 
COLLISIONENERGY: 35.0
Comment: registered in MassBank
Num Peaks: 7
109.0414	130
127.0485	14
127.0496	22
127.0521	1000
127.0569	14
128.0361	153
145.06281	28

NAME: Glutamine; LC-ESI-ITFT; MS2; CE 40.0 eV; [M-H]-
PRECURSORMZ: 145.061866
PRECURSORTYPE: [M-H]-
FORMULA: C5H10N2O3
Ontology: Alpha amino acids
INCHIKEY: ZDXPYRJPNDTMRX-UHFFFAOYNA-N
SMILES: NC(CCC(O)=N)C(O)=O
RETENTIONTIME: 
CCS: 126.3474033
IONMODE: Negative
INSTRUMENTTYPE: LC-ESI-ITFT
INSTRUMENT: 
COLLISIONENERGY: 40.0
Comment: registered in MassBank
Num Peaks: 11
109.0414	144
127.043	5
127.0452	9
127.0464	5
127.0475	7
127.0521	1000
127.0561	8
127.0571	5
127.0582	7
127.0602	6
128.036	158

NAME: Glutamine; LC-ESI-ITFT; MS2; CE 50.0 eV; [M-H]-
PRECURSORMZ: 145.061866
PRECURSORTYPE: [M-H]-
FORMULA: C5H10N2O3
Ontology: Alpha amino acids
INCHIKEY: ZDXPYRJPNDTMRX-UHFFFAOYNA-N
SMILES: NC(CCC(O)=N)C(O)=O
RETENTIONTIME: 
CCS: 126.3474033
IONMODE: Negative
INSTRUMENTTYPE: LC-ESI-ITFT
INSTRUMENT: 
COLLISIONENERGY: 50.0
Comment: registered in MassBank
Num Peaks: 3
127.052	206
128.036	47
145.0627	1000

NAME: Glutamine; LC-ESI-ITFT; MS2; CE 65.0 eV; [M-H]-
PRECURSORMZ: 145.061866
PRECURSORTYPE: [M-H]-
FORMULA: C5H10N2O3
Ontology: Alpha amino acids
INCHIKEY: ZDXPYRJPNDTMRX-UHFFFAOYNA-N
SMILES: NC(CCC(O)=N)C(O)=O
RETENTIONTIME: 
CCS: 126.3474033
IONMODE: Negative
INSTRUMENTTYPE: LC-ESI-ITFT
INSTRUMENT: 
COLLISIONENERGY: 65.0
Comment: registered in MassBank
Num Peaks: 4
109.0414	66
127.0521	381
128.0361	100
145.06281	1000

NAME: Glutamine; LC-ESI-ITFT; MS2; CE 60.0 eV; [M-H]-
PRECURSORMZ: 145.061866
PRECURSORTYPE: [M-H]-
FORMULA: C5H10N2O3
Ontology: Alpha amino acids
INCHIKEY: ZDXPYRJPNDTMRX-UHFFFAOYNA-N
SMILES: NC(CCC(O)=N)C(O)=O
RETENTIONTIME: 
CCS: 126.3474033
IONMODE: Negative
INSTRUMENTTYPE: LC-ESI-ITFT
INSTRUMENT: 
COLLISIONENERGY: 60.0
Comment: registered in MassBank
Num Peaks: 4
109.0414	78
127.0521	370
128.0361	107
145.06281	1000

NAME: Glutamine; LC-ESI-ITFT; MS2; CE 80.0 eV; [M-H]-
PRECURSORMZ: 145.061866
PRECURSORTYPE: [M-H]-
FORMULA: C5H10N2O3
Ontology: Alpha amino acids
INCHIKEY: ZDXPYRJPNDTMRX-UHFFFAOYNA-N
SMILES: NC(CCC(O)=N)C(O)=O
RETENTIONTIME: 
CCS: 126.3474033
IONMODE: Negative
INSTRUMENTTYPE: LC-ESI-ITFT
INSTRUMENT: 
COLLISIONENERGY: 80.0
Comment: registered in MassBank
Num Peaks: 6
84.0461	59
101.0726	47
109.0414	136
127.0521	736
128.036	254
145.0627	1000

NAME: Glutamine; LC-ESI-ITFT; MS2; CE 5.0 eV; [M-H]-
PRECURSORMZ: 145.061866
PRECURSORTYPE: [M-H]-
FORMULA: C5H10N2O3
Ontology: Alpha amino acids
INCHIKEY: ZDXPYRJPNDTMRX-UHFFFAOYNA-N
SMILES: NC(CCC(O)=N)C(O)=O
RETENTIONTIME: 
CCS: 126.3474033
IONMODE: Negative
INSTRUMENTTYPE: LC-ESI-ITFT
INSTRUMENT: 
COLLISIONENERGY: 5.0
Comment: registered in MassBank
Num Peaks: 12
109.0413	7
127.0522	117
128.0361	10
145.0376	7
145.05251	7
145.05409	8
145.0567	13
145.06261	1000
145.06599	17
145.06779	8
145.0697	9
145.0881	9

NAME: Glutamine; LC-ESI-ITFT; MS2; CE 30.0 eV; [M-H]-
PRECURSORMZ: 145.061866
PRECURSORTYPE: [M-H]-
FORMULA: C5H10N2O3
Ontology: Alpha amino acids
INCHIKEY: ZDXPYRJPNDTMRX-UHFFFAOYNA-N
SMILES: NC(CCC(O)=N)C(O)=O
RETENTIONTIME: 
CCS: 126.3474033
IONMODE: Negative
INSTRUMENTTYPE: LC-ESI-ITFT
INSTRUMENT: 
COLLISIONENERGY: 30.0
Comment: registered in MassBank
Num Peaks: 9
109.0415	134
127.0442	7
127.0463	11
127.0482	10
127.0522	1000
127.057	12
127.0592	9
128.03619	167
145.06281	102

NAME: Glutamine; LC-ESI-ITFT; MS2; CE 55.0 eV; [M-H]-
PRECURSORMZ: 145.061866
PRECURSORTYPE: [M-H]-
FORMULA: C5H10N2O3
Ontology: Alpha amino acids
INCHIKEY: ZDXPYRJPNDTMRX-UHFFFAOYNA-N
SMILES: NC(CCC(O)=N)C(O)=O
RETENTIONTIME: 
CCS: 126.3474033
IONMODE: Negative
INSTRUMENTTYPE: LC-ESI-ITFT
INSTRUMENT: 
COLLISIONENERGY: 55.0
Comment: registered in MassBank
Num Peaks: 4
109.0415	56
127.0521	283
128.0361	68
145.0627	1000

NAME: Glutamine; LC-ESI-ITFT; MS2; CE 45.0 eV; [M-H]-
PRECURSORMZ: 145.061866
PRECURSORTYPE: [M-H]-
FORMULA: C5H10N2O3
Ontology: Alpha amino acids
INCHIKEY: ZDXPYRJPNDTMRX-UHFFFAOYNA-N
SMILES: NC(CCC(O)=N)C(O)=O
RETENTIONTIME: 
CCS: 126.3474033
IONMODE: Negative
INSTRUMENTTYPE: LC-ESI-ITFT
INSTRUMENT: 
COLLISIONENERGY: 45.0
Comment: registered in MassBank
Num Peaks: 4
109.0414	28
127.0521	216
128.0361	42
145.0627	1000

NAME: Glutamine; LC-ESI-ITFT; MS2; CE 85.0 eV; [M-H]-
PRECURSORMZ: 145.061866
PRECURSORTYPE: [M-H]-
FORMULA: C5H10N2O3
Ontology: Alpha amino acids
INCHIKEY: ZDXPYRJPNDTMRX-UHFFFAOYNA-N
SMILES: NC(CCC(O)=N)C(O)=O
RETENTIONTIME: 
CCS: 126.3474033
IONMODE: Negative
INSTRUMENTTYPE: LC-ESI-ITFT
INSTRUMENT: 
COLLISIONENERGY: 85.0
Comment: registered in MassBank
Num Peaks: 5
101.0727	62
109.0414	172
127.0521	905
128.0361	376
145.0627	1000

NAME: Glutamine; LC-ESI-ITFT; MS2; CE 70.0 eV; [M-H]-
PRECURSORMZ: 145.061866
PRECURSORTYPE: [M-H]-
FORMULA: C5H10N2O3
Ontology: Alpha amino acids
INCHIKEY: ZDXPYRJPNDTMRX-UHFFFAOYNA-N
SMILES: NC(CCC(O)=N)C(O)=O
RETENTIONTIME: 
CCS: 126.3474033
IONMODE: Negative
INSTRUMENTTYPE: LC-ESI-ITFT
INSTRUMENT: 
COLLISIONENERGY: 70.0
Comment: registered in MassBank
Num Peaks: 4
109.0414	93
127.0521	503
128.0361	137
145.0627	1000

NAME: Glutamine; LC-ESI-ITFT; MS2; CE 10.0 eV; [M-H]-
PRECURSORMZ: 145.061866
PRECURSORTYPE: [M-H]-
FORMULA: C5H10N2O3
Ontology: Alpha amino acids
INCHIKEY: ZDXPYRJPNDTMRX-UHFFFAOYNA-N
SMILES: NC(CCC(O)=N)C(O)=O
RETENTIONTIME: 
CCS: 126.3474033
IONMODE: Negative
INSTRUMENTTYPE: LC-ESI-ITFT
INSTRUMENT: 
COLLISIONENERGY: 10.0
Comment: registered in MassBank
Num Peaks: 11
109.0414	8
127.0522	95
128.0361	10
144.98669	6
145.03729	11
145.0527	6
145.06	42
145.0627	1000
145.0681	12
145.0881	9
145.1387	7

NAME: Glucoiberin; LC-ESI-ITFT; MS2; HCD; CE 65.0 eV; [M-H]-
PRECURSORMZ: 422.025482
PRECURSORTYPE: [M-H]-
FORMULA: C11H21NO10S3
Ontology: Alkylglucosinolates
INCHIKEY: PHYYADMVYQURSX-WWFIZPDBSA-N
SMILES: CS(=O)CCC\C(S[C@@H]1O[C@H](CO)[C@@H](O)[C@H](O)[C@H]1O)=N/OS(O)(=O)=O
RETENTIONTIME: 
CCS: 181.1137206
IONMODE: Negative
INSTRUMENTTYPE: LC-ESI-ITFT
INSTRUMENT: 
COLLISIONENERGY: 65.0
Comment: registered in MassBank
Num Peaks: 35
74.99151	146
79.95783	48
80.96568	8
85.02962	9
95.95266	474
95.95928	6
96.91869	8
96.9464	10
96.95247	8
96.96032	1000
96.97429	9
97.00134	6
97.95941	6
101.0247	6
111.9299	5
116.0177	7
128.9326	24
135.9711	5
161.9868	13
164.00259	23
168.95129	5
180.0159	38
195.0329	8
195.9745	112
211.97009	7
228.9668	13
259.01349	55
274.9906	35
291.6344	6
299.0592	11
342.07071	7
358.02771	208
359.0303	26
407.00299	33
422.0264	105

NAME: Glucoiberin; LC-ESI-ITFT; MS2; HCD; CE 90.0 eV; [M-H]-
PRECURSORMZ: 422.025482
PRECURSORTYPE: [M-H]-
FORMULA: C11H21NO10S3
Ontology: Alkylglucosinolates
INCHIKEY: PHYYADMVYQURSX-WWFIZPDBSA-N
SMILES: CS(=O)CCC\C(S[C@@H]1O[C@H](CO)[C@@H](O)[C@H](O)[C@H]1O)=N/OS(O)(=O)=O
RETENTIONTIME: 
CCS: 181.1137206
IONMODE: Negative
INSTRUMENTTYPE: LC-ESI-ITFT
INSTRUMENT: 
COLLISIONENERGY: 90.0
Comment: registered in MassBank
Num Peaks: 11
74.99158	150
79.95799	78
95.95271	855
96.9605	1000
111.9298	26
135.97121	39
164.0027	34
180.0161	35
195.9747	163
259.01431	41
299.07001	35

NAME: Glucoiberin; LC-ESI-ITFT; MS2; HCD; CE 60.0 eV; [M-H]-
PRECURSORMZ: 422.025482
PRECURSORTYPE: [M-H]-
FORMULA: C11H21NO10S3
Ontology: Alkylglucosinolates
INCHIKEY: PHYYADMVYQURSX-WWFIZPDBSA-N
SMILES: CS(=O)CCC\C(S[C@@H]1O[C@H](CO)[C@@H](O)[C@H](O)[C@H]1O)=N/OS(O)(=O)=O
RETENTIONTIME: 
CCS: 181.1137206
IONMODE: Negative
INSTRUMENTTYPE: LC-ESI-ITFT
INSTRUMENT: 
COLLISIONENERGY: 60.0
Comment: registered in MassBank
Num Peaks: 35
74.76832	5
74.99167	124
79.95806	41
80.96576	6
85.03018	8
95.95287	431
96.91886	8
96.94788	8
96.96056	1000
96.97464	10
97.00171	6
97.95982	6
98.95612	7
111.9303	7
116.0181	6
128.9328	28
145.0517	6
161.9874	16
164.0029	17
168.95081	5
180.0166	38
195.0338	9
195.97501	106
227.02499	11
228.9671	12
243.99631	5
259.01379	58
274.991	33
290.9855	6
299.07211	10
342.06879	9
358.0285	275
359.03149	37
407.00381	38
422.02701	212

NAME: Glucoiberin; LC-ESI-ITFT; MS2; HCD; CE 80.0 eV; [M-H]-
PRECURSORMZ: 422.025482
PRECURSORTYPE: [M-H]-
FORMULA: C11H21NO10S3
Ontology: Alkylglucosinolates
INCHIKEY: PHYYADMVYQURSX-WWFIZPDBSA-N
SMILES: CS(=O)CCC\C(S[C@@H]1O[C@H](CO)[C@@H](O)[C@H](O)[C@H]1O)=N/OS(O)(=O)=O
RETENTIONTIME: 
CCS: 181.1137206
IONMODE: Negative
INSTRUMENTTYPE: LC-ESI-ITFT
INSTRUMENT: 
COLLISIONENERGY: 80.0
Comment: registered in MassBank
Num Peaks: 25
74.99162	211
79.95797	74
80.96584	14
85.03046	9
95.9528	680
96.94641	10
96.96046	1000
96.97449	12
111.9296	16
116.0181	14
128.9326	21
135.97169	19
138.9711	9
161.9874	14
164.00281	31
168.9516	10
180.0166	37
195.9749	143
228.9668	11
259.01389	41
274.99081	28
299.06241	15
358.02811	59
407.00421	14
422.02789	9

NAME: Glucoiberin; LC-ESI-ITFT; MS2; HCD; CE 75.0 eV; [M-H]-
PRECURSORMZ: 422.025482
PRECURSORTYPE: [M-H]-
FORMULA: C11H21NO10S3
Ontology: Alkylglucosinolates
INCHIKEY: PHYYADMVYQURSX-WWFIZPDBSA-N
SMILES: CS(=O)CCC\C(S[C@@H]1O[C@H](CO)[C@@H](O)[C@H](O)[C@H]1O)=N/OS(O)(=O)=O
RETENTIONTIME: 
CCS: 181.1137206
IONMODE: Negative
INSTRUMENTTYPE: LC-ESI-ITFT
INSTRUMENT: 
COLLISIONENERGY: 75.0
Comment: registered in MassBank
Num Peaks: 34
74.77	6
74.99155	178
79.95786	64
80.96557	11
85.02976	9
95.94054	6
95.95275	621
95.96652	8
96.91888	9
96.94705	10
96.96041	1000
96.97441	12
97.00199	7
101.0249	6
111.9298	11
116.018	16
119.9762	6
128.93269	24
135.9716	15
138.9711	7
161.98689	13
164.0025	24
168.9505	7
180.0162	33
195.0336	6
195.9747	137
228.9673	13
259.0137	48
274.99069	30
299.07791	11
358.02789	90
359.03381	12
407.00409	20
422.02759	17

NAME: Glucoiberin; LC-ESI-ITFT; MS2; HCD; CE 55.0 eV; [M-H]-
PRECURSORMZ: 422.025482
PRECURSORTYPE: [M-H]-
FORMULA: C11H21NO10S3
Ontology: Alkylglucosinolates
INCHIKEY: PHYYADMVYQURSX-WWFIZPDBSA-N
SMILES: CS(=O)CCC\C(S[C@@H]1O[C@H](CO)[C@@H](O)[C@H](O)[C@H]1O)=N/OS(O)(=O)=O
RETENTIONTIME: 
CCS: 181.1137206
IONMODE: Negative
INSTRUMENTTYPE: LC-ESI-ITFT
INSTRUMENT: 
COLLISIONENERGY: 55.0
Comment: registered in MassBank
Num Peaks: 23
74.9916	99
79.95802	31
95.95277	365
96.96046	1000
96.96842	9
96.9743	11
128.93269	26
161.98711	12
164.0027	18
180.0163	41
195.0336	10
195.97479	100
227.02319	13
228.96809	16
259.01361	63
274.9906	29
290.9848	11
299.07639	11
342.06949	9
358.02789	366
359.0307	46
407.0032	42
422.02649	449

NAME: Glucoiberin; LC-ESI-ITFT; MS2; HCD; CE 85.0 eV; [M-H]-
PRECURSORMZ: 422.025482
PRECURSORTYPE: [M-H]-
FORMULA: C11H21NO10S3
Ontology: Alkylglucosinolates
INCHIKEY: PHYYADMVYQURSX-WWFIZPDBSA-N
SMILES: CS(=O)CCC\C(S[C@@H]1O[C@H](CO)[C@@H](O)[C@H](O)[C@H]1O)=N/OS(O)(=O)=O
RETENTIONTIME: 
CCS: 181.1137206
IONMODE: Negative
INSTRUMENTTYPE: LC-ESI-ITFT
INSTRUMENT: 
COLLISIONENERGY: 85.0
Comment: registered in MassBank
Num Peaks: 14
74.99146	212
79.95773	78
80.96571	18
95.95257	767
96.96029	1000
111.9296	23
135.97099	24
164.0025	31
180.0162	38
195.9745	147
259.0127	39
274.9892	22
299.0802	18
358.02759	38

NAME: Glucoiberin; LC-ESI-ITFT; MS2; HCD; CE 70.0 eV; [M-H]-
PRECURSORMZ: 422.025482
PRECURSORTYPE: [M-H]-
FORMULA: C11H21NO10S3
Ontology: Alkylglucosinolates
INCHIKEY: PHYYADMVYQURSX-WWFIZPDBSA-N
SMILES: CS(=O)CCC\C(S[C@@H]1O[C@H](CO)[C@@H](O)[C@H](O)[C@H]1O)=N/OS(O)(=O)=O
RETENTIONTIME: 
CCS: 181.1137206
IONMODE: Negative
INSTRUMENTTYPE: LC-ESI-ITFT
INSTRUMENT: 
COLLISIONENERGY: 70.0
Comment: registered in MassBank
Num Peaks: 38
74.99165	154
79.95799	55
80.96583	10
85.03003	8
95.95288	551
95.96691	6
96.91936	7
96.9464	8
96.95183	8
96.96053	1000
96.97475	11
97.00213	8
97.95982	5
98.95611	11
101.0248	8
111.9299	11
116.018	12
127.9252	8
128.9328	26
135.97169	13
138.97189	6
161.9873	15
164.0027	23
168.95129	9
180.0163	37
195.03349	7
195.97501	124
211.9706	7
228.9669	13
259.01401	52
274.99109	33
291.64001	5
299.07849	8
342.07169	5
358.0282	135
359.0332	15
407.00369	26
422.0267	44

NAME: 8-Methylthiooctyl glucosinolate; LC-ESI-ITFT; MS2; HCD; CE 65.0 eV; [M-H]-
PRECURSORMZ: 476.108817
PRECURSORTYPE: [M-H]-
FORMULA: C16H31NO9S3
Ontology: Alkylglucosinolates
INCHIKEY: CWOJBEDMJKZKAB-STPBKMPXSA-N
SMILES: CSCCCCCCCC\C(S[C@@H]1O[C@H](CO)[C@@H](O)[C@H](O)[C@H]1O)=N/OS(O)(=O)=O
RETENTIONTIME: 
CCS: 198.7443314
IONMODE: Negative
INSTRUMENTTYPE: LC-ESI-ITFT
INSTRUMENT: 
COLLISIONENERGY: 65.0
Comment: registered in MassBank
Num Peaks: 22
74.76218	8
74.99155	149
79.95784	80
80.96584	7
85.02998	16
95.95268	370
96.91879	6
96.94527	8
96.94673	8
96.95232	6
96.96035	1000
96.97446	10
97.00207	8
127.9244	7
145.0507	5
234.0997	32
259.01321	39
274.99081	33
283.05139	17
291.5643	9
299.04941	14
476.10989	62

NAME: 8-Methylthiooctyl glucosinolate; LC-ESI-ITFT; MS2; HCD; CE 90.0 eV; [M-H]-
PRECURSORMZ: 476.108817
PRECURSORTYPE: [M-H]-
FORMULA: C16H31NO9S3
Ontology: Alkylglucosinolates
INCHIKEY: CWOJBEDMJKZKAB-STPBKMPXSA-N
SMILES: CSCCCCCCCC\C(S[C@@H]1O[C@H](CO)[C@@H](O)[C@H](O)[C@H]1O)=N/OS(O)(=O)=O
RETENTIONTIME: 
CCS: 198.7443314
IONMODE: Negative
INSTRUMENTTYPE: LC-ESI-ITFT
INSTRUMENT: 
COLLISIONENERGY: 90.0
Comment: registered in MassBank
Num Peaks: 25
74.77001	12
74.9917	107
79.95795	77
80.96581	12
85.02993	9
95.93881	9
95.95268	702
95.96466	7
96.94645	11
96.95139	7
96.9604	1000
96.97395	9
101.025	8
111.9301	7
127.925	12
138.9713	21
194.50681	7
219.0892	13
234.09959	17
259.0137	27
274.9913	21
291.55829	11
299.0787	21
464.1243	6
481.31799	6

NAME: 8-Methylthiooctyl glucosinolate; LC-ESI-ITFT; MS2; HCD; CE 80.0 eV; [M-H]-
PRECURSORMZ: 476.108817
PRECURSORTYPE: [M-H]-
FORMULA: C16H31NO9S3
Ontology: Alkylglucosinolates
INCHIKEY: CWOJBEDMJKZKAB-STPBKMPXSA-N
SMILES: CSCCCCCCCC\C(S[C@@H]1O[C@H](CO)[C@@H](O)[C@H](O)[C@H]1O)=N/OS(O)(=O)=O
RETENTIONTIME: 
CCS: 198.7443314
IONMODE: Negative
INSTRUMENTTYPE: LC-ESI-ITFT
INSTRUMENT: 
COLLISIONENERGY: 80.0
Comment: registered in MassBank
Num Peaks: 26
71.01444	9
74.76144	11
74.99156	202
79.95792	106
80.966	13
85.03013	13
95.93907	6
95.94576	7
95.95274	595
96.91862	5
96.9467	11
96.95088	8
96.96046	1000
96.96942	7
96.97394	8
97.00174	6
101.0249	8
127.9246	13
138.9707	11
219.088	9
234.10001	21
259.01419	37
274.99051	24
283.05179	10
291.56659	7
299.04581	15

NAME: 8-Methylthiooctyl glucosinolate; LC-ESI-ITFT; MS2; HCD; CE 75.0 eV; [M-H]-
PRECURSORMZ: 476.108817
PRECURSORTYPE: [M-H]-
FORMULA: C16H31NO9S3
Ontology: Alkylglucosinolates
INCHIKEY: CWOJBEDMJKZKAB-STPBKMPXSA-N
SMILES: CSCCCCCCCC\C(S[C@@H]1O[C@H](CO)[C@@H](O)[C@H](O)[C@H]1O)=N/OS(O)(=O)=O
RETENTIONTIME: 
CCS: 198.7443314
IONMODE: Negative
INSTRUMENTTYPE: LC-ESI-ITFT
INSTRUMENT: 
COLLISIONENERGY: 75.0
Comment: registered in MassBank
Num Peaks: 22
74.7668	10
74.99158	93
79.95791	67
80.96563	9
85.02953	7
95.95258	502
96.91885	10
96.94732	8
96.96031	1000
96.97446	9
101.0242	7
127.924	13
128.933	6
138.9702	7
234.0994	32
259.0137	34
274.9903	37
283.05051	11
291.57101	11
299.0672	20
313.60529	6
476.10818	10

NAME: 8-Methylthiooctyl glucosinolate; LC-ESI-ITFT; MS2; HCD; CE 55.0 eV; [M-H]-
PRECURSORMZ: 476.108817
PRECURSORTYPE: [M-H]-
FORMULA: C16H31NO9S3
Ontology: Alkylglucosinolates
INCHIKEY: CWOJBEDMJKZKAB-STPBKMPXSA-N
SMILES: CSCCCCCCCC\C(S[C@@H]1O[C@H](CO)[C@@H](O)[C@H](O)[C@H]1O)=N/OS(O)(=O)=O
RETENTIONTIME: 
CCS: 198.7443314
IONMODE: Negative
INSTRUMENTTYPE: LC-ESI-ITFT
INSTRUMENT: 
COLLISIONENERGY: 55.0
Comment: registered in MassBank
Num Peaks: 28
74.99144	111
79.95775	59
80.96589	6
85.03003	13
95.95262	251
96.91906	7
96.94622	10
96.96027	1000
96.96783	7
96.97401	9
97.00199	6
97.95977	5
98.95604	13
127.9249	5
128.93221	7
145.0509	6
163.06129	6
195.03371	6
227.0239	11
234.09979	27
259.013	37
274.98999	37
280.069	6
283.05029	16
290.98599	9
298.07889	5
299.0705	9
476.10919	247

NAME: 8-Methylthiooctyl glucosinolate; LC-ESI-ITFT; MS2; HCD; CE 85.0 eV; [M-H]-
PRECURSORMZ: 476.108817
PRECURSORTYPE: [M-H]-
FORMULA: C16H31NO9S3
Ontology: Alkylglucosinolates
INCHIKEY: CWOJBEDMJKZKAB-STPBKMPXSA-N
SMILES: CSCCCCCCCC\C(S[C@@H]1O[C@H](CO)[C@@H](O)[C@H](O)[C@H]1O)=N/OS(O)(=O)=O
RETENTIONTIME: 
CCS: 198.7443314
IONMODE: Negative
INSTRUMENTTYPE: LC-ESI-ITFT
INSTRUMENT: 
COLLISIONENERGY: 85.0
Comment: registered in MassBank
Num Peaks: 27
71.01401	6
74.76678	8
74.99151	108
79.95785	75
80.96539	12
85.02984	10
95.91068	6
95.9388	8
95.9525	634
95.96452	7
96.91872	7
96.94636	12
96.95156	9
96.9602	1000
96.97236	10
97.00131	7
101.0249	9
127.925	10
128.9319	6
138.9706	17
219.08791	8
234.10001	24
259.013	37
274.98999	21
283.05081	8
291.5397	8
299.06821	15

NAME: 8-Methylthiooctyl glucosinolate; LC-ESI-ITFT; MS2; HCD; CE 70.0 eV; [M-H]-
PRECURSORMZ: 476.108817
PRECURSORTYPE: [M-H]-
FORMULA: C16H31NO9S3
Ontology: Alkylglucosinolates
INCHIKEY: CWOJBEDMJKZKAB-STPBKMPXSA-N
SMILES: CSCCCCCCCC\C(S[C@@H]1O[C@H](CO)[C@@H](O)[C@H](O)[C@H]1O)=N/OS(O)(=O)=O
RETENTIONTIME: 
CCS: 198.7443314
IONMODE: Negative
INSTRUMENTTYPE: LC-ESI-ITFT
INSTRUMENT: 
COLLISIONENERGY: 70.0
Comment: registered in MassBank
Num Peaks: 24
71.01449	6
74.76811	7
74.99153	172
79.95787	85
80.9658	8
85.02982	13
95.95271	461
95.96642	6
96.91863	7
96.94754	12
96.96037	1000
96.96868	5
96.9744	14
97.0014	6
101.0249	6
127.9245	7
128.9334	5
234.09979	29
259.01349	39
274.9906	41
283.05029	12
291.57169	7
299.0705	12
476.11069	28

NAME: 8-Methylthiooctyl glucosinolate; LC-ESI-ITFT; MS2; HCD; CE 45.0 eV; [M-H]-
PRECURSORMZ: 476.108817
PRECURSORTYPE: [M-H]-
FORMULA: C16H31NO9S3
Ontology: Alkylglucosinolates
INCHIKEY: CWOJBEDMJKZKAB-STPBKMPXSA-N
SMILES: CSCCCCCCCC\C(S[C@@H]1O[C@H](CO)[C@@H](O)[C@H](O)[C@H]1O)=N/OS(O)(=O)=O
RETENTIONTIME: 
CCS: 198.7443314
IONMODE: Negative
INSTRUMENTTYPE: LC-ESI-ITFT
INSTRUMENT: 
COLLISIONENERGY: 45.0
Comment: registered in MassBank
Num Peaks: 2
96.96049	559
476.10999	1000

NAME: 8-Methylthiooctyl glucosinolate; LC-ESI-ITFT; MS2; HCD; CE 50.0 eV; [M-H]-
PRECURSORMZ: 476.108817
PRECURSORTYPE: [M-H]-
FORMULA: C16H31NO9S3
Ontology: Alkylglucosinolates
INCHIKEY: CWOJBEDMJKZKAB-STPBKMPXSA-N
SMILES: CSCCCCCCCC\C(S[C@@H]1O[C@H](CO)[C@@H](O)[C@H](O)[C@H]1O)=N/OS(O)(=O)=O
RETENTIONTIME: 
CCS: 198.7443314
IONMODE: Negative
INSTRUMENTTYPE: LC-ESI-ITFT
INSTRUMENT: 
COLLISIONENERGY: 50.0
Comment: registered in MassBank
Num Peaks: 22
74.76646	9
74.99153	68
79.95788	47
85.02998	11
95.95268	178
96.94671	13
96.96042	1000
96.974	8
109.6933	6
128.9333	7
145.0513	7
195.03551	8
227.0233	19
234.0997	24
259.01321	38
274.99081	36
283.05261	7
290.98541	11
291.59698	10
299.06369	23
468.44919	6
476.10971	621

NAME: Tryptophan; LC-ESI-ITFT; MS2; HCD; CE 15.0 eV; [M-H]-
PRECURSORMZ: 203.082601
PRECURSORTYPE: [M-H]-
FORMULA: C11H12N2O2
Ontology: Indolyl carboxylic acids and derivatives
INCHIKEY: QIVBCDIJIAJPQS-UHFFFAOYNA-N
SMILES: NC(CC1=CNC2=CC=CC=C12)C(O)=O
RETENTIONTIME: 
CCS: 146.6599072
IONMODE: Negative
INSTRUMENTTYPE: LC-ESI-ITFT
INSTRUMENT: 
COLLISIONENERGY: 15.0
Comment: registered in MassBank
Num Peaks: 7
116.0513	67
142.06709	16
159.0937	199
186.0571	12
203.0737	12
203.0835	1000
203.0909	12

NAME: Tryptophan; LC-ESI-ITFT; MS2; HCD; CE 90.0 eV; [M-H]-
PRECURSORMZ: 203.082601
PRECURSORTYPE: [M-H]-
FORMULA: C11H12N2O2
Ontology: Indolyl carboxylic acids and derivatives
INCHIKEY: QIVBCDIJIAJPQS-UHFFFAOYNA-N
SMILES: NC(CC1=CNC2=CC=CC=C12)C(O)=O
RETENTIONTIME: 
CCS: 146.6599072
IONMODE: Negative
INSTRUMENTTYPE: LC-ESI-ITFT
INSTRUMENT: 
COLLISIONENERGY: 90.0
Comment: registered in MassBank
Num Peaks: 5
74.02554	152
116.0512	1000
142.067	308
159.0936	97
203.0836	341

NAME: Tryptophan; LC-ESI-ITFT; MS2; HCD; CE 25.0 eV; [M-H]-
PRECURSORMZ: 203.082601
PRECURSORTYPE: [M-H]-
FORMULA: C11H12N2O2
Ontology: Indolyl carboxylic acids and derivatives
INCHIKEY: QIVBCDIJIAJPQS-UHFFFAOYNA-N
SMILES: NC(CC1=CNC2=CC=CC=C12)C(O)=O
RETENTIONTIME: 
CCS: 146.6599072
IONMODE: Negative
INSTRUMENTTYPE: LC-ESI-ITFT
INSTRUMENT: 
COLLISIONENERGY: 25.0
Comment: registered in MassBank
Num Peaks: 5
116.0513	239
142.06709	81
159.0938	606
186.0571	36
203.0836	1000

NAME: Tryptophan; LC-ESI-ITFT; MS2; HCD; CE 75.0 eV; [M-H]-
PRECURSORMZ: 203.082601
PRECURSORTYPE: [M-H]-
FORMULA: C11H12N2O2
Ontology: Indolyl carboxylic acids and derivatives
INCHIKEY: QIVBCDIJIAJPQS-UHFFFAOYNA-N
SMILES: NC(CC1=CNC2=CC=CC=C12)C(O)=O
RETENTIONTIME: 
CCS: 146.6599072
IONMODE: Negative
INSTRUMENTTYPE: LC-ESI-ITFT
INSTRUMENT: 
COLLISIONENERGY: 75.0
Comment: registered in MassBank
Num Peaks: 5
74.02547	221
116.0513	922
142.06709	236
159.0937	213
203.08369	1000

NAME: Tryptophan; LC-ESI-ITFT; MS2; HCD; CE 20.0 eV; [M-H]-
PRECURSORMZ: 203.082601
PRECURSORTYPE: [M-H]-
FORMULA: C11H12N2O2
Ontology: Indolyl carboxylic acids and derivatives
INCHIKEY: QIVBCDIJIAJPQS-UHFFFAOYNA-N
SMILES: NC(CC1=CNC2=CC=CC=C12)C(O)=O
RETENTIONTIME: 
CCS: 146.6599072
IONMODE: Negative
INSTRUMENTTYPE: LC-ESI-ITFT
INSTRUMENT: 
COLLISIONENERGY: 20.0
Comment: registered in MassBank
Num Peaks: 7
116.0513	212
142.06709	82
159.0937	563
186.05721	38
203.0739	14
203.0835	1000
203.09151	13

NAME: Tryptophan; LC-ESI-ITFT; MS2; HCD; CE 35.0 eV; [M-H]-
PRECURSORMZ: 203.082601
PRECURSORTYPE: [M-H]-
FORMULA: C11H12N2O2
Ontology: Indolyl carboxylic acids and derivatives
INCHIKEY: QIVBCDIJIAJPQS-UHFFFAOYNA-N
SMILES: NC(CC1=CNC2=CC=CC=C12)C(O)=O
RETENTIONTIME: 
CCS: 146.6599072
IONMODE: Negative
INSTRUMENTTYPE: LC-ESI-ITFT
INSTRUMENT: 
COLLISIONENERGY: 35.0
Comment: registered in MassBank
Num Peaks: 19
74.02554	9
116.048	6
116.0513	394
116.0555	7
130.06689	6
142.06709	153
159.0809	6
159.084	10
159.0856	6
159.0887	15
159.0938	1000
159.0972	26
159.10049	15
159.1019	8
159.1051	7
159.1082	5
173.04919	14
186.0571	78
203.0838	23

NAME: Tryptophan; LC-ESI-ITFT; MS2; HCD; CE 95.0 eV; [M-H]-
PRECURSORMZ: 203.082601
PRECURSORTYPE: [M-H]-
FORMULA: C11H12N2O2
Ontology: Indolyl carboxylic acids and derivatives
INCHIKEY: QIVBCDIJIAJPQS-UHFFFAOYNA-N
SMILES: NC(CC1=CNC2=CC=CC=C12)C(O)=O
RETENTIONTIME: 
CCS: 146.6599072
IONMODE: Negative
INSTRUMENTTYPE: LC-ESI-ITFT
INSTRUMENT: 
COLLISIONENERGY: 95.0
Comment: registered in MassBank
Num Peaks: 5
74.02543	298
116.0512	1000
142.067	274
159.0936	70
203.08369	169

NAME: Tryptophan; LC-ESI-ITFT; MS2; HCD; CE 40.0 eV; [M-H]-
PRECURSORMZ: 203.082601
PRECURSORTYPE: [M-H]-
FORMULA: C11H12N2O2
Ontology: Indolyl carboxylic acids and derivatives
INCHIKEY: QIVBCDIJIAJPQS-UHFFFAOYNA-N
SMILES: NC(CC1=CNC2=CC=CC=C12)C(O)=O
RETENTIONTIME: 
CCS: 146.6599072
IONMODE: Negative
INSTRUMENTTYPE: LC-ESI-ITFT
INSTRUMENT: 
COLLISIONENERGY: 40.0
Comment: registered in MassBank
Num Peaks: 3
116.0513	32
159.0937	39
203.0836	1000

NAME: Tryptophan; LC-ESI-ITFT; MS2; HCD; CE 50.0 eV; [M-H]-
PRECURSORMZ: 203.082601
PRECURSORTYPE: [M-H]-
FORMULA: C11H12N2O2
Ontology: Indolyl carboxylic acids and derivatives
INCHIKEY: QIVBCDIJIAJPQS-UHFFFAOYNA-N
SMILES: NC(CC1=CNC2=CC=CC=C12)C(O)=O
RETENTIONTIME: 
CCS: 146.6599072
IONMODE: Negative
INSTRUMENTTYPE: LC-ESI-ITFT
INSTRUMENT: 
COLLISIONENERGY: 50.0
Comment: registered in MassBank
Num Peaks: 4
116.0513	95
142.06709	21
159.0937	80
203.0836	1000

NAME: Tryptophan; LC-ESI-ITFT; MS2; HCD; CE 65.0 eV; [M-H]-
PRECURSORMZ: 203.082601
PRECURSORTYPE: [M-H]-
FORMULA: C11H12N2O2
Ontology: Indolyl carboxylic acids and derivatives
INCHIKEY: QIVBCDIJIAJPQS-UHFFFAOYNA-N
SMILES: NC(CC1=CNC2=CC=CC=C12)C(O)=O
RETENTIONTIME: 
CCS: 146.6599072
IONMODE: Negative
INSTRUMENTTYPE: LC-ESI-ITFT
INSTRUMENT: 
COLLISIONENERGY: 65.0
Comment: registered in MassBank
Num Peaks: 7
74.02547	77
116.0513	387
142.067	109
159.0937	164
186.05701	24
203.0739	16
203.0835	1000

NAME: Tryptophan; LC-ESI-ITFT; MS2; HCD; CE 60.0 eV; [M-H]-
PRECURSORMZ: 203.082601
PRECURSORTYPE: [M-H]-
FORMULA: C11H12N2O2
Ontology: Indolyl carboxylic acids and derivatives
INCHIKEY: QIVBCDIJIAJPQS-UHFFFAOYNA-N
SMILES: NC(CC1=CNC2=CC=CC=C12)C(O)=O
RETENTIONTIME: 
CCS: 146.6599072
IONMODE: Negative
INSTRUMENTTYPE: LC-ESI-ITFT
INSTRUMENT: 
COLLISIONENERGY: 60.0
Comment: registered in MassBank
Num Peaks: 5
74.02549	41
116.0513	249
142.067	66
159.0938	128
203.0835	1000

NAME: Tryptophan; LC-ESI-ITFT; MS2; HCD; CE 80.0 eV; [M-H]-
PRECURSORMZ: 203.082601
PRECURSORTYPE: [M-H]-
FORMULA: C11H12N2O2
Ontology: Indolyl carboxylic acids and derivatives
INCHIKEY: QIVBCDIJIAJPQS-UHFFFAOYNA-N
SMILES: NC(CC1=CNC2=CC=CC=C12)C(O)=O
RETENTIONTIME: 
CCS: 146.6599072
IONMODE: Negative
INSTRUMENTTYPE: LC-ESI-ITFT
INSTRUMENT: 
COLLISIONENERGY: 80.0
Comment: registered in MassBank
Num Peaks: 5
74.02547	262
116.0513	1000
142.06709	264
159.0937	193
203.08369	738

NAME: Tryptophan; LC-ESI-ITFT; MS2; HCD; CE 5.0 eV; [M-H]-
PRECURSORMZ: 203.082601
PRECURSORTYPE: [M-H]-
FORMULA: C11H12N2O2
Ontology: Indolyl carboxylic acids and derivatives
INCHIKEY: QIVBCDIJIAJPQS-UHFFFAOYNA-N
SMILES: NC(CC1=CNC2=CC=CC=C12)C(O)=O
RETENTIONTIME: 
CCS: 146.6599072
IONMODE: Negative
INSTRUMENTTYPE: LC-ESI-ITFT
INSTRUMENT: 
COLLISIONENERGY: 5.0
Comment: registered in MassBank
Num Peaks: 10
159.0938	11
203.0649	6
203.0694	10
203.07359	10
203.0759	6
203.0836	1000
203.09331	6
203.0956	10
203.0999	6
203.10429	6

NAME: Tryptophan; LC-ESI-ITFT; MS2; HCD; CE 30.0 eV; [M-H]-
PRECURSORMZ: 203.082601
PRECURSORTYPE: [M-H]-
FORMULA: C11H12N2O2
Ontology: Indolyl carboxylic acids and derivatives
INCHIKEY: QIVBCDIJIAJPQS-UHFFFAOYNA-N
SMILES: NC(CC1=CNC2=CC=CC=C12)C(O)=O
RETENTIONTIME: 
CCS: 146.6599072
IONMODE: Negative
INSTRUMENTTYPE: LC-ESI-ITFT
INSTRUMENT: 
COLLISIONENERGY: 30.0
Comment: registered in MassBank
Num Peaks: 5
116.0512	356
142.06709	158
159.0936	1000
186.0571	70
203.08369	22

NAME: Tryptophan; LC-ESI-ITFT; MS2; HCD; CE 55.0 eV; [M-H]-
PRECURSORMZ: 203.082601
PRECURSORTYPE: [M-H]-
FORMULA: C11H12N2O2
Ontology: Indolyl carboxylic acids and derivatives
INCHIKEY: QIVBCDIJIAJPQS-UHFFFAOYNA-N
SMILES: NC(CC1=CNC2=CC=CC=C12)C(O)=O
RETENTIONTIME: 
CCS: 146.6599072
IONMODE: Negative
INSTRUMENTTYPE: LC-ESI-ITFT
INSTRUMENT: 
COLLISIONENERGY: 55.0
Comment: registered in MassBank
Num Peaks: 4
116.0513	162
142.06709	35
159.0937	103
203.0836	1000

NAME: Tryptophan; LC-ESI-ITFT; MS2; HCD; CE 45.0 eV; [M-H]-
PRECURSORMZ: 203.082601
PRECURSORTYPE: [M-H]-
FORMULA: C11H12N2O2
Ontology: Indolyl carboxylic acids and derivatives
INCHIKEY: QIVBCDIJIAJPQS-UHFFFAOYNA-N
SMILES: NC(CC1=CNC2=CC=CC=C12)C(O)=O
RETENTIONTIME: 
CCS: 146.6599072
IONMODE: Negative
INSTRUMENTTYPE: LC-ESI-ITFT
INSTRUMENT: 
COLLISIONENERGY: 45.0
Comment: registered in MassBank
Num Peaks: 3
116.0513	58
159.0938	65
203.0836	1000

NAME: Tryptophan; LC-ESI-ITFT; MS2; HCD; CE 85.0 eV; [M-H]-
PRECURSORMZ: 203.082601
PRECURSORTYPE: [M-H]-
FORMULA: C11H12N2O2
Ontology: Indolyl carboxylic acids and derivatives
INCHIKEY: QIVBCDIJIAJPQS-UHFFFAOYNA-N
SMILES: NC(CC1=CNC2=CC=CC=C12)C(O)=O
RETENTIONTIME: 
CCS: 146.6599072
IONMODE: Negative
INSTRUMENTTYPE: LC-ESI-ITFT
INSTRUMENT: 
COLLISIONENERGY: 85.0
Comment: registered in MassBank
Num Peaks: 6
74.0255	220
116.0513	1000
142.067	304
159.0937	141
186.05701	43
203.08369	498

NAME: Tryptophan; LC-ESI-ITFT; MS2; HCD; CE 70.0 eV; [M-H]-
PRECURSORMZ: 203.082601
PRECURSORTYPE: [M-H]-
FORMULA: C11H12N2O2
Ontology: Indolyl carboxylic acids and derivatives
INCHIKEY: QIVBCDIJIAJPQS-UHFFFAOYNA-N
SMILES: NC(CC1=CNC2=CC=CC=C12)C(O)=O
RETENTIONTIME: 
CCS: 146.6599072
IONMODE: Negative
INSTRUMENTTYPE: LC-ESI-ITFT
INSTRUMENT: 
COLLISIONENERGY: 70.0
Comment: registered in MassBank
Num Peaks: 7
72.00977	24
74.02547	155
116.0512	606
142.067	179
159.0937	210
186.0571	32
203.0835	1000

NAME: Tryptophan; LC-ESI-ITFT; MS2; HCD; CE 10.0 eV; [M-H]-
PRECURSORMZ: 203.082601
PRECURSORTYPE: [M-H]-
FORMULA: C11H12N2O2
Ontology: Indolyl carboxylic acids and derivatives
INCHIKEY: QIVBCDIJIAJPQS-UHFFFAOYNA-N
SMILES: NC(CC1=CNC2=CC=CC=C12)C(O)=O
RETENTIONTIME: 
CCS: 146.6599072
IONMODE: Negative
INSTRUMENTTYPE: LC-ESI-ITFT
INSTRUMENT: 
COLLISIONENERGY: 10.0
Comment: registered in MassBank
Num Peaks: 5
116.0513	65
142.067	17
159.0938	195
186.0571	10
203.0835	1000

NAME: Glucoraphanin; LC-ESI-ITFT; MS2; HCD; CE 15.0 eV; [M-H]-
PRECURSORMZ: 436.041132
PRECURSORTYPE: [M-H]-
FORMULA: C12H23NO10S3
Ontology: Alkylglucosinolates
INCHIKEY: GMMLNKINDDUDCF-RFOBZYEESA-N
SMILES: CS(=O)CCCC\C(S[C@@H]1O[C@H](CO)[C@@H](O)[C@H](O)[C@H]1O)=N/OS(O)(=O)=O
RETENTIONTIME: 
CCS: 184.6848416
IONMODE: Negative
INSTRUMENTTYPE: LC-ESI-ITFT
INSTRUMENT: 
COLLISIONENERGY: 15.0
Comment: registered in MassBank
Num Peaks: 4
435.91199	5
436.04111	1000
436.1275	6
436.1694	6

NAME: Glucoraphanin; LC-ESI-ITFT; MS2; HCD; CE 25.0 eV; [M-H]-
PRECURSORMZ: 436.041132
PRECURSORTYPE: [M-H]-
FORMULA: C12H23NO10S3
Ontology: Alkylglucosinolates
INCHIKEY: GMMLNKINDDUDCF-RFOBZYEESA-N
SMILES: CS(=O)CCCC\C(S[C@@H]1O[C@H](CO)[C@@H](O)[C@H](O)[C@H]1O)=N/OS(O)(=O)=O
RETENTIONTIME: 
CCS: 184.6848416
IONMODE: Negative
INSTRUMENTTYPE: LC-ESI-ITFT
INSTRUMENT: 
COLLISIONENERGY: 25.0
Comment: registered in MassBank
Num Peaks: 3
435.92819	5
436.04089	1000
436.17471	6

NAME: Glucoraphanin; LC-ESI-ITFT; MS2; HCD; CE 5.0 eV; [M-H]-
PRECURSORMZ: 436.041132
PRECURSORTYPE: [M-H]-
FORMULA: C12H23NO10S3
Ontology: Alkylglucosinolates
INCHIKEY: GMMLNKINDDUDCF-RFOBZYEESA-N
SMILES: CS(=O)CCCC\C(S[C@@H]1O[C@H](CO)[C@@H](O)[C@H](O)[C@H]1O)=N/OS(O)(=O)=O
RETENTIONTIME: 
CCS: 184.6848416
IONMODE: Negative
INSTRUMENTTYPE: LC-ESI-ITFT
INSTRUMENT: 
COLLISIONENERGY: 5.0
Comment: registered in MassBank
Num Peaks: 2
436.0408	1000
436.1745	6

NAME: Glucoraphanin; LC-ESI-ITFT; MS2; HCD; CE 35.0 eV; [M-H]-
PRECURSORMZ: 436.041132
PRECURSORTYPE: [M-H]-
FORMULA: C12H23NO10S3
Ontology: Alkylglucosinolates
INCHIKEY: GMMLNKINDDUDCF-RFOBZYEESA-N
SMILES: CS(=O)CCCC\C(S[C@@H]1O[C@H](CO)[C@@H](O)[C@H](O)[C@H]1O)=N/OS(O)(=O)=O
RETENTIONTIME: 
CCS: 184.6848416
IONMODE: Negative
INSTRUMENTTYPE: LC-ESI-ITFT
INSTRUMENT: 
COLLISIONENERGY: 35.0
Comment: registered in MassBank
Num Peaks: 4
372.04279	27
435.9071	8
436.04129	1000
436.1557	7

NAME: Glucoraphanin; LC-ESI-ITFT; MS2; HCD; CE 20.0 eV; [M-H]-
PRECURSORMZ: 436.041132
PRECURSORTYPE: [M-H]-
FORMULA: C12H23NO10S3
Ontology: Alkylglucosinolates
INCHIKEY: GMMLNKINDDUDCF-RFOBZYEESA-N
SMILES: CS(=O)CCCC\C(S[C@@H]1O[C@H](CO)[C@@H](O)[C@H](O)[C@H]1O)=N/OS(O)(=O)=O
RETENTIONTIME: 
CCS: 184.6848416
IONMODE: Negative
INSTRUMENTTYPE: LC-ESI-ITFT
INSTRUMENT: 
COLLISIONENERGY: 20.0
Comment: registered in MassBank
Num Peaks: 2
435.90701	6
436.04129	1000

NAME: Glucoraphanin; LC-ESI-ITFT; MS2; HCD; CE 30.0 eV; [M-H]-
PRECURSORMZ: 436.041132
PRECURSORTYPE: [M-H]-
FORMULA: C12H23NO10S3
Ontology: Alkylglucosinolates
INCHIKEY: GMMLNKINDDUDCF-RFOBZYEESA-N
SMILES: CS(=O)CCCC\C(S[C@@H]1O[C@H](CO)[C@@H](O)[C@H](O)[C@H]1O)=N/OS(O)(=O)=O
RETENTIONTIME: 
CCS: 184.6848416
IONMODE: Negative
INSTRUMENTTYPE: LC-ESI-ITFT
INSTRUMENT: 
COLLISIONENERGY: 30.0
Comment: registered in MassBank
Num Peaks: 4
372.04291	9
435.9184	5
436.0412	1000
436.17319	6

NAME: Glucoraphanin; LC-ESI-ITFT; MS2; HCD; CE 45.0 eV; [M-H]-
PRECURSORMZ: 436.041132
PRECURSORTYPE: [M-H]-
FORMULA: C12H23NO10S3
Ontology: Alkylglucosinolates
INCHIKEY: GMMLNKINDDUDCF-RFOBZYEESA-N
SMILES: CS(=O)CCCC\C(S[C@@H]1O[C@H](CO)[C@@H](O)[C@H](O)[C@H]1O)=N/OS(O)(=O)=O
RETENTIONTIME: 
CCS: 184.6848416
IONMODE: Negative
INSTRUMENTTYPE: LC-ESI-ITFT
INSTRUMENT: 
COLLISIONENERGY: 45.0
Comment: registered in MassBank
Num Peaks: 8
178.01759	18
259.01251	7
372.04211	133
373.04471	13
421.01691	11
435.90619	5
436.04031	1000
436.17291	6

NAME: Glucoraphanin; LC-ESI-ITFT; MS2; HCD; CE 40.0 eV; [M-H]-
PRECURSORMZ: 436.041132
PRECURSORTYPE: [M-H]-
FORMULA: C12H23NO10S3
Ontology: Alkylglucosinolates
INCHIKEY: GMMLNKINDDUDCF-RFOBZYEESA-N
SMILES: CS(=O)CCCC\C(S[C@@H]1O[C@H](CO)[C@@H](O)[C@H](O)[C@H]1O)=N/OS(O)(=O)=O
RETENTIONTIME: 
CCS: 184.6848416
IONMODE: Negative
INSTRUMENTTYPE: LC-ESI-ITFT
INSTRUMENT: 
COLLISIONENERGY: 40.0
Comment: registered in MassBank
Num Peaks: 6
178.0179	7
372.04251	61
373.04501	6
435.92731	6
436.04111	1000
436.17429	8

NAME: Glucoraphanin; LC-ESI-ITFT; MS2; HCD; CE 50.0 eV; [M-H]-
PRECURSORMZ: 436.041132
PRECURSORTYPE: [M-H]-
FORMULA: C12H23NO10S3
Ontology: Alkylglucosinolates
INCHIKEY: GMMLNKINDDUDCF-RFOBZYEESA-N
SMILES: CS(=O)CCCC\C(S[C@@H]1O[C@H](CO)[C@@H](O)[C@H](O)[C@H]1O)=N/OS(O)(=O)=O
RETENTIONTIME: 
CCS: 184.6848416
IONMODE: Negative
INSTRUMENTTYPE: LC-ESI-ITFT
INSTRUMENT: 
COLLISIONENERGY: 50.0
Comment: registered in MassBank
Num Peaks: 8
178.0179	52
259.013	15
274.99011	9
372.04291	260
373.04559	28
421.01801	29
435.90631	8
436.04111	1000

NAME: Glucoraphanin; LC-ESI-ITFT; MS2; HCD; CE 10.0 eV; [M-H]-
PRECURSORMZ: 436.041132
PRECURSORTYPE: [M-H]-
FORMULA: C12H23NO10S3
Ontology: Alkylglucosinolates
INCHIKEY: GMMLNKINDDUDCF-RFOBZYEESA-N
SMILES: CS(=O)CCCC\C(S[C@@H]1O[C@H](CO)[C@@H](O)[C@H](O)[C@H]1O)=N/OS(O)(=O)=O
RETENTIONTIME: 
CCS: 184.6848416
IONMODE: Negative
INSTRUMENTTYPE: LC-ESI-ITFT
INSTRUMENT: 
COLLISIONENERGY: 10.0
Comment: registered in MassBank
Num Peaks: 4
435.89709	6
435.92331	6
436.04071	1000
436.1745	8

NAME: Glucoraphanin; LC-ESI-ITFT; MS2; HCD; CE 65.0 eV; [M-H]-
PRECURSORMZ: 436.041132
PRECURSORTYPE: [M-H]-
FORMULA: C12H23NO10S3
Ontology: Alkylglucosinolates
INCHIKEY: GMMLNKINDDUDCF-RFOBZYEESA-N
SMILES: CS(=O)CCCC\C(S[C@@H]1O[C@H](CO)[C@@H](O)[C@H](O)[C@H]1O)=N/OS(O)(=O)=O
RETENTIONTIME: 
CCS: 184.6848416
IONMODE: Negative
INSTRUMENTTYPE: LC-ESI-ITFT
INSTRUMENT: 
COLLISIONENERGY: 65.0
Comment: registered in MassBank
Num Peaks: 8
178.0179	672
194.0314	44
259.01279	114
274.9895	82
372.0426	1000
373.04581	77
421.01749	258
436.04099	750

NAME: Glucoraphanin; LC-ESI-ITFT; MS2; HCD; CE 90.0 eV; [M-H]-
PRECURSORMZ: 436.041132
PRECURSORTYPE: [M-H]-
FORMULA: C12H23NO10S3
Ontology: Alkylglucosinolates
INCHIKEY: GMMLNKINDDUDCF-RFOBZYEESA-N
SMILES: CS(=O)CCCC\C(S[C@@H]1O[C@H](CO)[C@@H](O)[C@H](O)[C@H]1O)=N/OS(O)(=O)=O
RETENTIONTIME: 
CCS: 184.6848416
IONMODE: Negative
INSTRUMENTTYPE: LC-ESI-ITFT
INSTRUMENT: 
COLLISIONENERGY: 90.0
Comment: registered in MassBank
Num Peaks: 3
178.01801	1000
259.01291	107
372.0426	83

NAME: Glucoraphanin; LC-ESI-ITFT; MS2; HCD; CE 60.0 eV; [M-H]-
PRECURSORMZ: 436.041132
PRECURSORTYPE: [M-H]-
FORMULA: C12H23NO10S3
Ontology: Alkylglucosinolates
INCHIKEY: GMMLNKINDDUDCF-RFOBZYEESA-N
SMILES: CS(=O)CCCC\C(S[C@@H]1O[C@H](CO)[C@@H](O)[C@H](O)[C@H]1O)=N/OS(O)(=O)=O
RETENTIONTIME: 
CCS: 184.6848416
IONMODE: Negative
INSTRUMENTTYPE: LC-ESI-ITFT
INSTRUMENT: 
COLLISIONENERGY: 60.0
Comment: registered in MassBank
Num Peaks: 7
178.0181	436
259.01309	90
274.99011	57
372.0433	875
373.04611	138
421.01859	186
436.0416	1000

NAME: Glucoraphanin; LC-ESI-ITFT; MS2; HCD; CE 80.0 eV; [M-H]-
PRECURSORMZ: 436.041132
PRECURSORTYPE: [M-H]-
FORMULA: C12H23NO10S3
Ontology: Alkylglucosinolates
INCHIKEY: GMMLNKINDDUDCF-RFOBZYEESA-N
SMILES: CS(=O)CCCC\C(S[C@@H]1O[C@H](CO)[C@@H](O)[C@H](O)[C@H]1O)=N/OS(O)(=O)=O
RETENTIONTIME: 
CCS: 184.6848416
IONMODE: Negative
INSTRUMENTTYPE: LC-ESI-ITFT
INSTRUMENT: 
COLLISIONENERGY: 80.0
Comment: registered in MassBank
Num Peaks: 7
178.01781	1000
194.0312	50
259.0126	128
274.9895	88
372.04239	289
421.01749	132
436.04111	53

NAME: Glucoraphanin; LC-ESI-ITFT; MS2; HCD; CE 75.0 eV; [M-H]-
PRECURSORMZ: 436.041132
PRECURSORTYPE: [M-H]-
FORMULA: C12H23NO10S3
Ontology: Alkylglucosinolates
INCHIKEY: GMMLNKINDDUDCF-RFOBZYEESA-N
SMILES: CS(=O)CCCC\C(S[C@@H]1O[C@H](CO)[C@@H](O)[C@H](O)[C@H]1O)=N/OS(O)(=O)=O
RETENTIONTIME: 
CCS: 184.6848416
IONMODE: Negative
INSTRUMENTTYPE: LC-ESI-ITFT
INSTRUMENT: 
COLLISIONENERGY: 75.0
Comment: registered in MassBank
Num Peaks: 7
178.01781	1000
194.0311	53
259.01279	135
274.98941	88
372.04251	521
421.01749	207
436.0412	168

NAME: Glucoraphanin; LC-ESI-ITFT; MS2; HCD; CE 55.0 eV; [M-H]-
PRECURSORMZ: 436.041132
PRECURSORTYPE: [M-H]-
FORMULA: C12H23NO10S3
Ontology: Alkylglucosinolates
INCHIKEY: GMMLNKINDDUDCF-RFOBZYEESA-N
SMILES: CS(=O)CCCC\C(S[C@@H]1O[C@H](CO)[C@@H](O)[C@H](O)[C@H]1O)=N/OS(O)(=O)=O
RETENTIONTIME: 
CCS: 184.6848416
IONMODE: Negative
INSTRUMENTTYPE: LC-ESI-ITFT
INSTRUMENT: 
COLLISIONENERGY: 55.0
Comment: registered in MassBank
Num Peaks: 7
178.01781	156
259.01279	37
274.98981	23
372.04269	488
373.04559	50
421.01761	80
436.04089	1000

NAME: Glucoraphanin; LC-ESI-ITFT; MS2; HCD; CE 85.0 eV; [M-H]-
PRECURSORMZ: 436.041132
PRECURSORTYPE: [M-H]-
FORMULA: C12H23NO10S3
Ontology: Alkylglucosinolates
INCHIKEY: GMMLNKINDDUDCF-RFOBZYEESA-N
SMILES: CS(=O)CCCC\C(S[C@@H]1O[C@H](CO)[C@@H](O)[C@H](O)[C@H]1O)=N/OS(O)(=O)=O
RETENTIONTIME: 
CCS: 184.6848416
IONMODE: Negative
INSTRUMENTTYPE: LC-ESI-ITFT
INSTRUMENT: 
COLLISIONENERGY: 85.0
Comment: registered in MassBank
Num Peaks: 5
178.01801	1000
259.01309	117
274.98959	70
372.04291	150
421.01831	83

NAME: Glucoraphanin; LC-ESI-ITFT; MS2; HCD; CE 70.0 eV; [M-H]-
PRECURSORMZ: 436.041132
PRECURSORTYPE: [M-H]-
FORMULA: C12H23NO10S3
Ontology: Alkylglucosinolates
INCHIKEY: GMMLNKINDDUDCF-RFOBZYEESA-N
SMILES: CS(=O)CCCC\C(S[C@@H]1O[C@H](CO)[C@@H](O)[C@H](O)[C@H]1O)=N/OS(O)(=O)=O
RETENTIONTIME: 
CCS: 184.6848416
IONMODE: Negative
INSTRUMENTTYPE: LC-ESI-ITFT
INSTRUMENT: 
COLLISIONENERGY: 70.0
Comment: registered in MassBank
Num Peaks: 8
178.0179	1000
194.03149	65
242.9825	49
259.0127	157
274.99011	107
372.04269	937
421.01791	310
436.04129	467

NAME: 7-Methylthioheptyl glucosinolate; LC-ESI-ITFT; MS2; HCD; CE 65.0 eV; [M-H]-
PRECURSORMZ: 462.093167
PRECURSORTYPE: [M-H]-
FORMULA: C15H29NO9S3
Ontology: Alkylglucosinolates
INCHIKEY: SJHVRBSHKTUXLG-MFIRQCQASA-N
SMILES: CSCCCCCCC\C(S[C@@H]1O[C@H](CO)[C@@H](O)[C@H](O)[C@H]1O)=N/OS(O)(=O)=O
RETENTIONTIME: 
CCS: 194.4249615
IONMODE: Negative
INSTRUMENTTYPE: LC-ESI-ITFT
INSTRUMENT: 
COLLISIONENERGY: 65.0
Comment: registered in MassBank
Num Peaks: 24
74.76671	7
74.99162	53
79.95788	42
85.03	9
95.95258	294
96.9181	7
96.94627	13
96.95142	11
96.96017	1000
96.96725	11
96.97501	11
97.00183	8
98.95663	6
101.0245	7
127.9244	7
128.93221	9
145.0508	7
220.08369	45
227.0231	6
259.01291	49
269.03439	18
274.99039	50
299.06641	13
462.09409	92

NAME: 7-Methylthioheptyl glucosinolate; LC-ESI-ITFT; MS2; HCD; CE 90.0 eV; [M-H]-
PRECURSORMZ: 462.093167
PRECURSORTYPE: [M-H]-
FORMULA: C15H29NO9S3
Ontology: Alkylglucosinolates
INCHIKEY: SJHVRBSHKTUXLG-MFIRQCQASA-N
SMILES: CSCCCCCCC\C(S[C@@H]1O[C@H](CO)[C@@H](O)[C@H](O)[C@H]1O)=N/OS(O)(=O)=O
RETENTIONTIME: 
CCS: 194.4249615
IONMODE: Negative
INSTRUMENTTYPE: LC-ESI-ITFT
INSTRUMENT: 
COLLISIONENERGY: 90.0
Comment: registered in MassBank
Num Peaks: 22
74.99164	120
79.95799	68
80.96571	13
85.03007	10
95.93871	9
95.94601	9
95.95261	671
96.91795	9
96.94612	11
96.96029	1000
96.9735	8
97.94811	12
97.95981	10
98.95636	17
101.0248	8
127.9245	11
138.97121	21
205.0726	11
220.084	20
259.01331	29
274.99069	17
299.07431	12

NAME: 7-Methylthioheptyl glucosinolate; LC-ESI-ITFT; MS2; HCD; CE 60.0 eV; [M-H]-
PRECURSORMZ: 462.093167
PRECURSORTYPE: [M-H]-
FORMULA: C15H29NO9S3
Ontology: Alkylglucosinolates
INCHIKEY: SJHVRBSHKTUXLG-MFIRQCQASA-N
SMILES: CSCCCCCCC\C(S[C@@H]1O[C@H](CO)[C@@H](O)[C@H](O)[C@H]1O)=N/OS(O)(=O)=O
RETENTIONTIME: 
CCS: 194.4249615
IONMODE: Negative
INSTRUMENTTYPE: LC-ESI-ITFT
INSTRUMENT: 
COLLISIONENERGY: 60.0
Comment: registered in MassBank
Num Peaks: 25
74.76608	5
74.99164	124
79.95795	69
80.96587	7
85.03026	10
95.95284	320
96.91934	7
96.94653	9
96.96051	1000
96.97458	11
97.00246	8
97.95985	8
101.0248	9
127.9249	6
128.9325	8
145.0507	6
163.06261	5
195.03349	6
220.08411	32
227.0238	8
259.01401	39
269.03491	13
274.99081	37
299.0643	10
462.0947	161

NAME: 7-Methylthioheptyl glucosinolate; LC-ESI-ITFT; MS2; HCD; CE 80.0 eV; [M-H]-
PRECURSORMZ: 462.093167
PRECURSORTYPE: [M-H]-
FORMULA: C15H29NO9S3
Ontology: Alkylglucosinolates
INCHIKEY: SJHVRBSHKTUXLG-MFIRQCQASA-N
SMILES: CSCCCCCCC\C(S[C@@H]1O[C@H](CO)[C@@H](O)[C@H](O)[C@H]1O)=N/OS(O)(=O)=O
RETENTIONTIME: 
CCS: 194.4249615
IONMODE: Negative
INSTRUMENTTYPE: LC-ESI-ITFT
INSTRUMENT: 
COLLISIONENERGY: 80.0
Comment: registered in MassBank
Num Peaks: 16
74.99161	221
79.95794	99
80.96555	11
85.03024	9
95.9528	619
96.94632	11
96.95148	12
96.9605	1000
96.97436	10
127.9249	10
138.9711	10
220.0836	30
259.01419	41
269.03479	10
274.99011	22
299.0741	15

NAME: 7-Methylthioheptyl glucosinolate; LC-ESI-ITFT; MS2; HCD; CE 75.0 eV; [M-H]-
PRECURSORMZ: 462.093167
PRECURSORTYPE: [M-H]-
FORMULA: C15H29NO9S3
Ontology: Alkylglucosinolates
INCHIKEY: SJHVRBSHKTUXLG-MFIRQCQASA-N
SMILES: CSCCCCCCC\C(S[C@@H]1O[C@H](CO)[C@@H](O)[C@H](O)[C@H]1O)=N/OS(O)(=O)=O
RETENTIONTIME: 
CCS: 194.4249615
IONMODE: Negative
INSTRUMENTTYPE: LC-ESI-ITFT
INSTRUMENT: 
COLLISIONENERGY: 75.0
Comment: registered in MassBank
Num Peaks: 17
74.9915	205
79.95782	93
80.96556	11
85.02991	14
95.95267	548
96.91889	8
96.96034	1000
96.97448	10
101.0247	8
127.9247	9
138.9709	8
220.0836	30
259.0134	41
269.03381	11
274.99069	34
299.04691	12
462.0918	14

NAME: 7-Methylthioheptyl glucosinolate; LC-ESI-ITFT; MS2; HCD; CE 55.0 eV; [M-H]-
PRECURSORMZ: 462.093167
PRECURSORTYPE: [M-H]-
FORMULA: C15H29NO9S3
Ontology: Alkylglucosinolates
INCHIKEY: SJHVRBSHKTUXLG-MFIRQCQASA-N
SMILES: CSCCCCCCC\C(S[C@@H]1O[C@H](CO)[C@@H](O)[C@H](O)[C@H]1O)=N/OS(O)(=O)=O
RETENTIONTIME: 
CCS: 194.4249615
IONMODE: Negative
INSTRUMENTTYPE: LC-ESI-ITFT
INSTRUMENT: 
COLLISIONENERGY: 55.0
Comment: registered in MassBank
Num Peaks: 26
74.76673	9
74.99172	40
79.95798	28
85.03017	11
95.95279	175
96.91907	9
96.94643	12
96.96029	1000
96.97346	9
98.95593	11
101.025	8
128.9328	9
145.05119	12
163.0612	7
195.03391	12
220.08411	45
227.0233	18
259.01349	53
266.05389	7
269.035	22
274.99039	60
284.06589	7
290.98541	11
291.55991	7
299.0668	17
462.09421	433

NAME: 7-Methylthioheptyl glucosinolate; LC-ESI-ITFT; MS2; HCD; CE 85.0 eV; [M-H]-
PRECURSORMZ: 462.093167
PRECURSORTYPE: [M-H]-
FORMULA: C15H29NO9S3
Ontology: Alkylglucosinolates
INCHIKEY: SJHVRBSHKTUXLG-MFIRQCQASA-N
SMILES: CSCCCCCCC\C(S[C@@H]1O[C@H](CO)[C@@H](O)[C@H](O)[C@H]1O)=N/OS(O)(=O)=O
RETENTIONTIME: 
CCS: 194.4249615
IONMODE: Negative
INSTRUMENTTYPE: LC-ESI-ITFT
INSTRUMENT: 
COLLISIONENERGY: 85.0
Comment: registered in MassBank
Num Peaks: 6
74.99158	244
79.95792	93
95.95272	683
96.9605	1000
259.01389	32
299.0593	52

NAME: 7-Methylthioheptyl glucosinolate; LC-ESI-ITFT; MS2; HCD; CE 70.0 eV; [M-H]-
PRECURSORMZ: 462.093167
PRECURSORTYPE: [M-H]-
FORMULA: C15H29NO9S3
Ontology: Alkylglucosinolates
INCHIKEY: SJHVRBSHKTUXLG-MFIRQCQASA-N
SMILES: CSCCCCCCC\C(S[C@@H]1O[C@H](CO)[C@@H](O)[C@H](O)[C@H]1O)=N/OS(O)(=O)=O
RETENTIONTIME: 
CCS: 194.4249615
IONMODE: Negative
INSTRUMENTTYPE: LC-ESI-ITFT
INSTRUMENT: 
COLLISIONENERGY: 70.0
Comment: registered in MassBank
Num Peaks: 21
74.99148	164
79.95782	85
80.96561	10
85.02992	13
95.95264	463
96.91865	9
96.94649	14
96.95127	8
96.96032	1000
96.97369	11
97.00174	7
97.95977	9
101.0245	7
127.9249	7
128.93221	9
220.0836	34
259.01331	43
269.03519	15
274.9902	33
299.05521	11
462.09409	31

NAME: 7-Methylthioheptyl glucosinolate; LC-ESI-ITFT; MS2; HCD; CE 15.0 eV; [M-H]-
PRECURSORMZ: 462.093167
PRECURSORTYPE: [M-H]-
FORMULA: C15H29NO9S3
Ontology: Alkylglucosinolates
INCHIKEY: SJHVRBSHKTUXLG-MFIRQCQASA-N
SMILES: CSCCCCCCC\C(S[C@@H]1O[C@H](CO)[C@@H](O)[C@H](O)[C@H]1O)=N/OS(O)(=O)=O
RETENTIONTIME: 
CCS: 194.4249615
IONMODE: Negative
INSTRUMENTTYPE: LC-ESI-ITFT
INSTRUMENT: 
COLLISIONENERGY: 15.0
Comment: registered in MassBank
Num Peaks: 2
299.0618	72
462.09451	1000

NAME: 7-Methylthioheptyl glucosinolate; LC-ESI-ITFT; MS2; HCD; CE 25.0 eV; [M-H]-
PRECURSORMZ: 462.093167
PRECURSORTYPE: [M-H]-
FORMULA: C15H29NO9S3
Ontology: Alkylglucosinolates
INCHIKEY: SJHVRBSHKTUXLG-MFIRQCQASA-N
SMILES: CSCCCCCCC\C(S[C@@H]1O[C@H](CO)[C@@H](O)[C@H](O)[C@H]1O)=N/OS(O)(=O)=O
RETENTIONTIME: 
CCS: 194.4249615
IONMODE: Negative
INSTRUMENTTYPE: LC-ESI-ITFT
INSTRUMENT: 
COLLISIONENERGY: 25.0
Comment: registered in MassBank
Num Peaks: 2
299.0614	36
462.09439	1000

NAME: 7-Methylthioheptyl glucosinolate; LC-ESI-ITFT; MS2; HCD; CE 5.0 eV; [M-H]-
PRECURSORMZ: 462.093167
PRECURSORTYPE: [M-H]-
FORMULA: C15H29NO9S3
Ontology: Alkylglucosinolates
INCHIKEY: SJHVRBSHKTUXLG-MFIRQCQASA-N
SMILES: CSCCCCCCC\C(S[C@@H]1O[C@H](CO)[C@@H](O)[C@H](O)[C@H]1O)=N/OS(O)(=O)=O
RETENTIONTIME: 
CCS: 194.4249615
IONMODE: Negative
INSTRUMENTTYPE: LC-ESI-ITFT
INSTRUMENT: 
COLLISIONENERGY: 5.0
Comment: registered in MassBank
Num Peaks: 1
299.07889	1000

NAME: 7-Methylthioheptyl glucosinolate; LC-ESI-ITFT; MS2; HCD; CE 35.0 eV; [M-H]-
PRECURSORMZ: 462.093167
PRECURSORTYPE: [M-H]-
FORMULA: C15H29NO9S3
Ontology: Alkylglucosinolates
INCHIKEY: SJHVRBSHKTUXLG-MFIRQCQASA-N
SMILES: CSCCCCCCC\C(S[C@@H]1O[C@H](CO)[C@@H](O)[C@H](O)[C@H]1O)=N/OS(O)(=O)=O
RETENTIONTIME: 
CCS: 194.4249615
IONMODE: Negative
INSTRUMENTTYPE: LC-ESI-ITFT
INSTRUMENT: 
COLLISIONENERGY: 35.0
Comment: registered in MassBank
Num Peaks: 3
74.76741	84
299.06931	151
462.09439	1000

NAME: 7-Methylthioheptyl glucosinolate; LC-ESI-ITFT; MS2; HCD; CE 20.0 eV; [M-H]-
PRECURSORMZ: 462.093167
PRECURSORTYPE: [M-H]-
FORMULA: C15H29NO9S3
Ontology: Alkylglucosinolates
INCHIKEY: SJHVRBSHKTUXLG-MFIRQCQASA-N
SMILES: CSCCCCCCC\C(S[C@@H]1O[C@H](CO)[C@@H](O)[C@H](O)[C@H]1O)=N/OS(O)(=O)=O
RETENTIONTIME: 
CCS: 194.4249615
IONMODE: Negative
INSTRUMENTTYPE: LC-ESI-ITFT
INSTRUMENT: 
COLLISIONENERGY: 20.0
Comment: registered in MassBank
Num Peaks: 2
299.06131	23
462.09439	1000

NAME: 7-Methylthioheptyl glucosinolate; LC-ESI-ITFT; MS2; HCD; CE 30.0 eV; [M-H]-
PRECURSORMZ: 462.093167
PRECURSORTYPE: [M-H]-
FORMULA: C15H29NO9S3
Ontology: Alkylglucosinolates
INCHIKEY: SJHVRBSHKTUXLG-MFIRQCQASA-N
SMILES: CSCCCCCCC\C(S[C@@H]1O[C@H](CO)[C@@H](O)[C@H](O)[C@H]1O)=N/OS(O)(=O)=O
RETENTIONTIME: 
CCS: 194.4249615
IONMODE: Negative
INSTRUMENTTYPE: LC-ESI-ITFT
INSTRUMENT: 
COLLISIONENERGY: 30.0
Comment: registered in MassBank
Num Peaks: 2
299.0463	58
462.09451	1000

NAME: 7-Methylthioheptyl glucosinolate; LC-ESI-ITFT; MS2; HCD; CE 45.0 eV; [M-H]-
PRECURSORMZ: 462.093167
PRECURSORTYPE: [M-H]-
FORMULA: C15H29NO9S3
Ontology: Alkylglucosinolates
INCHIKEY: SJHVRBSHKTUXLG-MFIRQCQASA-N
SMILES: CSCCCCCCC\C(S[C@@H]1O[C@H](CO)[C@@H](O)[C@H](O)[C@H]1O)=N/OS(O)(=O)=O
RETENTIONTIME: 
CCS: 194.4249615
IONMODE: Negative
INSTRUMENTTYPE: LC-ESI-ITFT
INSTRUMENT: 
COLLISIONENERGY: 45.0
Comment: registered in MassBank
Num Peaks: 4
96.9605	491
291.6149	143
299.06741	233
462.0946	1000

NAME: 7-Methylthioheptyl glucosinolate; LC-ESI-ITFT; MS2; HCD; CE 40.0 eV; [M-H]-
PRECURSORMZ: 462.093167
PRECURSORTYPE: [M-H]-
FORMULA: C15H29NO9S3
Ontology: Alkylglucosinolates
INCHIKEY: SJHVRBSHKTUXLG-MFIRQCQASA-N
SMILES: CSCCCCCCC\C(S[C@@H]1O[C@H](CO)[C@@H](O)[C@H](O)[C@H]1O)=N/OS(O)(=O)=O
RETENTIONTIME: 
CCS: 194.4249615
IONMODE: Negative
INSTRUMENTTYPE: LC-ESI-ITFT
INSTRUMENT: 
COLLISIONENERGY: 40.0
Comment: registered in MassBank
Num Peaks: 3
96.96036	175
299.06271	129
462.09341	1000

NAME: 7-Methylthioheptyl glucosinolate; LC-ESI-ITFT; MS2; HCD; CE 50.0 eV; [M-H]-
PRECURSORMZ: 462.093167
PRECURSORTYPE: [M-H]-
FORMULA: C15H29NO9S3
Ontology: Alkylglucosinolates
INCHIKEY: SJHVRBSHKTUXLG-MFIRQCQASA-N
SMILES: CSCCCCCCC\C(S[C@@H]1O[C@H](CO)[C@@H](O)[C@H](O)[C@H]1O)=N/OS(O)(=O)=O
RETENTIONTIME: 
CCS: 194.4249615
IONMODE: Negative
INSTRUMENTTYPE: LC-ESI-ITFT
INSTRUMENT: 
COLLISIONENERGY: 50.0
Comment: registered in MassBank
Num Peaks: 25
74.76795	7
74.99152	87
79.9579	42
85.0299	10
95.9527	187
96.9474	9
96.96041	1000
96.97447	12
97.00204	7
97.95993	6
98.95644	7
128.9323	8
145.0513	6
163.0611	7
195.034	7
220.08411	28
227.0229	15
259.0134	39
266.05121	7
269.03561	14
274.9903	38
290.9852	11
291.6178	7
299.07169	12
462.0939	602

NAME: 7-Methylthioheptyl glucosinolate; LC-ESI-ITFT; MS2; HCD; CE 10.0 eV; [M-H]-
PRECURSORMZ: 462.093167
PRECURSORTYPE: [M-H]-
FORMULA: C15H29NO9S3
Ontology: Alkylglucosinolates
INCHIKEY: SJHVRBSHKTUXLG-MFIRQCQASA-N
SMILES: CSCCCCCCC\C(S[C@@H]1O[C@H](CO)[C@@H](O)[C@H](O)[C@H]1O)=N/OS(O)(=O)=O
RETENTIONTIME: 
CCS: 194.4249615
IONMODE: Negative
INSTRUMENTTYPE: LC-ESI-ITFT
INSTRUMENT: 
COLLISIONENERGY: 10.0
Comment: registered in MassBank
Num Peaks: 2
291.6221	675
299.04739	1000

NAME: Glucomalcomiin; LC-ESI-ITFT; MS2; HCD; CE 65.0 eV; [M-H]-
PRECURSORMZ: 480.063976
PRECURSORTYPE: [M-H]-
FORMULA: C17H23NO11S2
Ontology: Alkylglucosinolates
INCHIKEY: CGAALQATDWOQFD-LDADJPATNA-N
SMILES: OCC1OC(S\C(CCCOC(=O)C2=CC=CC=C2)=N\OS(O)(=O)=O)C(O)C(O)C1O
RETENTIONTIME: 
CCS: 214.3349623
IONMODE: Negative
INSTRUMENTTYPE: LC-ESI-ITFT
INSTRUMENT: 
COLLISIONENERGY: 65.0
Comment: registered in MassBank
Num Peaks: 33
74.99162	115
79.95794	80
80.96577	9
84.04607	10
85.03017	11
95.95281	336
96.91858	8
96.94829	10
96.96047	1000
96.97039	6
96.97434	11
97.00202	7
97.95989	5
98.95624	13
116.0179	30
121.03	421
122.0334	32
127.9251	6
128.93311	6
138.97141	6
164.9686	7
179.9977	38
195.97479	296
196.97861	9
197.9705	7
200.98669	11
241.00281	10
259.01361	56
274.99081	30
287.00589	10
299.07291	9
358.02921	17
480.0654	16

NAME: Glucomalcomiin; LC-ESI-ITFT; MS2; HCD; CE 90.0 eV; [M-H]-
PRECURSORMZ: 480.063976
PRECURSORTYPE: [M-H]-
FORMULA: C17H23NO11S2
Ontology: Alkylglucosinolates
INCHIKEY: CGAALQATDWOQFD-LDADJPATNA-N
SMILES: OCC1OC(S\C(CCCOC(=O)C2=CC=CC=C2)=N\OS(O)(=O)=O)C(O)C(O)C1O
RETENTIONTIME: 
CCS: 214.3349623
IONMODE: Negative
INSTRUMENTTYPE: LC-ESI-ITFT
INSTRUMENT: 
COLLISIONENERGY: 90.0
Comment: registered in MassBank
Num Peaks: 24
71.01424	9
74.76511	14
74.99158	196
79.95792	129
80.96597	15
85.03012	11
93.03537	12
95.95272	636
96.91865	10
96.94628	8
96.96042	1000
96.97314	7
116.0179	65
121.0299	548
122.0333	33
138.97169	22
164.96989	16
179.9987	10
195.9749	119
241.0016	7
259.01361	32
274.98871	10
291.58871	9
299.06009	19

NAME: Glucomalcomiin; LC-ESI-ITFT; MS2; HCD; CE 60.0 eV; [M-H]-
PRECURSORMZ: 480.063976
PRECURSORTYPE: [M-H]-
FORMULA: C17H23NO11S2
Ontology: Alkylglucosinolates
INCHIKEY: CGAALQATDWOQFD-LDADJPATNA-N
SMILES: OCC1OC(S\C(CCCOC(=O)C2=CC=CC=C2)=N\OS(O)(=O)=O)C(O)C(O)C1O
RETENTIONTIME: 
CCS: 214.3349623
IONMODE: Negative
INSTRUMENTTYPE: LC-ESI-ITFT
INSTRUMENT: 
COLLISIONENERGY: 60.0
Comment: registered in MassBank
Num Peaks: 35
74.76321	10
74.99158	98
79.95795	72
80.96573	9
84.04623	6
85.02998	6
95.95271	297
96.91894	8
96.94678	14
96.95	9
96.96043	1000
96.97397	9
97.00179	8
109.4159	5
116.018	27
121.0299	380
122.0333	14
132.0139	7
164.9687	5
179.9977	55
188.11951	5
195.9747	370
196.9783	9
200.987	13
241.0041	10
259.01331	51
274.99011	33
287.00531	10
291.57339	8
299.0528	22
325.96078	5
358.02841	42
384.98471	5
443.72949	5
480.06479	52

NAME: Glucomalcomiin; LC-ESI-ITFT; MS2; HCD; CE 80.0 eV; [M-H]-
PRECURSORMZ: 480.063976
PRECURSORTYPE: [M-H]-
FORMULA: C17H23NO11S2
Ontology: Alkylglucosinolates
INCHIKEY: CGAALQATDWOQFD-LDADJPATNA-N
SMILES: OCC1OC(S\C(CCCOC(=O)C2=CC=CC=C2)=N\OS(O)(=O)=O)C(O)C(O)C1O
RETENTIONTIME: 
CCS: 214.3349623
IONMODE: Negative
INSTRUMENTTYPE: LC-ESI-ITFT
INSTRUMENT: 
COLLISIONENERGY: 80.0
Comment: registered in MassBank
Num Peaks: 28
71.01444	7
74.99159	174
79.95787	130
80.96588	15
84.04604	9
85.03011	9
95.95275	554
95.96579	7
96.91914	8
96.94665	11
96.95129	8
96.96043	1000
96.97266	10
98.95583	8
116.0179	57
121.0299	564
122.0333	36
127.9249	8
138.9711	18
164.9691	14
179.9982	19
195.97479	194
196.97771	8
241.00259	9
259.01321	50
274.99039	18
291.6004	7
299.04111	12

NAME: Glucomalcomiin; LC-ESI-ITFT; MS2; HCD; CE 75.0 eV; [M-H]-
PRECURSORMZ: 480.063976
PRECURSORTYPE: [M-H]-
FORMULA: C17H23NO11S2
Ontology: Alkylglucosinolates
INCHIKEY: CGAALQATDWOQFD-LDADJPATNA-N
SMILES: OCC1OC(S\C(CCCOC(=O)C2=CC=CC=C2)=N\OS(O)(=O)=O)C(O)C(O)C1O
RETENTIONTIME: 
CCS: 214.3349623
IONMODE: Negative
INSTRUMENTTYPE: LC-ESI-ITFT
INSTRUMENT: 
COLLISIONENERGY: 75.0
Comment: registered in MassBank
Num Peaks: 34
74.76006	6
74.99159	155
79.95792	102
80.966	12
84.04593	9
85.02996	9
93.03463	7
95.94631	5
95.95273	475
95.96642	6
96.91872	7
96.94738	10
96.96042	1000
96.96931	8
96.9745	12
97.00144	6
101.0247	6
116.018	42
121.0129	6
121.0299	497
122.0331	36
127.9247	6
128.93201	7
132.013	6
138.9711	16
164.96899	15
179.9976	24
195.97479	216
196.9785	9
241.0024	8
259.01349	48
274.9903	24
291.56519	8
299.04279	13

NAME: Glucomalcomiin; LC-ESI-ITFT; MS2; HCD; CE 55.0 eV; [M-H]-
PRECURSORMZ: 480.063976
PRECURSORTYPE: [M-H]-
FORMULA: C17H23NO11S2
Ontology: Alkylglucosinolates
INCHIKEY: CGAALQATDWOQFD-LDADJPATNA-N
SMILES: OCC1OC(S\C(CCCOC(=O)C2=CC=CC=C2)=N\OS(O)(=O)=O)C(O)C(O)C1O
RETENTIONTIME: 
CCS: 214.3349623
IONMODE: Negative
INSTRUMENTTYPE: LC-ESI-ITFT
INSTRUMENT: 
COLLISIONENERGY: 55.0
Comment: registered in MassBank
Num Peaks: 33
74.76562	7
74.9916	83
79.95793	65
80.96586	7
84.04593	9
85.02985	9
95.95276	237
96.91875	9
96.94513	10
96.94742	9
96.96046	1000
96.9696	6
96.97456	12
97.00179	7
116.018	24
121.0299	332
122.0334	23
164.0034	6
179.9977	62
195.97479	385
196.97861	15
200.9872	14
227.02409	5
241.0034	13
259.0137	56
274.991	34
287.00641	10
291.5827	6
299.06329	14
302.03601	5
358.02811	66
359.02991	7
480.06561	104

NAME: Glucomalcomiin; LC-ESI-ITFT; MS2; HCD; CE 85.0 eV; [M-H]-
PRECURSORMZ: 480.063976
PRECURSORTYPE: [M-H]-
FORMULA: C17H23NO11S2
Ontology: Alkylglucosinolates
INCHIKEY: CGAALQATDWOQFD-LDADJPATNA-N
SMILES: OCC1OC(S\C(CCCOC(=O)C2=CC=CC=C2)=N\OS(O)(=O)=O)C(O)C(O)C1O
RETENTIONTIME: 
CCS: 214.3349623
IONMODE: Negative
INSTRUMENTTYPE: LC-ESI-ITFT
INSTRUMENT: 
COLLISIONENERGY: 85.0
Comment: registered in MassBank
Num Peaks: 31
71.01435	7
74.76481	7
74.99162	173
79.95793	121
80.96571	20
84.04607	9
85.0304	6
93.03505	8
95.9528	604
95.96677	7
96.91843	7
96.9483	10
96.96049	1000
96.97456	12
97.00234	6
97.94863	7
98.95617	9
111.9305	6
116.018	58
121.0128	7
121.0299	570
122.0332	41
127.9245	7
138.97121	26
164.9695	15
179.99741	13
195.9749	148
241.0038	8
259.01389	40
274.9917	12
299.05969	14

NAME: Glucomalcomiin; LC-ESI-ITFT; MS2; HCD; CE 70.0 eV; [M-H]-
PRECURSORMZ: 480.063976
PRECURSORTYPE: [M-H]-
FORMULA: C17H23NO11S2
Ontology: Alkylglucosinolates
INCHIKEY: CGAALQATDWOQFD-LDADJPATNA-N
SMILES: OCC1OC(S\C(CCCOC(=O)C2=CC=CC=C2)=N\OS(O)(=O)=O)C(O)C(O)C1O
RETENTIONTIME: 
CCS: 214.3349623
IONMODE: Negative
INSTRUMENTTYPE: LC-ESI-ITFT
INSTRUMENT: 
COLLISIONENERGY: 70.0
Comment: registered in MassBank
Num Peaks: 58
50.5337	5
53.1729	5
53.76801	5
56.90686	5
68.63178	5
70.82996	5
71.59064	5
74.62104	5
74.76462	11
74.99152	121
79.11193	6
79.9579	90
80.96537	10
84.27405	6
85.03007	9
89.02616	6
95.95265	422
95.96687	8
96.94785	7
96.96037	1000
96.9684	10
96.97424	11
97.00258	8
102.9412	5
105.9127	6
116.018	34
116.7242	5
120.5834	7
121.0298	500
122.0331	13
127.9235	7
128.9313	7
138.9715	8
164.9693	8
171.9099	6
176.43269	7
179.9978	35
193.6924	6
195.9747	290
200.9852	11
227.34891	6
241.0016	12
259.013	60
274.99051	36
286.55139	5
287.00739	6
291.5864	11
296.6311	6
299.06	26
331.17349	5
340.64999	6
343.77011	5
358.02841	10
402.00659	6
414.64459	6
427.75751	6
446.6853	6
480.06339	7

NAME: Glucomalcomiin; LC-ESI-ITFT; MS2; HCD; CE 35.0 eV; [M-H]-
PRECURSORMZ: 480.063976
PRECURSORTYPE: [M-H]-
FORMULA: C17H23NO11S2
Ontology: Alkylglucosinolates
INCHIKEY: CGAALQATDWOQFD-LDADJPATNA-N
SMILES: OCC1OC(S\C(CCCOC(=O)C2=CC=CC=C2)=N\OS(O)(=O)=O)C(O)C(O)C1O
RETENTIONTIME: 
CCS: 214.3349623
IONMODE: Negative
INSTRUMENTTYPE: LC-ESI-ITFT
INSTRUMENT: 
COLLISIONENERGY: 35.0
Comment: registered in MassBank
Num Peaks: 2
96.96054	210
480.06519	1000

NAME: Glucomalcomiin; LC-ESI-ITFT; MS2; HCD; CE 45.0 eV; [M-H]-
PRECURSORMZ: 480.063976
PRECURSORTYPE: [M-H]-
FORMULA: C17H23NO11S2
Ontology: Alkylglucosinolates
INCHIKEY: CGAALQATDWOQFD-LDADJPATNA-N
SMILES: OCC1OC(S\C(CCCOC(=O)C2=CC=CC=C2)=N\OS(O)(=O)=O)C(O)C(O)C1O
RETENTIONTIME: 
CCS: 214.3349623
IONMODE: Negative
INSTRUMENTTYPE: LC-ESI-ITFT
INSTRUMENT: 
COLLISIONENERGY: 45.0
Comment: registered in MassBank
Num Peaks: 30
74.76419	11
74.99154	61
79.95798	41
84.04672	8
95.95274	147
96.91865	8
96.94626	10
96.96046	1000
96.97503	7
97.00137	7
97.95942	8
116.018	16
121.0298	264
122.0332	14
179.99789	97
195.9747	520
196.978	11
200.9868	19
227.02251	9
241.0022	12
259.01361	52
274.99039	32
287.00671	10
290.98792	11
291.60281	10
299.05811	25
302.0351	9
358.0278	171
359.02921	17
480.06479	612

NAME: Glucomalcomiin; LC-ESI-ITFT; MS2; HCD; CE 40.0 eV; [M-H]-
PRECURSORMZ: 480.063976
PRECURSORTYPE: [M-H]-
FORMULA: C17H23NO11S2
Ontology: Alkylglucosinolates
INCHIKEY: CGAALQATDWOQFD-LDADJPATNA-N
SMILES: OCC1OC(S\C(CCCOC(=O)C2=CC=CC=C2)=N\OS(O)(=O)=O)C(O)C(O)C1O
RETENTIONTIME: 
CCS: 214.3349623
IONMODE: Negative
INSTRUMENTTYPE: LC-ESI-ITFT
INSTRUMENT: 
COLLISIONENERGY: 40.0
Comment: registered in MassBank
Num Peaks: 3
96.9605	606
195.97501	326
480.06491	1000

NAME: Glucomalcomiin; LC-ESI-ITFT; MS2; HCD; CE 50.0 eV; [M-H]-
PRECURSORMZ: 480.063976
PRECURSORTYPE: [M-H]-
FORMULA: C17H23NO11S2
Ontology: Alkylglucosinolates
INCHIKEY: CGAALQATDWOQFD-LDADJPATNA-N
SMILES: OCC1OC(S\C(CCCOC(=O)C2=CC=CC=C2)=N\OS(O)(=O)=O)C(O)C(O)C1O
RETENTIONTIME: 
CCS: 214.3349623
IONMODE: Negative
INSTRUMENTTYPE: LC-ESI-ITFT
INSTRUMENT: 
COLLISIONENERGY: 50.0
Comment: registered in MassBank
Num Peaks: 31
74.76694	7
74.99151	63
79.95784	54
80.9656	9
84.04594	6
85.02967	8
95.95265	184
96.91886	6
96.94816	11
96.96035	1000
96.97422	11
97.0025	7
98.95607	10
116.0177	21
121.0297	300
122.0331	19
179.9976	73
195.9745	413
196.9787	13
197.97031	10
200.9866	14
227.0229	8
241.0034	13
259.01331	50
274.9906	29
287.00629	8
290.9826	6
299.06821	13
358.0275	104
359.03061	11
480.06451	223

NAME: Threonine; LC-ESI-ITFT; MS2; CE 15.0 eV; [M-H]-
PRECURSORMZ: 118.050967
PRECURSORTYPE: [M-H]-
FORMULA: C4H9NO3
Ontology: L-alpha-amino acids
INCHIKEY: AYFVYJQAPQTCCC-UHFFFAOYNA-N
SMILES: CC(O)C(N)C(O)=O
RETENTIONTIME: 
CCS: 121.9256951
IONMODE: Negative
INSTRUMENTTYPE: LC-ESI-ITFT
INSTRUMENT: 
COLLISIONENERGY: 15.0
Comment: registered in MassBank
Num Peaks: 3
74.02544	697
118.0483	18
118.0517	1000

NAME: Threonine; LC-ESI-ITFT; MS2; CE 90.0 eV; [M-H]-
PRECURSORMZ: 118.050967
PRECURSORTYPE: [M-H]-
FORMULA: C4H9NO3
Ontology: L-alpha-amino acids
INCHIKEY: AYFVYJQAPQTCCC-UHFFFAOYNA-N
SMILES: CC(O)C(N)C(O)=O
RETENTIONTIME: 
CCS: 121.9256951
IONMODE: Negative
INSTRUMENTTYPE: LC-ESI-ITFT
INSTRUMENT: 
COLLISIONENERGY: 90.0
Comment: registered in MassBank
Num Peaks: 3
72.0097	115
74.02544	1000
118.0517	688

NAME: Threonine; LC-ESI-ITFT; MS2; CE 25.0 eV; [M-H]-
PRECURSORMZ: 118.050967
PRECURSORTYPE: [M-H]-
FORMULA: C4H9NO3
Ontology: L-alpha-amino acids
INCHIKEY: AYFVYJQAPQTCCC-UHFFFAOYNA-N
SMILES: CC(O)C(N)C(O)=O
RETENTIONTIME: 
CCS: 121.9256951
IONMODE: Negative
INSTRUMENTTYPE: LC-ESI-ITFT
INSTRUMENT: 
COLLISIONENERGY: 25.0
Comment: registered in MassBank
Num Peaks: 3
74.02331	19
74.02544	665
118.0517	1000

NAME: Threonine; LC-ESI-ITFT; MS2; CE 75.0 eV; [M-H]-
PRECURSORMZ: 118.050967
PRECURSORTYPE: [M-H]-
FORMULA: C4H9NO3
Ontology: L-alpha-amino acids
INCHIKEY: AYFVYJQAPQTCCC-UHFFFAOYNA-N
SMILES: CC(O)C(N)C(O)=O
RETENTIONTIME: 
CCS: 121.9256951
IONMODE: Negative
INSTRUMENTTYPE: LC-ESI-ITFT
INSTRUMENT: 
COLLISIONENERGY: 75.0
Comment: registered in MassBank
Num Peaks: 3
72.00973	61
74.02541	678
118.0516	1000

NAME: Threonine; LC-ESI-ITFT; MS2; CE 20.0 eV; [M-H]-
PRECURSORMZ: 118.050967
PRECURSORTYPE: [M-H]-
FORMULA: C4H9NO3
Ontology: L-alpha-amino acids
INCHIKEY: AYFVYJQAPQTCCC-UHFFFAOYNA-N
SMILES: CC(O)C(N)C(O)=O
RETENTIONTIME: 
CCS: 121.9256951
IONMODE: Negative
INSTRUMENTTYPE: LC-ESI-ITFT
INSTRUMENT: 
COLLISIONENERGY: 20.0
Comment: registered in MassBank
Num Peaks: 2
74.02544	627
118.0517	1000

NAME: Threonine; LC-ESI-ITFT; MS2; CE 35.0 eV; [M-H]-
PRECURSORMZ: 118.050967
PRECURSORTYPE: [M-H]-
FORMULA: C4H9NO3
Ontology: L-alpha-amino acids
INCHIKEY: AYFVYJQAPQTCCC-UHFFFAOYNA-N
SMILES: CC(O)C(N)C(O)=O
RETENTIONTIME: 
CCS: 121.9256951
IONMODE: Negative
INSTRUMENTTYPE: LC-ESI-ITFT
INSTRUMENT: 
COLLISIONENERGY: 35.0
Comment: registered in MassBank
Num Peaks: 2
74.02551	153
118.0517	1000

NAME: Threonine; LC-ESI-ITFT; MS2; CE 95.0 eV; [M-H]-
PRECURSORMZ: 118.050967
PRECURSORTYPE: [M-H]-
FORMULA: C4H9NO3
Ontology: L-alpha-amino acids
INCHIKEY: AYFVYJQAPQTCCC-UHFFFAOYNA-N
SMILES: CC(O)C(N)C(O)=O
RETENTIONTIME: 
CCS: 121.9256951
IONMODE: Negative
INSTRUMENTTYPE: LC-ESI-ITFT
INSTRUMENT: 
COLLISIONENERGY: 95.0
Comment: registered in MassBank
Num Peaks: 3
72.00979	63
74.02541	1000
118.0516	481

NAME: Threonine; LC-ESI-ITFT; MS2; CE 40.0 eV; [M-H]-
PRECURSORMZ: 118.050967
PRECURSORTYPE: [M-H]-
FORMULA: C4H9NO3
Ontology: L-alpha-amino acids
INCHIKEY: AYFVYJQAPQTCCC-UHFFFAOYNA-N
SMILES: CC(O)C(N)C(O)=O
RETENTIONTIME: 
CCS: 121.9256951
IONMODE: Negative
INSTRUMENTTYPE: LC-ESI-ITFT
INSTRUMENT: 
COLLISIONENERGY: 40.0
Comment: registered in MassBank
Num Peaks: 2
74.02542	179
118.0517	1000

NAME: Threonine; LC-ESI-ITFT; MS2; CE 50.0 eV; [M-H]-
PRECURSORMZ: 118.050967
PRECURSORTYPE: [M-H]-
FORMULA: C4H9NO3
Ontology: L-alpha-amino acids
INCHIKEY: AYFVYJQAPQTCCC-UHFFFAOYNA-N
SMILES: CC(O)C(N)C(O)=O
RETENTIONTIME: 
CCS: 121.9256951
IONMODE: Negative
INSTRUMENTTYPE: LC-ESI-ITFT
INSTRUMENT: 
COLLISIONENERGY: 50.0
Comment: registered in MassBank
Num Peaks: 2
74.02541	219
118.0517	1000

NAME: Threonine; LC-ESI-ITFT; MS2; CE 65.0 eV; [M-H]-
PRECURSORMZ: 118.050967
PRECURSORTYPE: [M-H]-
FORMULA: C4H9NO3
Ontology: L-alpha-amino acids
INCHIKEY: AYFVYJQAPQTCCC-UHFFFAOYNA-N
SMILES: CC(O)C(N)C(O)=O
RETENTIONTIME: 
CCS: 121.9256951
IONMODE: Negative
INSTRUMENTTYPE: LC-ESI-ITFT
INSTRUMENT: 
COLLISIONENERGY: 65.0
Comment: registered in MassBank
Num Peaks: 3
72.00968	33
74.02543	364
118.0516	1000

NAME: Threonine; LC-ESI-ITFT; MS2; CE 60.0 eV; [M-H]-
PRECURSORMZ: 118.050967
PRECURSORTYPE: [M-H]-
FORMULA: C4H9NO3
Ontology: L-alpha-amino acids
INCHIKEY: AYFVYJQAPQTCCC-UHFFFAOYNA-N
SMILES: CC(O)C(N)C(O)=O
RETENTIONTIME: 
CCS: 121.9256951
IONMODE: Negative
INSTRUMENTTYPE: LC-ESI-ITFT
INSTRUMENT: 
COLLISIONENERGY: 60.0
Comment: registered in MassBank
Num Peaks: 3
72.0098	36
74.0254	314
118.0517	1000

NAME: Threonine; LC-ESI-ITFT; MS2; CE 80.0 eV; [M-H]-
PRECURSORMZ: 118.050967
PRECURSORTYPE: [M-H]-
FORMULA: C4H9NO3
Ontology: L-alpha-amino acids
INCHIKEY: AYFVYJQAPQTCCC-UHFFFAOYNA-N
SMILES: CC(O)C(N)C(O)=O
RETENTIONTIME: 
CCS: 121.9256951
IONMODE: Negative
INSTRUMENTTYPE: LC-ESI-ITFT
INSTRUMENT: 
COLLISIONENERGY: 80.0
Comment: registered in MassBank
Num Peaks: 2
74.02544	716
118.0516	1000

NAME: Threonine; LC-ESI-ITFT; MS2; CE 5.0 eV; [M-H]-
PRECURSORMZ: 118.050967
PRECURSORTYPE: [M-H]-
FORMULA: C4H9NO3
Ontology: L-alpha-amino acids
INCHIKEY: AYFVYJQAPQTCCC-UHFFFAOYNA-N
SMILES: CC(O)C(N)C(O)=O
RETENTIONTIME: 
CCS: 121.9256951
IONMODE: Negative
INSTRUMENTTYPE: LC-ESI-ITFT
INSTRUMENT: 
COLLISIONENERGY: 5.0
Comment: registered in MassBank
Num Peaks: 11
74.02547	49
118.0425	5
118.0444	6
118.0453	5
118.0465	8
118.0481	13
118.0517	1000
118.0539	9
118.056	16
118.058	6
118.06	7

NAME: Threonine; LC-ESI-ITFT; MS2; CE 30.0 eV; [M-H]-
PRECURSORMZ: 118.050967
PRECURSORTYPE: [M-H]-
FORMULA: C4H9NO3
Ontology: L-alpha-amino acids
INCHIKEY: AYFVYJQAPQTCCC-UHFFFAOYNA-N
SMILES: CC(O)C(N)C(O)=O
RETENTIONTIME: 
CCS: 121.9256951
IONMODE: Negative
INSTRUMENTTYPE: LC-ESI-ITFT
INSTRUMENT: 
COLLISIONENERGY: 30.0
Comment: registered in MassBank
Num Peaks: 2
74.02542	1000
118.0517	57

NAME: Threonine; LC-ESI-ITFT; MS2; CE 55.0 eV; [M-H]-
PRECURSORMZ: 118.050967
PRECURSORTYPE: [M-H]-
FORMULA: C4H9NO3
Ontology: L-alpha-amino acids
INCHIKEY: AYFVYJQAPQTCCC-UHFFFAOYNA-N
SMILES: CC(O)C(N)C(O)=O
RETENTIONTIME: 
CCS: 121.9256951
IONMODE: Negative
INSTRUMENTTYPE: LC-ESI-ITFT
INSTRUMENT: 
COLLISIONENERGY: 55.0
Comment: registered in MassBank
Num Peaks: 2
74.0254	237
118.0516	1000

NAME: Threonine; LC-ESI-ITFT; MS2; CE 45.0 eV; [M-H]-
PRECURSORMZ: 118.050967
PRECURSORTYPE: [M-H]-
FORMULA: C4H9NO3
Ontology: L-alpha-amino acids
INCHIKEY: AYFVYJQAPQTCCC-UHFFFAOYNA-N
SMILES: CC(O)C(N)C(O)=O
RETENTIONTIME: 
CCS: 121.9256951
IONMODE: Negative
INSTRUMENTTYPE: LC-ESI-ITFT
INSTRUMENT: 
COLLISIONENERGY: 45.0
Comment: registered in MassBank
Num Peaks: 2
74.02544	166
118.0517	1000

NAME: Threonine; LC-ESI-ITFT; MS2; CE 85.0 eV; [M-H]-
PRECURSORMZ: 118.050967
PRECURSORTYPE: [M-H]-
FORMULA: C4H9NO3
Ontology: L-alpha-amino acids
INCHIKEY: AYFVYJQAPQTCCC-UHFFFAOYNA-N
SMILES: CC(O)C(N)C(O)=O
RETENTIONTIME: 
CCS: 121.9256951
IONMODE: Negative
INSTRUMENTTYPE: LC-ESI-ITFT
INSTRUMENT: 
COLLISIONENERGY: 85.0
Comment: registered in MassBank
Num Peaks: 3
72.00974	96
74.02542	1000
118.0517	856

NAME: Threonine; LC-ESI-ITFT; MS2; CE 70.0 eV; [M-H]-
PRECURSORMZ: 118.050967
PRECURSORTYPE: [M-H]-
FORMULA: C4H9NO3
Ontology: L-alpha-amino acids
INCHIKEY: AYFVYJQAPQTCCC-UHFFFAOYNA-N
SMILES: CC(O)C(N)C(O)=O
RETENTIONTIME: 
CCS: 121.9256951
IONMODE: Negative
INSTRUMENTTYPE: LC-ESI-ITFT
INSTRUMENT: 
COLLISIONENERGY: 70.0
Comment: registered in MassBank
Num Peaks: 3
72.00977	47
74.02543	546
118.0517	1000

NAME: Threonine; LC-ESI-ITFT; MS2; CE 10.0 eV; [M-H]-
PRECURSORMZ: 118.050967
PRECURSORTYPE: [M-H]-
FORMULA: C4H9NO3
Ontology: L-alpha-amino acids
INCHIKEY: AYFVYJQAPQTCCC-UHFFFAOYNA-N
SMILES: CC(O)C(N)C(O)=O
RETENTIONTIME: 
CCS: 121.9256951
IONMODE: Negative
INSTRUMENTTYPE: LC-ESI-ITFT
INSTRUMENT: 
COLLISIONENERGY: 10.0
Comment: registered in MassBank
Num Peaks: 10
74.02542	55
118.0434	6
118.0455	6
118.0464	11
118.0481	12
118.0517	1000
118.056	11
118.057	6
118.0579	7
118.0589	5

NAME: Aspartate; LC-ESI-ITFT; MS2; CE 15.0 eV; [M-H]-
PRECURSORMZ: 132.030231
PRECURSORTYPE: [M-H]-
FORMULA: C4H7NO4
Ontology: Aspartic acid and derivatives
INCHIKEY: CKLJMWTZIZZHCS-UHFFFAOYNA-N
SMILES: NC(CC(O)=O)C(O)=O
RETENTIONTIME: 
CCS: 122.7851273
IONMODE: Negative
INSTRUMENTTYPE: LC-ESI-ITFT
INSTRUMENT: 
COLLISIONENERGY: 15.0
Comment: registered in MassBank
Num Peaks: 5
88.041	341
114.0203	68
115.0043	286
132.02831	29
132.0309	1000

NAME: Aspartate; LC-ESI-ITFT; MS2; CE 90.0 eV; [M-H]-
PRECURSORMZ: 132.030231
PRECURSORTYPE: [M-H]-
FORMULA: C4H7NO4
Ontology: Aspartic acid and derivatives
INCHIKEY: CKLJMWTZIZZHCS-UHFFFAOYNA-N
SMILES: NC(CC(O)=O)C(O)=O
RETENTIONTIME: 
CCS: 122.7851273
IONMODE: Negative
INSTRUMENTTYPE: LC-ESI-ITFT
INSTRUMENT: 
COLLISIONENERGY: 90.0
Comment: registered in MassBank
Num Peaks: 4
71.01444	64
88.04094	1000
115.0042	86
132.03081	494

NAME: Aspartate; LC-ESI-ITFT; MS2; CE 25.0 eV; [M-H]-
PRECURSORMZ: 132.030231
PRECURSORTYPE: [M-H]-
FORMULA: C4H7NO4
Ontology: Aspartic acid and derivatives
INCHIKEY: CKLJMWTZIZZHCS-UHFFFAOYNA-N
SMILES: NC(CC(O)=O)C(O)=O
RETENTIONTIME: 
CCS: 122.7851273
IONMODE: Negative
INSTRUMENTTYPE: LC-ESI-ITFT
INSTRUMENT: 
COLLISIONENERGY: 25.0
Comment: registered in MassBank
Num Peaks: 5
88.04097	488
114.0202	64
115.0042	337
132.0258	17
132.0309	1000

NAME: Aspartate; LC-ESI-ITFT; MS2; CE 75.0 eV; [M-H]-
PRECURSORMZ: 132.030231
PRECURSORTYPE: [M-H]-
FORMULA: C4H7NO4
Ontology: Aspartic acid and derivatives
INCHIKEY: CKLJMWTZIZZHCS-UHFFFAOYNA-N
SMILES: NC(CC(O)=O)C(O)=O
RETENTIONTIME: 
CCS: 122.7851273
IONMODE: Negative
INSTRUMENTTYPE: LC-ESI-ITFT
INSTRUMENT: 
COLLISIONENERGY: 75.0
Comment: registered in MassBank
Num Peaks: 4
71.01458	55
88.04095	903
115.0042	102
132.0309	1000

NAME: Aspartate; LC-ESI-ITFT; MS2; CE 20.0 eV; [M-H]-
PRECURSORMZ: 132.030231
PRECURSORTYPE: [M-H]-
FORMULA: C4H7NO4
Ontology: Aspartic acid and derivatives
INCHIKEY: CKLJMWTZIZZHCS-UHFFFAOYNA-N
SMILES: NC(CC(O)=O)C(O)=O
RETENTIONTIME: 
CCS: 122.7851273
IONMODE: Negative
INSTRUMENTTYPE: LC-ESI-ITFT
INSTRUMENT: 
COLLISIONENERGY: 20.0
Comment: registered in MassBank
Num Peaks: 5
88.04101	342
114.0203	65
115.0043	307
132.0309	1000
132.0352	15

NAME: Aspartate; LC-ESI-ITFT; MS2; CE 35.0 eV; [M-H]-
PRECURSORMZ: 132.030231
PRECURSORTYPE: [M-H]-
FORMULA: C4H7NO4
Ontology: Aspartic acid and derivatives
INCHIKEY: CKLJMWTZIZZHCS-UHFFFAOYNA-N
SMILES: NC(CC(O)=O)C(O)=O
RETENTIONTIME: 
CCS: 122.7851273
IONMODE: Negative
INSTRUMENTTYPE: LC-ESI-ITFT
INSTRUMENT: 
COLLISIONENERGY: 35.0
Comment: registered in MassBank
Num Peaks: 5
71.01445	31
88.04094	1000
114.0202	162
115.0042	703
132.03081	134

NAME: Aspartate; LC-ESI-ITFT; MS2; CE 40.0 eV; [M-H]-
PRECURSORMZ: 132.030231
PRECURSORTYPE: [M-H]-
FORMULA: C4H7NO4
Ontology: Aspartic acid and derivatives
INCHIKEY: CKLJMWTZIZZHCS-UHFFFAOYNA-N
SMILES: NC(CC(O)=O)C(O)=O
RETENTIONTIME: 
CCS: 122.7851273
IONMODE: Negative
INSTRUMENTTYPE: LC-ESI-ITFT
INSTRUMENT: 
COLLISIONENERGY: 40.0
Comment: registered in MassBank
Num Peaks: 4
71.01441	36
88.04095	1000
114.0202	149
115.0042	733

NAME: Aspartate; LC-ESI-ITFT; MS2; CE 50.0 eV; [M-H]-
PRECURSORMZ: 132.030231
PRECURSORTYPE: [M-H]-
FORMULA: C4H7NO4
Ontology: Aspartic acid and derivatives
INCHIKEY: CKLJMWTZIZZHCS-UHFFFAOYNA-N
SMILES: NC(CC(O)=O)C(O)=O
RETENTIONTIME: 
CCS: 122.7851273
IONMODE: Negative
INSTRUMENTTYPE: LC-ESI-ITFT
INSTRUMENT: 
COLLISIONENERGY: 50.0
Comment: registered in MassBank
Num Peaks: 3
88.04097	200
115.0042	40
132.0309	1000

NAME: Aspartate; LC-ESI-ITFT; MS2; CE 65.0 eV; [M-H]-
PRECURSORMZ: 132.030231
PRECURSORTYPE: [M-H]-
FORMULA: C4H7NO4
Ontology: Aspartic acid and derivatives
INCHIKEY: CKLJMWTZIZZHCS-UHFFFAOYNA-N
SMILES: NC(CC(O)=O)C(O)=O
RETENTIONTIME: 
CCS: 122.7851273
IONMODE: Negative
INSTRUMENTTYPE: LC-ESI-ITFT
INSTRUMENT: 
COLLISIONENERGY: 65.0
Comment: registered in MassBank
Num Peaks: 3
88.04095	354
115.0042	62
132.0309	1000

NAME: Aspartate; LC-ESI-ITFT; MS2; CE 60.0 eV; [M-H]-
PRECURSORMZ: 132.030231
PRECURSORTYPE: [M-H]-
FORMULA: C4H7NO4
Ontology: Aspartic acid and derivatives
INCHIKEY: CKLJMWTZIZZHCS-UHFFFAOYNA-N
SMILES: NC(CC(O)=O)C(O)=O
RETENTIONTIME: 
CCS: 122.7851273
IONMODE: Negative
INSTRUMENTTYPE: LC-ESI-ITFT
INSTRUMENT: 
COLLISIONENERGY: 60.0
Comment: registered in MassBank
Num Peaks: 3
88.04094	375
115.0042	58
132.0309	1000

NAME: Aspartate; LC-ESI-ITFT; MS2; CE 80.0 eV; [M-H]-
PRECURSORMZ: 132.030231
PRECURSORTYPE: [M-H]-
FORMULA: C4H7NO4
Ontology: Aspartic acid and derivatives
INCHIKEY: CKLJMWTZIZZHCS-UHFFFAOYNA-N
SMILES: NC(CC(O)=O)C(O)=O
RETENTIONTIME: 
CCS: 122.7851273
IONMODE: Negative
INSTRUMENTTYPE: LC-ESI-ITFT
INSTRUMENT: 
COLLISIONENERGY: 80.0
Comment: registered in MassBank
Num Peaks: 4
71.01442	73
88.04092	1000
115.0043	93
132.03081	859

NAME: Aspartate; LC-ESI-ITFT; MS2; CE 5.0 eV; [M-H]-
PRECURSORMZ: 132.030231
PRECURSORTYPE: [M-H]-
FORMULA: C4H7NO4
Ontology: Aspartic acid and derivatives
INCHIKEY: CKLJMWTZIZZHCS-UHFFFAOYNA-N
SMILES: NC(CC(O)=O)C(O)=O
RETENTIONTIME: 
CCS: 122.7851273
IONMODE: Negative
INSTRUMENTTYPE: LC-ESI-ITFT
INSTRUMENT: 
COLLISIONENERGY: 5.0
Comment: registered in MassBank
Num Peaks: 11
88.04091	23
115.0042	21
132.02341	10
132.0246	5
132.02699	11
132.028	16
132.03081	1000
132.03371	15
132.036	8
132.03729	7
132.0406	5

NAME: Aspartate; LC-ESI-ITFT; MS2; CE 30.0 eV; [M-H]-
PRECURSORMZ: 132.030231
PRECURSORTYPE: [M-H]-
FORMULA: C4H7NO4
Ontology: Aspartic acid and derivatives
INCHIKEY: CKLJMWTZIZZHCS-UHFFFAOYNA-N
SMILES: NC(CC(O)=O)C(O)=O
RETENTIONTIME: 
CCS: 122.7851273
IONMODE: Negative
INSTRUMENTTYPE: LC-ESI-ITFT
INSTRUMENT: 
COLLISIONENERGY: 30.0
Comment: registered in MassBank
Num Peaks: 5
71.0145	39
88.04096	1000
114.0202	169
115.0042	756
132.0309	136

NAME: Aspartate; LC-ESI-ITFT; MS2; CE 55.0 eV; [M-H]-
PRECURSORMZ: 132.030231
PRECURSORTYPE: [M-H]-
FORMULA: C4H7NO4
Ontology: Aspartic acid and derivatives
INCHIKEY: CKLJMWTZIZZHCS-UHFFFAOYNA-N
SMILES: NC(CC(O)=O)C(O)=O
RETENTIONTIME: 
CCS: 122.7851273
IONMODE: Negative
INSTRUMENTTYPE: LC-ESI-ITFT
INSTRUMENT: 
COLLISIONENERGY: 55.0
Comment: registered in MassBank
Num Peaks: 3
88.04098	301
115.0043	51
132.0309	1000

NAME: Aspartate; LC-ESI-ITFT; MS2; CE 45.0 eV; [M-H]-
PRECURSORMZ: 132.030231
PRECURSORTYPE: [M-H]-
FORMULA: C4H7NO4
Ontology: Aspartic acid and derivatives
INCHIKEY: CKLJMWTZIZZHCS-UHFFFAOYNA-N
SMILES: NC(CC(O)=O)C(O)=O
RETENTIONTIME: 
CCS: 122.7851273
IONMODE: Negative
INSTRUMENTTYPE: LC-ESI-ITFT
INSTRUMENT: 
COLLISIONENERGY: 45.0
Comment: registered in MassBank
Num Peaks: 3
88.04093	160
115.0042	40
132.0309	1000

NAME: Aspartate; LC-ESI-ITFT; MS2; CE 85.0 eV; [M-H]-
PRECURSORMZ: 132.030231
PRECURSORTYPE: [M-H]-
FORMULA: C4H7NO4
Ontology: Aspartic acid and derivatives
INCHIKEY: CKLJMWTZIZZHCS-UHFFFAOYNA-N
SMILES: NC(CC(O)=O)C(O)=O
RETENTIONTIME: 
CCS: 122.7851273
IONMODE: Negative
INSTRUMENTTYPE: LC-ESI-ITFT
INSTRUMENT: 
COLLISIONENERGY: 85.0
Comment: registered in MassBank
Num Peaks: 4
71.01446	61
88.04098	1000
115.0043	104
132.0309	611

NAME: Aspartate; LC-ESI-ITFT; MS2; CE 70.0 eV; [M-H]-
PRECURSORMZ: 132.030231
PRECURSORTYPE: [M-H]-
FORMULA: C4H7NO4
Ontology: Aspartic acid and derivatives
INCHIKEY: CKLJMWTZIZZHCS-UHFFFAOYNA-N
SMILES: NC(CC(O)=O)C(O)=O
RETENTIONTIME: 
CCS: 122.7851273
IONMODE: Negative
INSTRUMENTTYPE: LC-ESI-ITFT
INSTRUMENT: 
COLLISIONENERGY: 70.0
Comment: registered in MassBank
Num Peaks: 4
71.01441	52
88.04096	603
115.0043	76
132.0309	1000

NAME: Aspartate; LC-ESI-ITFT; MS2; CE 10.0 eV; [M-H]-
PRECURSORMZ: 132.030231
PRECURSORTYPE: [M-H]-
FORMULA: C4H7NO4
Ontology: Aspartic acid and derivatives
INCHIKEY: CKLJMWTZIZZHCS-UHFFFAOYNA-N
SMILES: NC(CC(O)=O)C(O)=O
RETENTIONTIME: 
CCS: 122.7851273
IONMODE: Negative
INSTRUMENTTYPE: LC-ESI-ITFT
INSTRUMENT: 
COLLISIONENERGY: 10.0
Comment: registered in MassBank
Num Peaks: 13
88.041	25
114.0203	6
115.0042	19
132.0188	5
132.0211	7
132.0235	6
132.0247	9
132.0267	14
132.03081	1000
132.03461	8
132.0359	16
132.03709	7
132.0417	6

NAME: Glucoerucin; LC-ESI-ITFT; MS2; HCD; CE 65.0 eV; [M-H]-
PRECURSORMZ: 420.046217
PRECURSORTYPE: [M-H]-
FORMULA: C12H23NO9S3
Ontology: Alkylglucosinolates
INCHIKEY: GKUMMDFLKGFCKH-KALKGZTMSA-N
SMILES: CSCCCCC(S[C@@H]1O[C@H](CO)[C@@H](O)[C@H](O)[C@H]1O)=NOS(O)(=O)=O
RETENTIONTIME: 
CCS: 182.4290747
IONMODE: Negative
INSTRUMENTTYPE: LC-ESI-ITFT
INSTRUMENT: 
COLLISIONENERGY: 65.0
Comment: registered in MassBank
Num Peaks: 28
74.99141	172
79.95769	68
80.96561	8
85.0299	12
95.95258	379
96.91858	7
96.9464	11
96.95164	9
96.96021	1000
96.96757	11
96.97264	9
97.00206	7
97.94798	6
97.95944	6
98.95601	12
101.0245	7
127.9245	7
128.9328	5
178.03661	42
195.0329	7
196.9942	6
224.00549	8
226.9874	16
227.02251	5
259.0127	44
274.98999	36
299.07999	8
420.04611	112

NAME: Glucoerucin; LC-ESI-ITFT; MS2; HCD; CE 90.0 eV; [M-H]-
PRECURSORMZ: 420.046217
PRECURSORTYPE: [M-H]-
FORMULA: C12H23NO9S3
Ontology: Alkylglucosinolates
INCHIKEY: GKUMMDFLKGFCKH-KALKGZTMSA-N
SMILES: CSCCCCC(S[C@@H]1O[C@H](CO)[C@@H](O)[C@H](O)[C@H]1O)=NOS(O)(=O)=O
RETENTIONTIME: 
CCS: 182.4290747
IONMODE: Negative
INSTRUMENTTYPE: LC-ESI-ITFT
INSTRUMENT: 
COLLISIONENERGY: 90.0
Comment: registered in MassBank
Num Peaks: 8
74.99149	344
79.95783	105
95.95266	744
96.9604	1000
138.97031	21
178.03661	35
259.01349	35
299.07129	37

NAME: Glucoerucin; LC-ESI-ITFT; MS2; HCD; CE 60.0 eV; [M-H]-
PRECURSORMZ: 420.046217
PRECURSORTYPE: [M-H]-
FORMULA: C12H23NO9S3
Ontology: Alkylglucosinolates
INCHIKEY: GKUMMDFLKGFCKH-KALKGZTMSA-N
SMILES: CSCCCCC(S[C@@H]1O[C@H](CO)[C@@H](O)[C@H](O)[C@H]1O)=NOS(O)(=O)=O
RETENTIONTIME: 
CCS: 182.4290747
IONMODE: Negative
INSTRUMENTTYPE: LC-ESI-ITFT
INSTRUMENT: 
COLLISIONENERGY: 60.0
Comment: registered in MassBank
Num Peaks: 20
74.99163	66
79.95795	44
85.02994	8
95.95267	274
96.91877	9
96.94636	11
96.96036	1000
96.97263	8
127.9247	8
128.93269	10
178.037	47
195.03391	8
224.0081	8
226.9882	17
227.02431	8
259.0134	49
274.99091	44
299.06631	12
340.09052	9
420.04681	266

NAME: Glucoerucin; LC-ESI-ITFT; MS2; HCD; CE 80.0 eV; [M-H]-
PRECURSORMZ: 420.046217
PRECURSORTYPE: [M-H]-
FORMULA: C12H23NO9S3
Ontology: Alkylglucosinolates
INCHIKEY: GKUMMDFLKGFCKH-KALKGZTMSA-N
SMILES: CSCCCCC(S[C@@H]1O[C@H](CO)[C@@H](O)[C@H](O)[C@H]1O)=NOS(O)(=O)=O
RETENTIONTIME: 
CCS: 182.4290747
IONMODE: Negative
INSTRUMENTTYPE: LC-ESI-ITFT
INSTRUMENT: 
COLLISIONENERGY: 80.0
Comment: registered in MassBank
Num Peaks: 18
74.99156	256
79.9579	96
80.96574	14
85.03002	11
95.95275	619
96.94647	11
96.96043	1000
96.97393	9
101.0245	12
127.9247	10
128.9333	8
138.9713	11
178.037	44
226.9882	14
259.01349	40
274.99091	29
299.07489	12
420.047	13

NAME: Glucoerucin; LC-ESI-ITFT; MS2; HCD; CE 75.0 eV; [M-H]-
PRECURSORMZ: 420.046217
PRECURSORTYPE: [M-H]-
FORMULA: C12H23NO9S3
Ontology: Alkylglucosinolates
INCHIKEY: GKUMMDFLKGFCKH-KALKGZTMSA-N
SMILES: CSCCCCC(S[C@@H]1O[C@H](CO)[C@@H](O)[C@H](O)[C@H]1O)=NOS(O)(=O)=O
RETENTIONTIME: 
CCS: 182.4290747
IONMODE: Negative
INSTRUMENTTYPE: LC-ESI-ITFT
INSTRUMENT: 
COLLISIONENERGY: 75.0
Comment: registered in MassBank
Num Peaks: 18
74.76754	9
74.99167	85
79.95805	44
85.03015	9
95.95267	425
96.94607	8
96.96029	1000
96.97456	10
101.0248	10
127.9248	13
138.97121	12
178.0368	65
226.98711	16
259.013	54
274.9906	41
291.5975	8
299.07059	15
420.04749	35

NAME: Glucoerucin; LC-ESI-ITFT; MS2; HCD; CE 55.0 eV; [M-H]-
PRECURSORMZ: 420.046217
PRECURSORTYPE: [M-H]-
FORMULA: C12H23NO9S3
Ontology: Alkylglucosinolates
INCHIKEY: GKUMMDFLKGFCKH-KALKGZTMSA-N
SMILES: CSCCCCC(S[C@@H]1O[C@H](CO)[C@@H](O)[C@H](O)[C@H]1O)=NOS(O)(=O)=O
RETENTIONTIME: 
CCS: 182.4290747
IONMODE: Negative
INSTRUMENTTYPE: LC-ESI-ITFT
INSTRUMENT: 
COLLISIONENERGY: 55.0
Comment: registered in MassBank
Num Peaks: 13
74.99158	123
79.9579	47
95.95273	253
96.94666	13
96.96046	1000
96.97432	13
178.0369	43
224.0058	15
259.01349	48
274.9906	40
291.5976	12
299.08621	20
420.047	547

NAME: Glucoerucin; LC-ESI-ITFT; MS2; HCD; CE 85.0 eV; [M-H]-
PRECURSORMZ: 420.046217
PRECURSORTYPE: [M-H]-
FORMULA: C12H23NO9S3
Ontology: Alkylglucosinolates
INCHIKEY: GKUMMDFLKGFCKH-KALKGZTMSA-N
SMILES: CSCCCCC(S[C@@H]1O[C@H](CO)[C@@H](O)[C@H](O)[C@H]1O)=NOS(O)(=O)=O
RETENTIONTIME: 
CCS: 182.4290747
IONMODE: Negative
INSTRUMENTTYPE: LC-ESI-ITFT
INSTRUMENT: 
COLLISIONENERGY: 85.0
Comment: registered in MassBank
Num Peaks: 11
71.01434	12
74.99146	325
79.95786	97
80.96555	14
95.9526	688
96.96032	1000
138.97099	18
178.0369	41
259.01321	37
274.9902	23
299.0777	17

NAME: Glucoerucin; LC-ESI-ITFT; MS2; HCD; CE 70.0 eV; [M-H]-
PRECURSORMZ: 420.046217
PRECURSORTYPE: [M-H]-
FORMULA: C12H23NO9S3
Ontology: Alkylglucosinolates
INCHIKEY: GKUMMDFLKGFCKH-KALKGZTMSA-N
SMILES: CSCCCCC(S[C@@H]1O[C@H](CO)[C@@H](O)[C@H](O)[C@H]1O)=NOS(O)(=O)=O
RETENTIONTIME: 
CCS: 182.4290747
IONMODE: Negative
INSTRUMENTTYPE: LC-ESI-ITFT
INSTRUMENT: 
COLLISIONENERGY: 70.0
Comment: registered in MassBank
Num Peaks: 22
71.01438	5
74.99156	206
79.95787	73
80.96555	8
85.03012	11
95.95275	457
96.91892	7
96.94645	12
96.96042	1000
96.97401	8
97.00201	7
97.95988	7
98.95607	7
101.0249	9
127.9248	8
178.03709	48
224.00639	6
226.9881	15
259.0134	44
274.99051	36
299.0791	11
420.04709	60

NAME: Glucoerucin; LC-ESI-ITFT; MS2; HCD; CE 15.0 eV; [M-H]-
PRECURSORMZ: 420.046217
PRECURSORTYPE: [M-H]-
FORMULA: C12H23NO9S3
Ontology: Alkylglucosinolates
INCHIKEY: GKUMMDFLKGFCKH-KALKGZTMSA-N
SMILES: CSCCCCC(S[C@@H]1O[C@H](CO)[C@@H](O)[C@H](O)[C@H]1O)=NOS(O)(=O)=O
RETENTIONTIME: 
CCS: 182.4290747
IONMODE: Negative
INSTRUMENTTYPE: LC-ESI-ITFT
INSTRUMENT: 
COLLISIONENERGY: 15.0
Comment: registered in MassBank
Num Peaks: 2
299.07251	428
420.04669	1000

NAME: Glucoerucin; LC-ESI-ITFT; MS2; HCD; CE 25.0 eV; [M-H]-
PRECURSORMZ: 420.046217
PRECURSORTYPE: [M-H]-
FORMULA: C12H23NO9S3
Ontology: Alkylglucosinolates
INCHIKEY: GKUMMDFLKGFCKH-KALKGZTMSA-N
SMILES: CSCCCCC(S[C@@H]1O[C@H](CO)[C@@H](O)[C@H](O)[C@H]1O)=NOS(O)(=O)=O
RETENTIONTIME: 
CCS: 182.4290747
IONMODE: Negative
INSTRUMENTTYPE: LC-ESI-ITFT
INSTRUMENT: 
COLLISIONENERGY: 25.0
Comment: registered in MassBank
Num Peaks: 3
291.5928	8
299.07239	14
420.04681	1000

NAME: Glucoerucin; LC-ESI-ITFT; MS2; HCD; CE 5.0 eV; [M-H]-
PRECURSORMZ: 420.046217
PRECURSORTYPE: [M-H]-
FORMULA: C12H23NO9S3
Ontology: Alkylglucosinolates
INCHIKEY: GKUMMDFLKGFCKH-KALKGZTMSA-N
SMILES: CSCCCCC(S[C@@H]1O[C@H](CO)[C@@H](O)[C@H](O)[C@H]1O)=NOS(O)(=O)=O
RETENTIONTIME: 
CCS: 182.4290747
IONMODE: Negative
INSTRUMENTTYPE: LC-ESI-ITFT
INSTRUMENT: 
COLLISIONENERGY: 5.0
Comment: registered in MassBank
Num Peaks: 1
299.08841	1000

NAME: Glucoerucin; LC-ESI-ITFT; MS2; HCD; CE 35.0 eV; [M-H]-
PRECURSORMZ: 420.046217
PRECURSORTYPE: [M-H]-
FORMULA: C12H23NO9S3
Ontology: Alkylglucosinolates
INCHIKEY: GKUMMDFLKGFCKH-KALKGZTMSA-N
SMILES: CSCCCCC(S[C@@H]1O[C@H](CO)[C@@H](O)[C@H](O)[C@H]1O)=NOS(O)(=O)=O
RETENTIONTIME: 
CCS: 182.4290747
IONMODE: Negative
INSTRUMENTTYPE: LC-ESI-ITFT
INSTRUMENT: 
COLLISIONENERGY: 35.0
Comment: registered in MassBank
Num Peaks: 7
74.99149	7
95.95261	7
96.96047	97
259.0126	5
299.07251	7
419.9202	7
420.047	1000

NAME: Glucoerucin; LC-ESI-ITFT; MS2; HCD; CE 20.0 eV; [M-H]-
PRECURSORMZ: 420.046217
PRECURSORTYPE: [M-H]-
FORMULA: C12H23NO9S3
Ontology: Alkylglucosinolates
INCHIKEY: GKUMMDFLKGFCKH-KALKGZTMSA-N
SMILES: CSCCCCC(S[C@@H]1O[C@H](CO)[C@@H](O)[C@H](O)[C@H]1O)=NOS(O)(=O)=O
RETENTIONTIME: 
CCS: 182.4290747
IONMODE: Negative
INSTRUMENTTYPE: LC-ESI-ITFT
INSTRUMENT: 
COLLISIONENERGY: 20.0
Comment: registered in MassBank
Num Peaks: 2
299.065	48
420.04681	1000

NAME: Glucoerucin; LC-ESI-ITFT; MS2; HCD; CE 30.0 eV; [M-H]-
PRECURSORMZ: 420.046217
PRECURSORTYPE: [M-H]-
FORMULA: C12H23NO9S3
Ontology: Alkylglucosinolates
INCHIKEY: GKUMMDFLKGFCKH-KALKGZTMSA-N
SMILES: CSCCCCC(S[C@@H]1O[C@H](CO)[C@@H](O)[C@H](O)[C@H]1O)=NOS(O)(=O)=O
RETENTIONTIME: 
CCS: 182.4290747
IONMODE: Negative
INSTRUMENTTYPE: LC-ESI-ITFT
INSTRUMENT: 
COLLISIONENERGY: 30.0
Comment: registered in MassBank
Num Peaks: 5
96.96035	25
299.07071	8
419.92361	5
420.04651	1000
420.17081	6

NAME: Glucoerucin; LC-ESI-ITFT; MS2; HCD; CE 45.0 eV; [M-H]-
PRECURSORMZ: 420.046217
PRECURSORTYPE: [M-H]-
FORMULA: C12H23NO9S3
Ontology: Alkylglucosinolates
INCHIKEY: GKUMMDFLKGFCKH-KALKGZTMSA-N
SMILES: CSCCCCC(S[C@@H]1O[C@H](CO)[C@@H](O)[C@H](O)[C@H]1O)=NOS(O)(=O)=O
RETENTIONTIME: 
CCS: 182.4290747
IONMODE: Negative
INSTRUMENTTYPE: LC-ESI-ITFT
INSTRUMENT: 
COLLISIONENERGY: 45.0
Comment: registered in MassBank
Num Peaks: 17
74.99158	44
79.95788	19
85.02989	6
95.95275	81
96.91873	5
96.94649	6
96.96046	572
98.95633	6
178.037	15
195.0325	6
226.9874	7
227.0239	11
259.01379	26
274.9903	16
299.0658	9
419.92291	6
420.047	1000

NAME: Glucoerucin; LC-ESI-ITFT; MS2; HCD; CE 40.0 eV; [M-H]-
PRECURSORMZ: 420.046217
PRECURSORTYPE: [M-H]-
FORMULA: C12H23NO9S3
Ontology: Alkylglucosinolates
INCHIKEY: GKUMMDFLKGFCKH-KALKGZTMSA-N
SMILES: CSCCCCC(S[C@@H]1O[C@H](CO)[C@@H](O)[C@H](O)[C@H]1O)=NOS(O)(=O)=O
RETENTIONTIME: 
CCS: 182.4290747
IONMODE: Negative
INSTRUMENTTYPE: LC-ESI-ITFT
INSTRUMENT: 
COLLISIONENERGY: 40.0
Comment: registered in MassBank
Num Peaks: 12
74.99143	21
79.95789	7
95.95248	27
96.96026	255
178.0367	6
259.01309	11
274.99011	7
299.0592	7
419.92209	6
419.9642	5
420.0462	1000
420.15341	5

NAME: Glucoerucin; LC-ESI-ITFT; MS2; HCD; CE 50.0 eV; [M-H]-
PRECURSORMZ: 420.046217
PRECURSORTYPE: [M-H]-
FORMULA: C12H23NO9S3
Ontology: Alkylglucosinolates
INCHIKEY: GKUMMDFLKGFCKH-KALKGZTMSA-N
SMILES: CSCCCCC(S[C@@H]1O[C@H](CO)[C@@H](O)[C@H](O)[C@H]1O)=NOS(O)(=O)=O
RETENTIONTIME: 
CCS: 182.4290747
IONMODE: Negative
INSTRUMENTTYPE: LC-ESI-ITFT
INSTRUMENT: 
COLLISIONENERGY: 50.0
Comment: registered in MassBank
Num Peaks: 21
74.99154	106
79.95789	43
80.96536	9
85.02999	10
95.9527	192
96.91891	9
96.94772	10
96.96041	1000
96.97449	12
97.00219	9
145.05051	7
178.037	33
195.0341	9
226.9881	14
227.0231	15
242.0174	9
259.01331	45
274.9902	40
299.06601	11
340.091	8
420.04691	847

NAME: Glucoerucin; LC-ESI-ITFT; MS2; HCD; CE 10.0 eV; [M-H]-
PRECURSORMZ: 420.046217
PRECURSORTYPE: [M-H]-
FORMULA: C12H23NO9S3
Ontology: Alkylglucosinolates
INCHIKEY: GKUMMDFLKGFCKH-KALKGZTMSA-N
SMILES: CSCCCCC(S[C@@H]1O[C@H](CO)[C@@H](O)[C@H](O)[C@H]1O)=NOS(O)(=O)=O
RETENTIONTIME: 
CCS: 182.4290747
IONMODE: Negative
INSTRUMENTTYPE: LC-ESI-ITFT
INSTRUMENT: 
COLLISIONENERGY: 10.0
Comment: registered in MassBank
Num Peaks: 2
291.62549	621
299.08859	1000

NAME: 3-Hydroxypropyl-Glucosinolate; LC-ESI-ITFT; MS2; HCD; CE 65.0 eV; [M-H]-
PRECURSORMZ: 376.037761
PRECURSORTYPE: [M-H]-
FORMULA: C10H19NO10S2
Ontology: Alkylglucosinolates
INCHIKEY: WIGYSAIZPJAWDF-IZZDOVSWNA-N
SMILES: OCCC\C(SC1OC(CO)C(O)C(O)C1O)=N/OS(O)(=O)=O
RETENTIONTIME: 
CCS: 190.4225965
IONMODE: Negative
INSTRUMENTTYPE: LC-ESI-ITFT
INSTRUMENT: 
COLLISIONENERGY: 65.0
Comment: registered in MassBank
Num Peaks: 9
74.99162	314
79.95795	58
95.9528	370
96.96046	1000
134.0285	50
179.9978	35
259.01379	45
274.99091	49
376.03909	323

NAME: 3-Hydroxypropyl-Glucosinolate; LC-ESI-ITFT; MS2; HCD; CE 90.0 eV; [M-H]-
PRECURSORMZ: 376.037761
PRECURSORTYPE: [M-H]-
FORMULA: C10H19NO10S2
Ontology: Alkylglucosinolates
INCHIKEY: WIGYSAIZPJAWDF-IZZDOVSWNA-N
SMILES: OCCC\C(SC1OC(CO)C(O)C(O)C1O)=N/OS(O)(=O)=O
RETENTIONTIME: 
CCS: 190.4225965
IONMODE: Negative
INSTRUMENTTYPE: LC-ESI-ITFT
INSTRUMENT: 
COLLISIONENERGY: 90.0
Comment: registered in MassBank
Num Peaks: 13
74.76715	15
74.99155	526
79.95793	85
80.96558	19
95.95272	780
96.96047	1000
96.9744	14
101.0245	14
134.02859	67
179.9973	31
259.0127	29
274.9903	25
299.06921	24

NAME: 3-Hydroxypropyl-Glucosinolate; LC-ESI-ITFT; MS2; HCD; CE 60.0 eV; [M-H]-
PRECURSORMZ: 376.037761
PRECURSORTYPE: [M-H]-
FORMULA: C10H19NO10S2
Ontology: Alkylglucosinolates
INCHIKEY: WIGYSAIZPJAWDF-IZZDOVSWNA-N
SMILES: OCCC\C(SC1OC(CO)C(O)C(O)C1O)=N/OS(O)(=O)=O
RETENTIONTIME: 
CCS: 190.4225965
IONMODE: Negative
INSTRUMENTTYPE: LC-ESI-ITFT
INSTRUMENT: 
COLLISIONENERGY: 60.0
Comment: registered in MassBank
Num Peaks: 10
74.99157	258
79.95787	53
95.95274	296
96.9604	1000
134.0285	42
179.9977	35
195.0341	22
259.0137	48
274.9906	47
376.03879	553

NAME: 3-Hydroxypropyl-Glucosinolate; LC-ESI-ITFT; MS2; HCD; CE 80.0 eV; [M-H]-
PRECURSORMZ: 376.037761
PRECURSORTYPE: [M-H]-
FORMULA: C10H19NO10S2
Ontology: Alkylglucosinolates
INCHIKEY: WIGYSAIZPJAWDF-IZZDOVSWNA-N
SMILES: OCCC\C(SC1OC(CO)C(O)C(O)C1O)=N/OS(O)(=O)=O
RETENTIONTIME: 
CCS: 190.4225965
IONMODE: Negative
INSTRUMENTTYPE: LC-ESI-ITFT
INSTRUMENT: 
COLLISIONENERGY: 80.0
Comment: registered in MassBank
Num Peaks: 16
71.0145	14
74.99157	515
79.95786	82
80.96574	17
85.03011	14
95.95272	639
96.94632	13
96.9604	1000
101.0248	13
134.02859	58
179.99789	32
195.0332	11
259.01361	40
274.99091	39
299.06839	17
376.03922	51

NAME: 3-Hydroxypropyl-Glucosinolate; LC-ESI-ITFT; MS2; HCD; CE 75.0 eV; [M-H]-
PRECURSORMZ: 376.037761
PRECURSORTYPE: [M-H]-
FORMULA: C10H19NO10S2
Ontology: Alkylglucosinolates
INCHIKEY: WIGYSAIZPJAWDF-IZZDOVSWNA-N
SMILES: OCCC\C(SC1OC(CO)C(O)C(O)C1O)=N/OS(O)(=O)=O
RETENTIONTIME: 
CCS: 190.4225965
IONMODE: Negative
INSTRUMENTTYPE: LC-ESI-ITFT
INSTRUMENT: 
COLLISIONENERGY: 75.0
Comment: registered in MassBank
Num Peaks: 6
74.99165	400
79.958	74
95.95285	538
96.96051	1000
134.02859	55
376.03909	73

NAME: 3-Hydroxypropyl-Glucosinolate; LC-ESI-ITFT; MS2; HCD; CE 55.0 eV; [M-H]-
PRECURSORMZ: 376.037761
PRECURSORTYPE: [M-H]-
FORMULA: C10H19NO10S2
Ontology: Alkylglucosinolates
INCHIKEY: WIGYSAIZPJAWDF-IZZDOVSWNA-N
SMILES: OCCC\C(SC1OC(CO)C(O)C(O)C1O)=N/OS(O)(=O)=O
RETENTIONTIME: 
CCS: 190.4225965
IONMODE: Negative
INSTRUMENTTYPE: LC-ESI-ITFT
INSTRUMENT: 
COLLISIONENERGY: 55.0
Comment: registered in MassBank
Num Peaks: 11
74.99165	216
79.95798	43
95.95285	239
96.96053	1000
134.0285	42
179.99789	34
195.03391	22
198.00819	16
259.01361	46
274.99081	42
376.03922	950

NAME: 3-Hydroxypropyl-Glucosinolate; LC-ESI-ITFT; MS2; HCD; CE 85.0 eV; [M-H]-
PRECURSORMZ: 376.037761
PRECURSORTYPE: [M-H]-
FORMULA: C10H19NO10S2
Ontology: Alkylglucosinolates
INCHIKEY: WIGYSAIZPJAWDF-IZZDOVSWNA-N
SMILES: OCCC\C(SC1OC(CO)C(O)C(O)C1O)=N/OS(O)(=O)=O
RETENTIONTIME: 
CCS: 190.4225965
IONMODE: Negative
INSTRUMENTTYPE: LC-ESI-ITFT
INSTRUMENT: 
COLLISIONENERGY: 85.0
Comment: registered in MassBank
Num Peaks: 14
71.01447	15
74.99158	568
79.95789	94
80.96578	23
85.02985	12
95.95277	694
96.94643	12
96.96039	1000
101.0247	13
134.0285	60
179.998	26
259.01379	34
274.9906	28
376.03809	20

NAME: 3-Hydroxypropyl-Glucosinolate; LC-ESI-ITFT; MS2; HCD; CE 70.0 eV; [M-H]-
PRECURSORMZ: 376.037761
PRECURSORTYPE: [M-H]-
FORMULA: C10H19NO10S2
Ontology: Alkylglucosinolates
INCHIKEY: WIGYSAIZPJAWDF-IZZDOVSWNA-N
SMILES: OCCC\C(SC1OC(CO)C(O)C(O)C1O)=N/OS(O)(=O)=O
RETENTIONTIME: 
CCS: 190.4225965
IONMODE: Negative
INSTRUMENTTYPE: LC-ESI-ITFT
INSTRUMENT: 
COLLISIONENERGY: 70.0
Comment: registered in MassBank
Num Peaks: 7
74.99162	372
79.95793	66
95.95281	465
96.96049	1000
134.0285	56
274.9906	46
376.039	172

NAME: 3-Hydroxypropyl-Glucosinolate; LC-ESI-ITFT; MS2; HCD; CE 35.0 eV; [M-H]-
PRECURSORMZ: 376.037761
PRECURSORTYPE: [M-H]-
FORMULA: C10H19NO10S2
Ontology: Alkylglucosinolates
INCHIKEY: WIGYSAIZPJAWDF-IZZDOVSWNA-N
SMILES: OCCC\C(SC1OC(CO)C(O)C(O)C1O)=N/OS(O)(=O)=O
RETENTIONTIME: 
CCS: 190.4225965
IONMODE: Negative
INSTRUMENTTYPE: LC-ESI-ITFT
INSTRUMENT: 
COLLISIONENERGY: 35.0
Comment: registered in MassBank
Num Peaks: 2
96.96063	34
376.0387	1000

NAME: 3-Hydroxypropyl-Glucosinolate; LC-ESI-ITFT; MS2; HCD; CE 45.0 eV; [M-H]-
PRECURSORMZ: 376.037761
PRECURSORTYPE: [M-H]-
FORMULA: C10H19NO10S2
Ontology: Alkylglucosinolates
INCHIKEY: WIGYSAIZPJAWDF-IZZDOVSWNA-N
SMILES: OCCC\C(SC1OC(CO)C(O)C(O)C1O)=N/OS(O)(=O)=O
RETENTIONTIME: 
CCS: 190.4225965
IONMODE: Negative
INSTRUMENTTYPE: LC-ESI-ITFT
INSTRUMENT: 
COLLISIONENERGY: 45.0
Comment: registered in MassBank
Num Peaks: 11
74.99162	35
79.958	6
95.95262	32
96.96046	228
134.02859	8
179.9964	7
259.01379	14
274.99109	10
299.07169	10
375.93051	6
376.03891	1000

NAME: 3-Hydroxypropyl-Glucosinolate; LC-ESI-ITFT; MS2; HCD; CE 40.0 eV; [M-H]-
PRECURSORMZ: 376.037761
PRECURSORTYPE: [M-H]-
FORMULA: C10H19NO10S2
Ontology: Alkylglucosinolates
INCHIKEY: WIGYSAIZPJAWDF-IZZDOVSWNA-N
SMILES: OCCC\C(SC1OC(CO)C(O)C(O)C1O)=N/OS(O)(=O)=O
RETENTIONTIME: 
CCS: 190.4225965
IONMODE: Negative
INSTRUMENTTYPE: LC-ESI-ITFT
INSTRUMENT: 
COLLISIONENERGY: 40.0
Comment: registered in MassBank
Num Peaks: 8
74.99154	13
95.95281	11
96.96048	107
259.01309	6
299.07999	8
375.7196	5
376.03891	1000
376.14441	5

NAME: 3-Hydroxypropyl-Glucosinolate; LC-ESI-ITFT; MS2; HCD; CE 50.0 eV; [M-H]-
PRECURSORMZ: 376.037761
PRECURSORTYPE: [M-H]-
FORMULA: C10H19NO10S2
Ontology: Alkylglucosinolates
INCHIKEY: WIGYSAIZPJAWDF-IZZDOVSWNA-N
SMILES: OCCC\C(SC1OC(CO)C(O)C(O)C1O)=N/OS(O)(=O)=O
RETENTIONTIME: 
CCS: 190.4225965
IONMODE: Negative
INSTRUMENTTYPE: LC-ESI-ITFT
INSTRUMENT: 
COLLISIONENERGY: 50.0
Comment: registered in MassBank
Num Peaks: 14
74.77025	7
74.99162	35
79.95789	11
95.95271	66
96.96048	407
134.0287	16
179.9976	15
195.03329	13
198.0074	12
259.01321	22
274.99039	17
291.64828	7
299.08679	12
376.03879	1000

NAME: 4-Methoxy-3-indolylmethyl glucosinolate; LC-ESI-ITFT; MS2; HCD; CE 65.0 eV; [M-H]-
PRECURSORMZ: 477.06431
PRECURSORTYPE: [M-H]-
FORMULA: C17H22N2O10S2
Ontology: Alkylglucosinolates
INCHIKEY: IIAGSABLXRZUSE-KYKLFQSUSA-N
SMILES: COC1=CC=CC2=C1C(CC(S[C@@H]1O[C@H](CO)[C@@H](O)[C@H](O)[C@H]1O)=NOS(O)(=O)=O)=CN2
RETENTIONTIME: 
CCS: 196.452465
IONMODE: Negative
INSTRUMENTTYPE: LC-ESI-ITFT
INSTRUMENT: 
COLLISIONENERGY: 65.0
Comment: registered in MassBank
Num Peaks: 24
74.76865	8
74.99151	49
79.95782	35
85.03023	8
95.9525	423
96.9186	8
96.94683	7
96.95213	9
96.9601	1000
96.97413	10
98.95656	6
119.0353	6
127.9247	9
128.9326	9
195.0325	9
202.03349	6
235.0546	36
241.0005	6
259.013	52
274.99011	49
284.00391	7
291.61069	6
299.07489	16
477.065	50

NAME: 4-Methoxy-3-indolylmethyl glucosinolate; LC-ESI-ITFT; MS2; HCD; CE 90.0 eV; [M-H]-
PRECURSORMZ: 477.06431
PRECURSORTYPE: [M-H]-
FORMULA: C17H22N2O10S2
Ontology: Alkylglucosinolates
INCHIKEY: IIAGSABLXRZUSE-KYKLFQSUSA-N
SMILES: COC1=CC=CC2=C1C(CC(S[C@@H]1O[C@H](CO)[C@@H](O)[C@H](O)[C@H]1O)=NOS(O)(=O)=O)=CN2
RETENTIONTIME: 
CCS: 196.452465
IONMODE: Negative
INSTRUMENTTYPE: LC-ESI-ITFT
INSTRUMENT: 
COLLISIONENERGY: 90.0
Comment: registered in MassBank
Num Peaks: 7
74.76554	41
74.99143	228
79.95773	85
95.95254	903
96.96036	1000
291.6044	53
299.06311	89

NAME: 4-Methoxy-3-indolylmethyl glucosinolate; LC-ESI-ITFT; MS2; HCD; CE 60.0 eV; [M-H]-
PRECURSORMZ: 477.06431
PRECURSORTYPE: [M-H]-
FORMULA: C17H22N2O10S2
Ontology: Alkylglucosinolates
INCHIKEY: IIAGSABLXRZUSE-KYKLFQSUSA-N
SMILES: COC1=CC=CC2=C1C(CC(S[C@@H]1O[C@H](CO)[C@@H](O)[C@H](O)[C@H]1O)=NOS(O)(=O)=O)=CN2
RETENTIONTIME: 
CCS: 196.452465
IONMODE: Negative
INSTRUMENTTYPE: LC-ESI-ITFT
INSTRUMENT: 
COLLISIONENERGY: 60.0
Comment: registered in MassBank
Num Peaks: 23
74.7672	6
74.9916	116
79.95793	71
85.02998	12
95.95277	480
95.96558	6
96.91877	8
96.94669	11
96.96046	1000
96.97363	11
97.0013	7
97.95944	6
121.9557	5
127.9248	9
128.93291	7
227.0224	6
235.0555	32
259.01361	39
274.99039	38
290.9874	7
291.64169	7
299.07019	12
477.06549	69

NAME: 4-Methoxy-3-indolylmethyl glucosinolate; LC-ESI-ITFT; MS2; HCD; CE 80.0 eV; [M-H]-
PRECURSORMZ: 477.06431
PRECURSORTYPE: [M-H]-
FORMULA: C17H22N2O10S2
Ontology: Alkylglucosinolates
INCHIKEY: IIAGSABLXRZUSE-KYKLFQSUSA-N
SMILES: COC1=CC=CC2=C1C(CC(S[C@@H]1O[C@H](CO)[C@@H](O)[C@H](O)[C@H]1O)=NOS(O)(=O)=O)=CN2
RETENTIONTIME: 
CCS: 196.452465
IONMODE: Negative
INSTRUMENTTYPE: LC-ESI-ITFT
INSTRUMENT: 
COLLISIONENERGY: 80.0
Comment: registered in MassBank
Num Peaks: 19
74.7644	11
74.99154	223
79.95785	104
80.96544	8
85.03008	12
95.93893	9
95.95268	807
96.9196	9
96.94641	11
96.9604	1000
97.00154	9
97.95976	9
127.9248	9
138.9706	15
235.0563	27
259.01401	27
274.98941	20
291.5932	12
299.05688	21

NAME: 4-Methoxy-3-indolylmethyl glucosinolate; LC-ESI-ITFT; MS2; HCD; CE 75.0 eV; [M-H]-
PRECURSORMZ: 477.06431
PRECURSORTYPE: [M-H]-
FORMULA: C17H22N2O10S2
Ontology: Alkylglucosinolates
INCHIKEY: IIAGSABLXRZUSE-KYKLFQSUSA-N
SMILES: COC1=CC=CC2=C1C(CC(S[C@@H]1O[C@H](CO)[C@@H](O)[C@H](O)[C@H]1O)=NOS(O)(=O)=O)=CN2
RETENTIONTIME: 
CCS: 196.452465
IONMODE: Negative
INSTRUMENTTYPE: LC-ESI-ITFT
INSTRUMENT: 
COLLISIONENERGY: 75.0
Comment: registered in MassBank
Num Peaks: 25
71.01431	6
74.7682	8
74.99155	195
79.95785	101
80.96568	8
85.02978	10
95.93895	7
95.95273	721
95.9665	7
96.91862	8
96.94679	11
96.95148	5
96.9604	1000
96.97428	9
97.00214	7
97.96025	5
101.0251	8
127.9251	7
138.9709	11
235.0554	27
259.0134	35
274.9903	29
291.58499	7
299.07251	12
477.0726	7

NAME: 4-Methoxy-3-indolylmethyl glucosinolate; LC-ESI-ITFT; MS2; HCD; CE 55.0 eV; [M-H]-
PRECURSORMZ: 477.06431
PRECURSORTYPE: [M-H]-
FORMULA: C17H22N2O10S2
Ontology: Alkylglucosinolates
INCHIKEY: IIAGSABLXRZUSE-KYKLFQSUSA-N
SMILES: COC1=CC=CC2=C1C(CC(S[C@@H]1O[C@H](CO)[C@@H](O)[C@H](O)[C@H]1O)=NOS(O)(=O)=O)=CN2
RETENTIONTIME: 
CCS: 196.452465
IONMODE: Negative
INSTRUMENTTYPE: LC-ESI-ITFT
INSTRUMENT: 
COLLISIONENERGY: 55.0
Comment: registered in MassBank
Num Peaks: 18
74.76653	12
74.99154	93
79.95793	53
85.02998	11
95.9527	395
96.94683	10
96.95132	8
96.96044	1000
96.97282	10
128.9325	8
227.0246	11
235.05569	31
259.013	34
274.9906	45
290.98361	12
291.61859	10
299.06519	21
477.0647	170

NAME: 4-Methoxy-3-indolylmethyl glucosinolate; LC-ESI-ITFT; MS2; HCD; CE 85.0 eV; [M-H]-
PRECURSORMZ: 477.06431
PRECURSORTYPE: [M-H]-
FORMULA: C17H22N2O10S2
Ontology: Alkylglucosinolates
INCHIKEY: IIAGSABLXRZUSE-KYKLFQSUSA-N
SMILES: COC1=CC=CC2=C1C(CC(S[C@@H]1O[C@H](CO)[C@@H](O)[C@H](O)[C@H]1O)=NOS(O)(=O)=O)=CN2
RETENTIONTIME: 
CCS: 196.452465
IONMODE: Negative
INSTRUMENTTYPE: LC-ESI-ITFT
INSTRUMENT: 
COLLISIONENERGY: 85.0
Comment: registered in MassBank
Num Peaks: 9
74.76376	25
74.99155	220
79.95773	104
95.95262	846
96.9604	1000
235.05499	31
259.0144	25
291.603	28
299.05719	67

NAME: 4-Methoxy-3-indolylmethyl glucosinolate; LC-ESI-ITFT; MS2; HCD; CE 70.0 eV; [M-H]-
PRECURSORMZ: 477.06431
PRECURSORTYPE: [M-H]-
FORMULA: C17H22N2O10S2
Ontology: Alkylglucosinolates
INCHIKEY: IIAGSABLXRZUSE-KYKLFQSUSA-N
SMILES: COC1=CC=CC2=C1C(CC(S[C@@H]1O[C@H](CO)[C@@H](O)[C@H](O)[C@H]1O)=NOS(O)(=O)=O)=CN2
RETENTIONTIME: 
CCS: 196.452465
IONMODE: Negative
INSTRUMENTTYPE: LC-ESI-ITFT
INSTRUMENT: 
COLLISIONENERGY: 70.0
Comment: registered in MassBank
Num Peaks: 28
74.76401	5
74.99152	178
79.95788	94
80.96594	8
85.03001	12
95.91198	5
95.94009	6
95.95272	660
95.96649	7
96.91894	8
96.9476	8
96.95187	6
96.96038	1000
96.97442	11
97.00206	7
97.95986	6
98.95599	5
101.0248	7
127.9246	8
128.93221	7
138.9716	7
235.0553	31
259.0134	32
274.99039	35
284.00571	5
291.63309	6
299.05771	11
477.06369	12

NAME: 4-Methoxy-3-indolylmethyl glucosinolate; LC-ESI-ITFT; MS2; HCD; CE 15.0 eV; [M-H]-
PRECURSORMZ: 477.06431
PRECURSORTYPE: [M-H]-
FORMULA: C17H22N2O10S2
Ontology: Alkylglucosinolates
INCHIKEY: IIAGSABLXRZUSE-KYKLFQSUSA-N
SMILES: COC1=CC=CC2=C1C(CC(S[C@@H]1O[C@H](CO)[C@@H](O)[C@H](O)[C@H]1O)=NOS(O)(=O)=O)=CN2
RETENTIONTIME: 
CCS: 196.452465
IONMODE: Negative
INSTRUMENTTYPE: LC-ESI-ITFT
INSTRUMENT: 
COLLISIONENERGY: 15.0
Comment: registered in MassBank
Num Peaks: 4
74.76232	22
291.59329	21
299.04849	45
477.0639	1000

NAME: 4-Methoxy-3-indolylmethyl glucosinolate; LC-ESI-ITFT; MS2; HCD; CE 25.0 eV; [M-H]-
PRECURSORMZ: 477.06431
PRECURSORTYPE: [M-H]-
FORMULA: C17H22N2O10S2
Ontology: Alkylglucosinolates
INCHIKEY: IIAGSABLXRZUSE-KYKLFQSUSA-N
SMILES: COC1=CC=CC2=C1C(CC(S[C@@H]1O[C@H](CO)[C@@H](O)[C@H](O)[C@H]1O)=NOS(O)(=O)=O)=CN2
RETENTIONTIME: 
CCS: 196.452465
IONMODE: Negative
INSTRUMENTTYPE: LC-ESI-ITFT
INSTRUMENT: 
COLLISIONENERGY: 25.0
Comment: registered in MassBank
Num Peaks: 4
74.76436	51
291.56229	48
299.05649	100
477.06439	1000

NAME: 4-Methoxy-3-indolylmethyl glucosinolate; LC-ESI-ITFT; MS2; HCD; CE 5.0 eV; [M-H]-
PRECURSORMZ: 477.06431
PRECURSORTYPE: [M-H]-
FORMULA: C17H22N2O10S2
Ontology: Alkylglucosinolates
INCHIKEY: IIAGSABLXRZUSE-KYKLFQSUSA-N
SMILES: COC1=CC=CC2=C1C(CC(S[C@@H]1O[C@H](CO)[C@@H](O)[C@H](O)[C@H]1O)=NOS(O)(=O)=O)=CN2
RETENTIONTIME: 
CCS: 196.452465
IONMODE: Negative
INSTRUMENTTYPE: LC-ESI-ITFT
INSTRUMENT: 
COLLISIONENERGY: 5.0
Comment: registered in MassBank
Num Peaks: 3
74.76586	375
299.06259	1000
477.0639	704

NAME: 4-Methoxy-3-indolylmethyl glucosinolate; LC-ESI-ITFT; MS2; HCD; CE 35.0 eV; [M-H]-
PRECURSORMZ: 477.06431
PRECURSORTYPE: [M-H]-
FORMULA: C17H22N2O10S2
Ontology: Alkylglucosinolates
INCHIKEY: IIAGSABLXRZUSE-KYKLFQSUSA-N
SMILES: COC1=CC=CC2=C1C(CC(S[C@@H]1O[C@H](CO)[C@@H](O)[C@H](O)[C@H]1O)=NOS(O)(=O)=O)=CN2
RETENTIONTIME: 
CCS: 196.452465
IONMODE: Negative
INSTRUMENTTYPE: LC-ESI-ITFT
INSTRUMENT: 
COLLISIONENERGY: 35.0
Comment: registered in MassBank
Num Peaks: 6
74.76048	27
95.95275	27
96.9605	158
291.586	25
299.04221	52
477.06479	1000

NAME: 4-Methoxy-3-indolylmethyl glucosinolate; LC-ESI-ITFT; MS2; HCD; CE 20.0 eV; [M-H]-
PRECURSORMZ: 477.06431
PRECURSORTYPE: [M-H]-
FORMULA: C17H22N2O10S2
Ontology: Alkylglucosinolates
INCHIKEY: IIAGSABLXRZUSE-KYKLFQSUSA-N
SMILES: COC1=CC=CC2=C1C(CC(S[C@@H]1O[C@H](CO)[C@@H](O)[C@H](O)[C@H]1O)=NOS(O)(=O)=O)=CN2
RETENTIONTIME: 
CCS: 196.452465
IONMODE: Negative
INSTRUMENTTYPE: LC-ESI-ITFT
INSTRUMENT: 
COLLISIONENERGY: 20.0
Comment: registered in MassBank
Num Peaks: 4
74.76417	31
291.60049	31
299.0556	79
477.06409	1000

NAME: 4-Methoxy-3-indolylmethyl glucosinolate; LC-ESI-ITFT; MS2; HCD; CE 30.0 eV; [M-H]-
PRECURSORMZ: 477.06431
PRECURSORTYPE: [M-H]-
FORMULA: C17H22N2O10S2
Ontology: Alkylglucosinolates
INCHIKEY: IIAGSABLXRZUSE-KYKLFQSUSA-N
SMILES: COC1=CC=CC2=C1C(CC(S[C@@H]1O[C@H](CO)[C@@H](O)[C@H](O)[C@H]1O)=NOS(O)(=O)=O)=CN2
RETENTIONTIME: 
CCS: 196.452465
IONMODE: Negative
INSTRUMENTTYPE: LC-ESI-ITFT
INSTRUMENT: 
COLLISIONENERGY: 30.0
Comment: registered in MassBank
Num Peaks: 4
74.76398	106
291.5986	106
299.0589	201
477.06491	1000

NAME: 4-Methoxy-3-indolylmethyl glucosinolate; LC-ESI-ITFT; MS2; HCD; CE 45.0 eV; [M-H]-
PRECURSORMZ: 477.06431
PRECURSORTYPE: [M-H]-
FORMULA: C17H22N2O10S2
Ontology: Alkylglucosinolates
INCHIKEY: IIAGSABLXRZUSE-KYKLFQSUSA-N
SMILES: COC1=CC=CC2=C1C(CC(S[C@@H]1O[C@H](CO)[C@@H](O)[C@H](O)[C@H]1O)=NOS(O)(=O)=O)=CN2
RETENTIONTIME: 
CCS: 196.452465
IONMODE: Negative
INSTRUMENTTYPE: LC-ESI-ITFT
INSTRUMENT: 
COLLISIONENERGY: 45.0
Comment: registered in MassBank
Num Peaks: 16
74.76405	8
74.99155	66
79.95785	41
85.03043	13
95.95268	265
96.96039	1000
121.9548	10
195.0314	8
227.02361	16
235.0555	24
259.01401	34
274.99091	38
290.98431	23
291.5748	9
299.0564	18
477.0647	726

NAME: 4-Methoxy-3-indolylmethyl glucosinolate; LC-ESI-ITFT; MS2; HCD; CE 40.0 eV; [M-H]-
PRECURSORMZ: 477.06431
PRECURSORTYPE: [M-H]-
FORMULA: C17H22N2O10S2
Ontology: Alkylglucosinolates
INCHIKEY: IIAGSABLXRZUSE-KYKLFQSUSA-N
SMILES: COC1=CC=CC2=C1C(CC(S[C@@H]1O[C@H](CO)[C@@H](O)[C@H](O)[C@H]1O)=NOS(O)(=O)=O)=CN2
RETENTIONTIME: 
CCS: 196.452465
IONMODE: Negative
INSTRUMENTTYPE: LC-ESI-ITFT
INSTRUMENT: 
COLLISIONENERGY: 40.0
Comment: registered in MassBank
Num Peaks: 5
74.76726	308
96.9607	337
291.5885	283
299.0694	629
477.06381	1000

NAME: 4-Methoxy-3-indolylmethyl glucosinolate; LC-ESI-ITFT; MS2; HCD; CE 50.0 eV; [M-H]-
PRECURSORMZ: 477.06431
PRECURSORTYPE: [M-H]-
FORMULA: C17H22N2O10S2
Ontology: Alkylglucosinolates
INCHIKEY: IIAGSABLXRZUSE-KYKLFQSUSA-N
SMILES: COC1=CC=CC2=C1C(CC(S[C@@H]1O[C@H](CO)[C@@H](O)[C@H](O)[C@H]1O)=NOS(O)(=O)=O)=CN2
RETENTIONTIME: 
CCS: 196.452465
IONMODE: Negative
INSTRUMENTTYPE: LC-ESI-ITFT
INSTRUMENT: 
COLLISIONENERGY: 50.0
Comment: registered in MassBank
Num Peaks: 21
74.76455	7
74.99153	93
79.95789	44
85.02979	10
95.95268	330
96.91919	7
96.94656	9
96.9604	1000
96.97392	8
97.00223	7
97.96016	6
121.9556	6
195.0336	8
227.02361	13
235.0554	29
259.01331	33
274.9903	34
290.98489	17
291.56339	11
299.05591	16
477.0647	351

NAME: 4-Methoxy-3-indolylmethyl glucosinolate; LC-ESI-ITFT; MS2; HCD; CE 10.0 eV; [M-H]-
PRECURSORMZ: 477.06431
PRECURSORTYPE: [M-H]-
FORMULA: C17H22N2O10S2
Ontology: Alkylglucosinolates
INCHIKEY: IIAGSABLXRZUSE-KYKLFQSUSA-N
SMILES: COC1=CC=CC2=C1C(CC(S[C@@H]1O[C@H](CO)[C@@H](O)[C@H](O)[C@H]1O)=NOS(O)(=O)=O)=CN2
RETENTIONTIME: 
CCS: 196.452465
IONMODE: Negative
INSTRUMENTTYPE: LC-ESI-ITFT
INSTRUMENT: 
COLLISIONENERGY: 10.0
Comment: registered in MassBank
Num Peaks: 3
74.76376	511
291.61301	625
299.0549	1000

NAME: 3-Methylthiopropyl-Glucosinolate; LC-ESI-ITFT; MS2; HCD; CE 65.0 eV; [M-H]-
PRECURSORMZ: 406.030567
PRECURSORTYPE: [M-H]-
FORMULA: C11H21NO9S3
Ontology: Alkylglucosinolates
INCHIKEY: ZCZCVJVUJGULMO-KPKJPENVNA-N
SMILES: CSCCC\C(SC1OC(CO)C(O)C(O)C1O)=N/OS(O)(=O)=O
RETENTIONTIME: 
CCS: 179.2301249
IONMODE: Negative
INSTRUMENTTYPE: LC-ESI-ITFT
INSTRUMENT: 
COLLISIONENERGY: 65.0
Comment: registered in MassBank
Num Peaks: 15
74.99146	190
79.95779	62
80.96564	13
85.02991	12
95.95265	365
96.94572	11
96.9603	1000
96.97478	10
98.95603	10
164.0211	38
195.0331	8
212.97211	17
259.01321	45
274.9902	37
406.03091	137

NAME: 3-Methylthiopropyl-Glucosinolate; LC-ESI-ITFT; MS2; HCD; CE 90.0 eV; [M-H]-
PRECURSORMZ: 406.030567
PRECURSORTYPE: [M-H]-
FORMULA: C11H21NO9S3
Ontology: Alkylglucosinolates
INCHIKEY: ZCZCVJVUJGULMO-KPKJPENVNA-N
SMILES: CSCCC\C(SC1OC(CO)C(O)C(O)C1O)=N/OS(O)(=O)=O
RETENTIONTIME: 
CCS: 179.2301249
IONMODE: Negative
INSTRUMENTTYPE: LC-ESI-ITFT
INSTRUMENT: 
COLLISIONENERGY: 90.0
Comment: registered in MassBank
Num Peaks: 15
71.01455	13
74.7695	10
74.99155	439
79.95789	104
80.96595	21
95.95268	754
95.9665	10
96.96039	1000
96.97434	14
138.97121	19
164.0211	31
259.01361	28
274.99081	17
291.6261	12
299.0784	22

NAME: 3-Methylthiopropyl-Glucosinolate; LC-ESI-ITFT; MS2; HCD; CE 60.0 eV; [M-H]-
PRECURSORMZ: 406.030567
PRECURSORTYPE: [M-H]-
FORMULA: C11H21NO9S3
Ontology: Alkylglucosinolates
INCHIKEY: ZCZCVJVUJGULMO-KPKJPENVNA-N
SMILES: CSCCC\C(SC1OC(CO)C(O)C(O)C1O)=N/OS(O)(=O)=O
RETENTIONTIME: 
CCS: 179.2301249
IONMODE: Negative
INSTRUMENTTYPE: LC-ESI-ITFT
INSTRUMENT: 
COLLISIONENERGY: 60.0
Comment: registered in MassBank
Num Peaks: 12
74.99164	74
79.95794	43
85.02978	10
95.95267	281
96.96035	1000
164.0213	42
195.03371	12
212.9726	17
259.01361	56
274.991	43
299.07721	16
406.03119	358

NAME: 3-Methylthiopropyl-Glucosinolate; LC-ESI-ITFT; MS2; HCD; CE 80.0 eV; [M-H]-
PRECURSORMZ: 406.030567
PRECURSORTYPE: [M-H]-
FORMULA: C11H21NO9S3
Ontology: Alkylglucosinolates
INCHIKEY: ZCZCVJVUJGULMO-KPKJPENVNA-N
SMILES: CSCCC\C(SC1OC(CO)C(O)C(O)C1O)=N/OS(O)(=O)=O
RETENTIONTIME: 
CCS: 179.2301249
IONMODE: Negative
INSTRUMENTTYPE: LC-ESI-ITFT
INSTRUMENT: 
COLLISIONENERGY: 80.0
Comment: registered in MassBank
Num Peaks: 18
71.01437	10
74.99143	354
79.95773	99
80.9656	14
85.02981	12
95.95257	621
96.94618	12
96.96019	1000
96.97416	11
101.0246	10
127.9249	10
138.9709	11
164.0211	37
212.972	13
259.01309	43
274.98999	26
299.07321	10
406.03079	14

NAME: 3-Methylthiopropyl-Glucosinolate; LC-ESI-ITFT; MS2; HCD; CE 75.0 eV; [M-H]-
PRECURSORMZ: 406.030567
PRECURSORTYPE: [M-H]-
FORMULA: C11H21NO9S3
Ontology: Alkylglucosinolates
INCHIKEY: ZCZCVJVUJGULMO-KPKJPENVNA-N
SMILES: CSCCC\C(SC1OC(CO)C(O)C(O)C1O)=N/OS(O)(=O)=O
RETENTIONTIME: 
CCS: 179.2301249
IONMODE: Negative
INSTRUMENTTYPE: LC-ESI-ITFT
INSTRUMENT: 
COLLISIONENERGY: 75.0
Comment: registered in MassBank
Num Peaks: 23
71.01437	7
74.76858	7
74.99158	294
79.95788	82
80.96564	16
85.02994	10
95.95274	537
96.9187	10
96.94659	7
96.9604	1000
96.96934	7
96.97435	9
97.00196	8
101.0247	11
127.9243	8
138.9711	8
164.0213	38
212.9724	21
259.01321	45
274.99039	31
291.61871	9
299.07269	13
406.03159	37

NAME: 3-Methylthiopropyl-Glucosinolate; LC-ESI-ITFT; MS2; HCD; CE 55.0 eV; [M-H]-
PRECURSORMZ: 406.030567
PRECURSORTYPE: [M-H]-
FORMULA: C11H21NO9S3
Ontology: Alkylglucosinolates
INCHIKEY: ZCZCVJVUJGULMO-KPKJPENVNA-N
SMILES: CSCCC\C(SC1OC(CO)C(O)C(O)C1O)=N/OS(O)(=O)=O
RETENTIONTIME: 
CCS: 179.2301249
IONMODE: Negative
INSTRUMENTTYPE: LC-ESI-ITFT
INSTRUMENT: 
COLLISIONENERGY: 55.0
Comment: registered in MassBank
Num Peaks: 16
74.99158	147
79.95789	56
80.96572	10
85.02994	11
95.95279	239
96.94633	12
96.96041	1000
98.9561	11
164.02139	34
195.03371	10
209.9903	11
212.9727	13
227.0233	9
259.01361	42
274.9906	35
406.03149	444

NAME: 3-Methylthiopropyl-Glucosinolate; LC-ESI-ITFT; MS2; HCD; CE 85.0 eV; [M-H]-
PRECURSORMZ: 406.030567
PRECURSORTYPE: [M-H]-
FORMULA: C11H21NO9S3
Ontology: Alkylglucosinolates
INCHIKEY: ZCZCVJVUJGULMO-KPKJPENVNA-N
SMILES: CSCCC\C(SC1OC(CO)C(O)C(O)C1O)=N/OS(O)(=O)=O
RETENTIONTIME: 
CCS: 179.2301249
IONMODE: Negative
INSTRUMENTTYPE: LC-ESI-ITFT
INSTRUMENT: 
COLLISIONENERGY: 85.0
Comment: registered in MassBank
Num Peaks: 19
71.01432	11
74.76803	12
74.99149	407
79.95783	109
80.96568	17
85.02966	13
95.95263	716
96.9188	9
96.96033	1000
96.97443	10
101.0249	14
138.9711	16
164.0213	35
212.9716	12
259.01321	39
274.99011	21
291.62479	10
299.0722	24
406.02881	9

NAME: 3-Methylthiopropyl-Glucosinolate; LC-ESI-ITFT; MS2; HCD; CE 70.0 eV; [M-H]-
PRECURSORMZ: 406.030567
PRECURSORTYPE: [M-H]-
FORMULA: C11H21NO9S3
Ontology: Alkylglucosinolates
INCHIKEY: ZCZCVJVUJGULMO-KPKJPENVNA-N
SMILES: CSCCC\C(SC1OC(CO)C(O)C(O)C1O)=N/OS(O)(=O)=O
RETENTIONTIME: 
CCS: 179.2301249
IONMODE: Negative
INSTRUMENTTYPE: LC-ESI-ITFT
INSTRUMENT: 
COLLISIONENERGY: 70.0
Comment: registered in MassBank
Num Peaks: 23
71.01456	7
74.99144	268
79.95777	73
80.9657	14
85.02972	14
95.95257	462
95.95956	7
96.91972	7
96.94637	9
96.95212	9
96.96027	1000
96.96742	15
96.97243	7
127.9241	7
164.0211	44
195.0329	9
209.99049	7
212.97211	16
259.01309	53
274.9899	37
291.62421	11
299.07031	17
406.03079	84

NAME: 3-Methylthiopropyl-Glucosinolate; LC-ESI-ITFT; MS2; HCD; CE 15.0 eV; [M-H]-
PRECURSORMZ: 406.030567
PRECURSORTYPE: [M-H]-
FORMULA: C11H21NO9S3
Ontology: Alkylglucosinolates
INCHIKEY: ZCZCVJVUJGULMO-KPKJPENVNA-N
SMILES: CSCCC\C(SC1OC(CO)C(O)C(O)C1O)=N/OS(O)(=O)=O
RETENTIONTIME: 
CCS: 179.2301249
IONMODE: Negative
INSTRUMENTTYPE: LC-ESI-ITFT
INSTRUMENT: 
COLLISIONENERGY: 15.0
Comment: registered in MassBank
Num Peaks: 4
299.0549	9
405.96689	5
406.03131	1000
406.15219	5

NAME: 3-Methylthiopropyl-Glucosinolate; LC-ESI-ITFT; MS2; HCD; CE 25.0 eV; [M-H]-
PRECURSORMZ: 406.030567
PRECURSORTYPE: [M-H]-
FORMULA: C11H21NO9S3
Ontology: Alkylglucosinolates
INCHIKEY: ZCZCVJVUJGULMO-KPKJPENVNA-N
SMILES: CSCCC\C(SC1OC(CO)C(O)C(O)C1O)=N/OS(O)(=O)=O
RETENTIONTIME: 
CCS: 179.2301249
IONMODE: Negative
INSTRUMENTTYPE: LC-ESI-ITFT
INSTRUMENT: 
COLLISIONENERGY: 25.0
Comment: registered in MassBank
Num Peaks: 3
96.96046	11
405.91241	6
406.03159	1000

NAME: 3-Methylthiopropyl-Glucosinolate; LC-ESI-ITFT; MS2; HCD; CE 5.0 eV; [M-H]-
PRECURSORMZ: 406.030567
PRECURSORTYPE: [M-H]-
FORMULA: C11H21NO9S3
Ontology: Alkylglucosinolates
INCHIKEY: ZCZCVJVUJGULMO-KPKJPENVNA-N
SMILES: CSCCC\C(SC1OC(CO)C(O)C(O)C1O)=N/OS(O)(=O)=O
RETENTIONTIME: 
CCS: 179.2301249
IONMODE: Negative
INSTRUMENTTYPE: LC-ESI-ITFT
INSTRUMENT: 
COLLISIONENERGY: 5.0
Comment: registered in MassBank
Num Peaks: 2
405.91061	8
406.03091	1000

NAME: 3-Methylthiopropyl-Glucosinolate; LC-ESI-ITFT; MS2; HCD; CE 35.0 eV; [M-H]-
PRECURSORMZ: 406.030567
PRECURSORTYPE: [M-H]-
FORMULA: C11H21NO9S3
Ontology: Alkylglucosinolates
INCHIKEY: ZCZCVJVUJGULMO-KPKJPENVNA-N
SMILES: CSCCC\C(SC1OC(CO)C(O)C(O)C1O)=N/OS(O)(=O)=O
RETENTIONTIME: 
CCS: 179.2301249
IONMODE: Negative
INSTRUMENTTYPE: LC-ESI-ITFT
INSTRUMENT: 
COLLISIONENERGY: 35.0
Comment: registered in MassBank
Num Peaks: 6
74.9916	8
95.95261	7
96.96043	96
299.05951	5
406.0314	1000
406.15201	6

NAME: 3-Methylthiopropyl-Glucosinolate; LC-ESI-ITFT; MS2; HCD; CE 20.0 eV; [M-H]-
PRECURSORMZ: 406.030567
PRECURSORTYPE: [M-H]-
FORMULA: C11H21NO9S3
Ontology: Alkylglucosinolates
INCHIKEY: ZCZCVJVUJGULMO-KPKJPENVNA-N
SMILES: CSCCC\C(SC1OC(CO)C(O)C(O)C1O)=N/OS(O)(=O)=O
RETENTIONTIME: 
CCS: 179.2301249
IONMODE: Negative
INSTRUMENTTYPE: LC-ESI-ITFT
INSTRUMENT: 
COLLISIONENERGY: 20.0
Comment: registered in MassBank
Num Peaks: 5
299.05719	5
405.92471	6
405.96909	6
406.0314	1000
406.15121	7

NAME: 3-Methylthiopropyl-Glucosinolate; LC-ESI-ITFT; MS2; HCD; CE 30.0 eV; [M-H]-
PRECURSORMZ: 406.030567
PRECURSORTYPE: [M-H]-
FORMULA: C11H21NO9S3
Ontology: Alkylglucosinolates
INCHIKEY: ZCZCVJVUJGULMO-KPKJPENVNA-N
SMILES: CSCCC\C(SC1OC(CO)C(O)C(O)C1O)=N/OS(O)(=O)=O
RETENTIONTIME: 
CCS: 179.2301249
IONMODE: Negative
INSTRUMENTTYPE: LC-ESI-ITFT
INSTRUMENT: 
COLLISIONENERGY: 30.0
Comment: registered in MassBank
Num Peaks: 5
74.76447	5
96.96038	24
299.05899	9
406.03159	1000
406.15289	5

NAME: 3-Methylthiopropyl-Glucosinolate; LC-ESI-ITFT; MS2; HCD; CE 45.0 eV; [M-H]-
PRECURSORMZ: 406.030567
PRECURSORTYPE: [M-H]-
FORMULA: C11H21NO9S3
Ontology: Alkylglucosinolates
INCHIKEY: ZCZCVJVUJGULMO-KPKJPENVNA-N
SMILES: CSCCC\C(SC1OC(CO)C(O)C(O)C1O)=N/OS(O)(=O)=O
RETENTIONTIME: 
CCS: 179.2301249
IONMODE: Negative
INSTRUMENTTYPE: LC-ESI-ITFT
INSTRUMENT: 
COLLISIONENERGY: 45.0
Comment: registered in MassBank
Num Peaks: 10
74.99167	24
79.95794	12
95.95278	59
96.96052	405
164.0217	9
228.0005	7
259.01431	20
274.99051	12
299.06369	14
406.03149	1000

NAME: 3-Methylthiopropyl-Glucosinolate; LC-ESI-ITFT; MS2; HCD; CE 40.0 eV; [M-H]-
PRECURSORMZ: 406.030567
PRECURSORTYPE: [M-H]-
FORMULA: C11H21NO9S3
Ontology: Alkylglucosinolates
INCHIKEY: ZCZCVJVUJGULMO-KPKJPENVNA-N
SMILES: CSCCC\C(SC1OC(CO)C(O)C(O)C1O)=N/OS(O)(=O)=O
RETENTIONTIME: 
CCS: 179.2301249
IONMODE: Negative
INSTRUMENTTYPE: LC-ESI-ITFT
INSTRUMENT: 
COLLISIONENERGY: 40.0
Comment: registered in MassBank
Num Peaks: 9
74.76727	8
74.99158	6
95.95245	16
96.96024	169
259.01321	8
291.62729	5
299.06921	14
403.77921	5
406.0307	1000

NAME: 3-Methylthiopropyl-Glucosinolate; LC-ESI-ITFT; MS2; HCD; CE 50.0 eV; [M-H]-
PRECURSORMZ: 406.030567
PRECURSORTYPE: [M-H]-
FORMULA: C11H21NO9S3
Ontology: Alkylglucosinolates
INCHIKEY: ZCZCVJVUJGULMO-KPKJPENVNA-N
SMILES: CSCCC\C(SC1OC(CO)C(O)C(O)C1O)=N/OS(O)(=O)=O
RETENTIONTIME: 
CCS: 179.2301249
IONMODE: Negative
INSTRUMENTTYPE: LC-ESI-ITFT
INSTRUMENT: 
COLLISIONENERGY: 50.0
Comment: registered in MassBank
Num Peaks: 10
74.99162	120
79.95797	43
95.95279	187
96.96047	1000
164.02139	31
212.972	15
227.0238	15
259.01379	52
274.99091	30
406.03171	908

NAME: Indolylmethyl glucosinolate; LC-ESI-ITFT; MS2; HCD; CE 65.0 eV; [M-H]-
PRECURSORMZ: 447.053745
PRECURSORTYPE: [M-H]-
FORMULA: C16H20N2O9S2
Ontology: Alkylglucosinolates
INCHIKEY: DNDNWOWHUWNBCK-LDADJPATNA-N
SMILES: OCC1OC(S\C(CC2=CNC3=CC=CC=C23)=N\OS(O)(=O)=O)C(O)C(O)C1O
RETENTIONTIME: 
CCS: 189.7466183
IONMODE: Negative
INSTRUMENTTYPE: LC-ESI-ITFT
INSTRUMENT: 
COLLISIONENERGY: 65.0
Comment: registered in MassBank
Num Peaks: 26
71.01453	6
74.99152	157
79.95782	71
80.96569	10
85.02981	11
95.9388	6
95.9527	512
96.91875	7
96.94624	13
96.96032	1000
96.97425	11
97.00162	8
97.94824	6
97.95985	8
98.95599	10
121.9554	7
127.9246	6
128.9326	7
172.0237	10
195.0334	6
205.0444	53
253.9964	10
259.01331	48
274.9903	38
299.0705	9
447.05481	58

NAME: Indolylmethyl glucosinolate; LC-ESI-ITFT; MS2; HCD; CE 90.0 eV; [M-H]-
PRECURSORMZ: 447.053745
PRECURSORTYPE: [M-H]-
FORMULA: C16H20N2O9S2
Ontology: Alkylglucosinolates
INCHIKEY: DNDNWOWHUWNBCK-LDADJPATNA-N
SMILES: OCC1OC(S\C(CC2=CNC3=CC=CC=C23)=N\OS(O)(=O)=O)C(O)C(O)C1O
RETENTIONTIME: 
CCS: 189.7466183
IONMODE: Negative
INSTRUMENTTYPE: LC-ESI-ITFT
INSTRUMENT: 
COLLISIONENERGY: 90.0
Comment: registered in MassBank
Num Peaks: 32
71.01399	14
74.76784	8
74.99136	281
79.95762	106
80.96553	12
85.02986	8
95.91232	7
95.93848	9
95.95243	888
95.95931	11
95.96412	9
95.96774	5
95.99316	7
96.91827	8
96.94619	8
96.95174	11
96.96011	1000
96.97234	7
96.9761	7
97.00127	5
101.0243	6
109.6927	6
121.0029	6
127.9247	12
138.9706	23
172.02271	13
205.0439	34
259.01291	30
274.99039	9
291.616	10
299.0723	18
428.7243	5

NAME: Indolylmethyl glucosinolate; LC-ESI-ITFT; MS2; HCD; CE 60.0 eV; [M-H]-
PRECURSORMZ: 447.053745
PRECURSORTYPE: [M-H]-
FORMULA: C16H20N2O9S2
Ontology: Alkylglucosinolates
INCHIKEY: DNDNWOWHUWNBCK-LDADJPATNA-N
SMILES: OCC1OC(S\C(CC2=CNC3=CC=CC=C23)=N\OS(O)(=O)=O)C(O)C(O)C1O
RETENTIONTIME: 
CCS: 189.7466183
IONMODE: Negative
INSTRUMENTTYPE: LC-ESI-ITFT
INSTRUMENT: 
COLLISIONENERGY: 60.0
Comment: registered in MassBank
Num Peaks: 31
74.99154	131
79.95785	63
80.96571	6
85.02998	11
95.93919	6
95.95272	432
96.91917	7
96.94664	11
96.95116	7
96.96034	1000
96.97242	12
97.00211	9
97.95986	6
98.95591	9
121.9557	9
127.9246	5
128.9324	5
138.97121	6
163.0612	5
172.0229	6
195.0334	7
205.0443	50
206.0486	5
227.02409	6
241.0038	5
253.9962	8
259.01361	50
274.9902	42
290.9845	5
299.07141	9
447.05469	112

NAME: Indolylmethyl glucosinolate; LC-ESI-ITFT; MS2; HCD; CE 80.0 eV; [M-H]-
PRECURSORMZ: 447.053745
PRECURSORTYPE: [M-H]-
FORMULA: C16H20N2O9S2
Ontology: Alkylglucosinolates
INCHIKEY: DNDNWOWHUWNBCK-LDADJPATNA-N
SMILES: OCC1OC(S\C(CC2=CNC3=CC=CC=C23)=N\OS(O)(=O)=O)C(O)C(O)C1O
RETENTIONTIME: 
CCS: 189.7466183
IONMODE: Negative
INSTRUMENTTYPE: LC-ESI-ITFT
INSTRUMENT: 
COLLISIONENERGY: 80.0
Comment: registered in MassBank
Num Peaks: 28
71.01372	6
73.98328	6
74.76728	10
74.99136	260
79.95766	99
80.96527	13
83.01321	5
85.02999	8
95.91147	6
95.93882	9
95.95246	772
95.96613	12
96.94641	15
96.96018	1000
96.97249	14
97.00169	8
101.025	5
127.9243	7
138.97099	14
165.00951	5
172.0222	16
205.0441	53
259.01321	36
274.99069	19
291.61041	9
299.06949	21
438.16339	6
447.0495	8

NAME: Indolylmethyl glucosinolate; LC-ESI-ITFT; MS2; HCD; CE 75.0 eV; [M-H]-
PRECURSORMZ: 447.053745
PRECURSORTYPE: [M-H]-
FORMULA: C16H20N2O9S2
Ontology: Alkylglucosinolates
INCHIKEY: DNDNWOWHUWNBCK-LDADJPATNA-N
SMILES: OCC1OC(S\C(CC2=CNC3=CC=CC=C23)=N\OS(O)(=O)=O)C(O)C(O)C1O
RETENTIONTIME: 
CCS: 189.7466183
IONMODE: Negative
INSTRUMENTTYPE: LC-ESI-ITFT
INSTRUMENT: 
COLLISIONENERGY: 75.0
Comment: registered in MassBank
Num Peaks: 25
74.76658	8
74.99129	216
79.95758	84
80.96571	7
85.02983	8
95.94484	6
95.95239	652
95.96617	7
95.99363	5
96.91819	7
96.94714	10
96.96008	1000
96.97397	10
97.00147	9
97.95838	6
101.0243	8
128.9319	6
138.9707	11
172.02209	12
205.04359	52
259.01221	39
274.98969	31
291.62369	7
299.06741	15
447.05261	13

NAME: Indolylmethyl glucosinolate; LC-ESI-ITFT; MS2; HCD; CE 55.0 eV; [M-H]-
PRECURSORMZ: 447.053745
PRECURSORTYPE: [M-H]-
FORMULA: C16H20N2O9S2
Ontology: Alkylglucosinolates
INCHIKEY: DNDNWOWHUWNBCK-LDADJPATNA-N
SMILES: OCC1OC(S\C(CC2=CNC3=CC=CC=C23)=N\OS(O)(=O)=O)C(O)C(O)C1O
RETENTIONTIME: 
CCS: 189.7466183
IONMODE: Negative
INSTRUMENTTYPE: LC-ESI-ITFT
INSTRUMENT: 
COLLISIONENERGY: 55.0
Comment: registered in MassBank
Num Peaks: 27
74.99152	110
79.95779	54
80.96545	5
85.02982	13
95.95264	369
96.91873	7
96.94627	11
96.9515	7
96.96034	1000
96.97321	8
97.00133	6
101.0246	6
121.9552	12
127.9256	5
128.9333	7
145.05009	6
172.0228	7
195.03481	5
205.04401	48
227.0257	9
253.9955	9
259.01349	54
274.99039	40
290.98679	12
291.61459	11
299.0571	19
447.05429	284

NAME: Indolylmethyl glucosinolate; LC-ESI-ITFT; MS2; HCD; CE 85.0 eV; [M-H]-
PRECURSORMZ: 447.053745
PRECURSORTYPE: [M-H]-
FORMULA: C16H20N2O9S2
Ontology: Alkylglucosinolates
INCHIKEY: DNDNWOWHUWNBCK-LDADJPATNA-N
SMILES: OCC1OC(S\C(CC2=CNC3=CC=CC=C23)=N\OS(O)(=O)=O)C(O)C(O)C1O
RETENTIONTIME: 
CCS: 189.7466183
IONMODE: Negative
INSTRUMENTTYPE: LC-ESI-ITFT
INSTRUMENT: 
COLLISIONENERGY: 85.0
Comment: registered in MassBank
Num Peaks: 25
63.96295	7
71.01411	9
74.76702	10
74.99136	273
79.95766	111
80.96572	13
85.02967	12
95.91145	7
95.95245	858
95.95916	11
95.96451	9
96.94608	8
96.96014	1000
96.96697	12
96.97256	7
101.0248	7
127.924	10
138.97079	21
172.0218	11
205.0441	42
259.01251	45
274.98911	18
291.62271	12
299.06769	21
540.15588	7

NAME: Indolylmethyl glucosinolate; LC-ESI-ITFT; MS2; HCD; CE 70.0 eV; [M-H]-
PRECURSORMZ: 447.053745
PRECURSORTYPE: [M-H]-
FORMULA: C16H20N2O9S2
Ontology: Alkylglucosinolates
INCHIKEY: DNDNWOWHUWNBCK-LDADJPATNA-N
SMILES: OCC1OC(S\C(CC2=CNC3=CC=CC=C23)=N\OS(O)(=O)=O)C(O)C(O)C1O
RETENTIONTIME: 
CCS: 189.7466183
IONMODE: Negative
INSTRUMENTTYPE: LC-ESI-ITFT
INSTRUMENT: 
COLLISIONENERGY: 70.0
Comment: registered in MassBank
Num Peaks: 33
71.01434	5
74.99151	190
79.95782	84
80.96567	8
85.03002	12
95.91228	6
95.93916	5
95.94589	8
95.95268	591
95.9663	6
96.9192	9
96.94627	10
96.95078	6
96.96031	1000
96.96927	7
96.97407	10
97.00195	10
97.94823	5
97.95922	5
98.956	7
101.0249	6
127.9246	7
128.9328	6
138.9709	8
172.0231	11
195.0332	5
205.0443	54
206.0482	6
241.0043	6
259.0134	47
274.99039	31
299.07321	8
447.0556	25

NAME: Indolylmethyl glucosinolate; LC-ESI-ITFT; MS2; HCD; CE 45.0 eV; [M-H]-
PRECURSORMZ: 447.053745
PRECURSORTYPE: [M-H]-
FORMULA: C16H20N2O9S2
Ontology: Alkylglucosinolates
INCHIKEY: DNDNWOWHUWNBCK-LDADJPATNA-N
SMILES: OCC1OC(S\C(CC2=CNC3=CC=CC=C23)=N\OS(O)(=O)=O)C(O)C(O)C1O
RETENTIONTIME: 
CCS: 189.7466183
IONMODE: Negative
INSTRUMENTTYPE: LC-ESI-ITFT
INSTRUMENT: 
COLLISIONENERGY: 45.0
Comment: registered in MassBank
Num Peaks: 3
95.95268	165
96.96043	729
447.0545	1000

NAME: Indolylmethyl glucosinolate; LC-ESI-ITFT; MS2; HCD; CE 40.0 eV; [M-H]-
PRECURSORMZ: 447.053745
PRECURSORTYPE: [M-H]-
FORMULA: C16H20N2O9S2
Ontology: Alkylglucosinolates
INCHIKEY: DNDNWOWHUWNBCK-LDADJPATNA-N
SMILES: OCC1OC(S\C(CC2=CNC3=CC=CC=C23)=N\OS(O)(=O)=O)C(O)C(O)C1O
RETENTIONTIME: 
CCS: 189.7466183
IONMODE: Negative
INSTRUMENTTYPE: LC-ESI-ITFT
INSTRUMENT: 
COLLISIONENERGY: 40.0
Comment: registered in MassBank
Num Peaks: 2
96.96021	300
447.05331	1000

NAME: Indolylmethyl glucosinolate; LC-ESI-ITFT; MS2; HCD; CE 50.0 eV; [M-H]-
PRECURSORMZ: 447.053745
PRECURSORTYPE: [M-H]-
FORMULA: C16H20N2O9S2
Ontology: Alkylglucosinolates
INCHIKEY: DNDNWOWHUWNBCK-LDADJPATNA-N
SMILES: OCC1OC(S\C(CC2=CNC3=CC=CC=C23)=N\OS(O)(=O)=O)C(O)C(O)C1O
RETENTIONTIME: 
CCS: 189.7466183
IONMODE: Negative
INSTRUMENTTYPE: LC-ESI-ITFT
INSTRUMENT: 
COLLISIONENERGY: 50.0
Comment: registered in MassBank
Num Peaks: 37
74.76482	9
74.99142	88
79.95773	42
80.96547	6
85.02966	9
87.09817	5
95.95254	298
96.94756	9
96.96026	1000
96.96932	8
96.97403	11
109.1883	5
113.3122	6
121.9556	10
128.93111	6
145.0518	8
150.2762	5
155.28979	5
157.31619	5
163.0621	7
172.02251	8
188.4117	6
195.035	8
205.0444	44
227.0219	12
229.8107	5
253.99561	8
259.01321	53
274.99069	41
290.98459	20
291.58621	12
299.05969	22
334.9606	6
368.48871	6
378.3042	6
446.73129	6
447.0538	585

NAME: DErySphinganine; LC-ESI-ITFT; MS2; CE 25 eV; [M-H]-
PRECURSORMZ: 300.290803
PRECURSORTYPE: [M-H]-
FORMULA: C18H39NO2
Ontology: 1,2-aminoalcohols
INCHIKEY: OTKJDMGTUTTYMP-ZWKOTPCHSA-N
SMILES: CCCCCCCCCCCCCCC[C@@H](O)[C@@H](N)CO
RETENTIONTIME: 
CCS: 181.7405486
IONMODE: Negative
INSTRUMENTTYPE: LC-ESI-ITFT
INSTRUMENT: 
COLLISIONENERGY: 25
Comment: registered in MassBank
Num Peaks: 14
237.22301	6
239.23849	378
247.24361	9
253.2541	13
255.233	6
262.25491	7
264.2702	17
265.25421	85
266.0596	6
266.24939	1000
278.24969	7
280.26511	226
282.2807	354
300.29129	476

NAME: Glucoalyssin; LC-ESI-ITFT; MS2; HCD; CE 25.0 eV; [M-H]-
PRECURSORMZ: 450.056782
PRECURSORTYPE: [M-H]-
FORMULA: C13H25NO10S3
Ontology: Alkylglucosinolates
INCHIKEY: HUCGRJSHMZWRQQ-LPXZBHKBSA-N
SMILES: CS(=O)CCCCCC(S[C@@H]1O[C@H](CO)[C@@H](O)[C@H](O)[C@H]1O)=NOS(O)(=O)=O
RETENTIONTIME: 
CCS: 188.0762178
IONMODE: Negative
INSTRUMENTTYPE: LC-ESI-ITFT
INSTRUMENT: 
COLLISIONENERGY: 25.0
Comment: registered in MassBank
Num Peaks: 4
386.05771	9
449.9158	7
450.0564	1000
450.1785	6

NAME: Glucoalyssin; LC-ESI-ITFT; MS2; HCD; CE 35.0 eV; [M-H]-
PRECURSORMZ: 450.056782
PRECURSORTYPE: [M-H]-
FORMULA: C13H25NO10S3
Ontology: Alkylglucosinolates
INCHIKEY: HUCGRJSHMZWRQQ-LPXZBHKBSA-N
SMILES: CS(=O)CCCCCC(S[C@@H]1O[C@H](CO)[C@@H](O)[C@H](O)[C@H]1O)=NOS(O)(=O)=O
RETENTIONTIME: 
CCS: 188.0762178
IONMODE: Negative
INSTRUMENTTYPE: LC-ESI-ITFT
INSTRUMENT: 
COLLISIONENERGY: 35.0
Comment: registered in MassBank
Num Peaks: 5
386.05829	40
387.06119	6
449.92841	6
450.0564	1000
450.19531	8

NAME: Glucoalyssin; LC-ESI-ITFT; MS2; HCD; CE 20.0 eV; [M-H]-
PRECURSORMZ: 450.056782
PRECURSORTYPE: [M-H]-
FORMULA: C13H25NO10S3
Ontology: Alkylglucosinolates
INCHIKEY: HUCGRJSHMZWRQQ-LPXZBHKBSA-N
SMILES: CS(=O)CCCCCC(S[C@@H]1O[C@H](CO)[C@@H](O)[C@H](O)[C@H]1O)=NOS(O)(=O)=O
RETENTIONTIME: 
CCS: 188.0762178
IONMODE: Negative
INSTRUMENTTYPE: LC-ESI-ITFT
INSTRUMENT: 
COLLISIONENERGY: 20.0
Comment: registered in MassBank
Num Peaks: 2
386.05969	19
450.05771	1000

NAME: Glucoalyssin; LC-ESI-ITFT; MS2; HCD; CE 30.0 eV; [M-H]-
PRECURSORMZ: 450.056782
PRECURSORTYPE: [M-H]-
FORMULA: C13H25NO10S3
Ontology: Alkylglucosinolates
INCHIKEY: HUCGRJSHMZWRQQ-LPXZBHKBSA-N
SMILES: CS(=O)CCCCCC(S[C@@H]1O[C@H](CO)[C@@H](O)[C@H](O)[C@H]1O)=NOS(O)(=O)=O
RETENTIONTIME: 
CCS: 188.0762178
IONMODE: Negative
INSTRUMENTTYPE: LC-ESI-ITFT
INSTRUMENT: 
COLLISIONENERGY: 30.0
Comment: registered in MassBank
Num Peaks: 4
386.0592	15
449.63889	5
449.91721	5
450.05731	1000

NAME: Glucoalyssin; LC-ESI-ITFT; MS2; HCD; CE 45.0 eV; [M-H]-
PRECURSORMZ: 450.056782
PRECURSORTYPE: [M-H]-
FORMULA: C13H25NO10S3
Ontology: Alkylglucosinolates
INCHIKEY: HUCGRJSHMZWRQQ-LPXZBHKBSA-N
SMILES: CS(=O)CCCCCC(S[C@@H]1O[C@H](CO)[C@@H](O)[C@H](O)[C@H]1O)=NOS(O)(=O)=O
RETENTIONTIME: 
CCS: 188.0762178
IONMODE: Negative
INSTRUMENTTYPE: LC-ESI-ITFT
INSTRUMENT: 
COLLISIONENERGY: 45.0
Comment: registered in MassBank
Num Peaks: 5
192.0332	13
386.05829	173
387.06119	25
435.03351	14
450.0563	1000

NAME: Glucoalyssin; LC-ESI-ITFT; MS2; HCD; CE 40.0 eV; [M-H]-
PRECURSORMZ: 450.056782
PRECURSORTYPE: [M-H]-
FORMULA: C13H25NO10S3
Ontology: Alkylglucosinolates
INCHIKEY: HUCGRJSHMZWRQQ-LPXZBHKBSA-N
SMILES: CS(=O)CCCCCC(S[C@@H]1O[C@H](CO)[C@@H](O)[C@H](O)[C@H]1O)=NOS(O)(=O)=O
RETENTIONTIME: 
CCS: 188.0762178
IONMODE: Negative
INSTRUMENTTYPE: LC-ESI-ITFT
INSTRUMENT: 
COLLISIONENERGY: 40.0
Comment: registered in MassBank
Num Peaks: 3
386.05911	87
387.06229	14
450.05731	1000

NAME: Glucoalyssin; LC-ESI-ITFT; MS2; HCD; CE 50.0 eV; [M-H]-
PRECURSORMZ: 450.056782
PRECURSORTYPE: [M-H]-
FORMULA: C13H25NO10S3
Ontology: Alkylglucosinolates
INCHIKEY: HUCGRJSHMZWRQQ-LPXZBHKBSA-N
SMILES: CS(=O)CCCCCC(S[C@@H]1O[C@H](CO)[C@@H](O)[C@H](O)[C@H]1O)=NOS(O)(=O)=O
RETENTIONTIME: 
CCS: 188.0762178
IONMODE: Negative
INSTRUMENTTYPE: LC-ESI-ITFT
INSTRUMENT: 
COLLISIONENERGY: 50.0
Comment: registered in MassBank
Num Peaks: 5
192.0332	37
386.0585	313
387.06189	49
435.03339	33
450.05649	1000

NAME: Glucoalyssin; LC-ESI-ITFT; MS2; HCD; CE 60.0 eV; [M-H]-
PRECURSORMZ: 450.056782
PRECURSORTYPE: [M-H]-
FORMULA: C13H25NO10S3
Ontology: Alkylglucosinolates
INCHIKEY: HUCGRJSHMZWRQQ-LPXZBHKBSA-N
SMILES: CS(=O)CCCCCC(S[C@@H]1O[C@H](CO)[C@@H](O)[C@H](O)[C@H]1O)=NOS(O)(=O)=O
RETENTIONTIME: 
CCS: 188.0762178
IONMODE: Negative
INSTRUMENTTYPE: LC-ESI-ITFT
INSTRUMENT: 
COLLISIONENERGY: 60.0
Comment: registered in MassBank
Num Peaks: 5
192.0331	241
386.05829	936
387.06131	96
435.03311	204
450.0564	1000

NAME: Glucohirsutin; LC-ESI-ITFT; MS2; HCD; CE 45.0 eV; [M-H]-
PRECURSORMZ: 492.103732
PRECURSORTYPE: [M-H]-
FORMULA: C16H31NO10S3
Ontology: Alkylglucosinolates
INCHIKEY: GPMDJOOLATZDQL-SGBLMZTFSA-N
SMILES: CS(=O)CCCCCCCC\C(S[C@@H]1O[C@H](CO)[C@@H](O)[C@H](O)[C@H]1O)=N/OS(O)(=O)=O
RETENTIONTIME: 
CCS: 201.5540929
IONMODE: Negative
INSTRUMENTTYPE: LC-ESI-ITFT
INSTRUMENT: 
COLLISIONENERGY: 45.0
Comment: registered in MassBank
Num Peaks: 4
234.08031	13
428.1048	134
477.07919	7
492.10229	1000

NAME: Glucohirsutin; LC-ESI-ITFT; MS2; HCD; CE 40.0 eV; [M-H]-
PRECURSORMZ: 492.103732
PRECURSORTYPE: [M-H]-
FORMULA: C16H31NO10S3
Ontology: Alkylglucosinolates
INCHIKEY: GPMDJOOLATZDQL-SGBLMZTFSA-N
SMILES: CS(=O)CCCCCCCC\C(S[C@@H]1O[C@H](CO)[C@@H](O)[C@H](O)[C@H]1O)=N/OS(O)(=O)=O
RETENTIONTIME: 
CCS: 201.5540929
IONMODE: Negative
INSTRUMENTTYPE: LC-ESI-ITFT
INSTRUMENT: 
COLLISIONENERGY: 40.0
Comment: registered in MassBank
Num Peaks: 2
428.10489	62
492.10291	1000

NAME: Glucohirsutin; LC-ESI-ITFT; MS2; HCD; CE 50.0 eV; [M-H]-
PRECURSORMZ: 492.103732
PRECURSORTYPE: [M-H]-
FORMULA: C16H31NO10S3
Ontology: Alkylglucosinolates
INCHIKEY: GPMDJOOLATZDQL-SGBLMZTFSA-N
SMILES: CS(=O)CCCCCCCC\C(S[C@@H]1O[C@H](CO)[C@@H](O)[C@H](O)[C@H]1O)=N/OS(O)(=O)=O
RETENTIONTIME: 
CCS: 201.5540929
IONMODE: Negative
INSTRUMENTTYPE: LC-ESI-ITFT
INSTRUMENT: 
COLLISIONENERGY: 50.0
Comment: registered in MassBank
Num Peaks: 4
234.08031	40
428.10489	273
477.0795	28
492.10281	1000

NAME: Glucohirsutin; LC-ESI-ITFT; MS2; HCD; CE 65.0 eV; [M-H]-
PRECURSORMZ: 492.103732
PRECURSORTYPE: [M-H]-
FORMULA: C16H31NO10S3
Ontology: Alkylglucosinolates
INCHIKEY: GPMDJOOLATZDQL-SGBLMZTFSA-N
SMILES: CS(=O)CCCCCCCC\C(S[C@@H]1O[C@H](CO)[C@@H](O)[C@H](O)[C@H]1O)=N/OS(O)(=O)=O
RETENTIONTIME: 
CCS: 201.5540929
IONMODE: Negative
INSTRUMENTTYPE: LC-ESI-ITFT
INSTRUMENT: 
COLLISIONENERGY: 65.0
Comment: registered in MassBank
Num Peaks: 29
145.05161	6
163.0616	7
186.09531	13
195.03349	5
206.0495	9
227.02361	14
232.0658	7
233.073	11
234.0806	529
235.0444	5
235.08389	65
236.07449	7
250.0941	33
259.013	86
266.05261	28
274.98981	73
275.99161	6
290.9848	21
291.56989	7
299.01831	12
299.04489	21
386.06079	7
428.1055	1000
429.10861	243
430.10281	44
477.0799	287
478.08319	75
479.0762	17
492.10339	516

NAME: Glucohirsutin; LC-ESI-ITFT; MS2; HCD; CE 90.0 eV; [M-H]-
PRECURSORMZ: 492.103732
PRECURSORTYPE: [M-H]-
FORMULA: C16H31NO10S3
Ontology: Alkylglucosinolates
INCHIKEY: GPMDJOOLATZDQL-SGBLMZTFSA-N
SMILES: CS(=O)CCCCCCCC\C(S[C@@H]1O[C@H](CO)[C@@H](O)[C@H](O)[C@H]1O)=N/OS(O)(=O)=O
RETENTIONTIME: 
CCS: 201.5540929
IONMODE: Negative
INSTRUMENTTYPE: LC-ESI-ITFT
INSTRUMENT: 
COLLISIONENERGY: 90.0
Comment: registered in MassBank
Num Peaks: 26
135.9706	33
138.9709	55
186.095	71
189.55859	20
202.0891	19
206.0482	50
212.31	17
223.9895	18
234.08009	1000
235.0822	62
238.02119	20
250.0928	44
256.37811	19
259.01251	209
266.05261	65
274.98981	152
291.57611	41
299.01599	70
386.0535	42
400.07889	18
428.10501	142
435.83771	16
444.7262	19
475.5596	19
477.07779	143
481.7533	17

NAME: Glucohirsutin; LC-ESI-ITFT; MS2; HCD; CE 60.0 eV; [M-H]-
PRECURSORMZ: 492.103732
PRECURSORTYPE: [M-H]-
FORMULA: C16H31NO10S3
Ontology: Alkylglucosinolates
INCHIKEY: GPMDJOOLATZDQL-SGBLMZTFSA-N
SMILES: CS(=O)CCCCCCCC\C(S[C@@H]1O[C@H](CO)[C@@H](O)[C@H](O)[C@H]1O)=N/OS(O)(=O)=O
RETENTIONTIME: 
CCS: 201.5540929
IONMODE: Negative
INSTRUMENTTYPE: LC-ESI-ITFT
INSTRUMENT: 
COLLISIONENERGY: 60.0
Comment: registered in MassBank
Num Peaks: 23
186.0955	6
195.0327	6
227.02299	17
233.07291	9
234.08051	372
235.08369	46
236.07471	7
250.09399	23
259.01279	58
266.05249	20
274.9899	50
290.9845	29
291.5737	6
299.04141	21
412.14929	5
428.10529	1000
429.1084	260
430.1022	51
477.07971	218
478.08279	58
479.07751	16
491.94489	6
492.1033	892

NAME: Glucohirsutin; LC-ESI-ITFT; MS2; HCD; CE 80.0 eV; [M-H]-
PRECURSORMZ: 492.103732
PRECURSORTYPE: [M-H]-
FORMULA: C16H31NO10S3
Ontology: Alkylglucosinolates
INCHIKEY: GPMDJOOLATZDQL-SGBLMZTFSA-N
SMILES: CS(=O)CCCCCCCC\C(S[C@@H]1O[C@H](CO)[C@@H](O)[C@H](O)[C@H]1O)=N/OS(O)(=O)=O
RETENTIONTIME: 
CCS: 201.5540929
IONMODE: Negative
INSTRUMENTTYPE: LC-ESI-ITFT
INSTRUMENT: 
COLLISIONENERGY: 80.0
Comment: registered in MassBank
Num Peaks: 29
135.97121	17
138.9702	21
146.1256	10
151.3578	13
186.0955	47
188.40491	15
206.05029	19
234.0806	1000
235.08321	43
238.0215	15
239.7267	9
241.0025	16
250.09309	37
251.14461	12
259.0127	171
266.0524	61
274.98959	144
280.95999	10
290.90411	9
291.5582	14
291.5795	20
299.02921	33
386.0603	30
406.6636	12
428.10519	459
429.10989	34
477.0799	306
478.08041	23
492.10669	46

NAME: Glucohirsutin; LC-ESI-ITFT; MS2; HCD; CE 75.0 eV; [M-H]-
PRECURSORMZ: 492.103732
PRECURSORTYPE: [M-H]-
FORMULA: C16H31NO10S3
Ontology: Alkylglucosinolates
INCHIKEY: GPMDJOOLATZDQL-SGBLMZTFSA-N
SMILES: CS(=O)CCCCCCCC\C(S[C@@H]1O[C@H](CO)[C@@H](O)[C@H](O)[C@H]1O)=N/OS(O)(=O)=O
RETENTIONTIME: 
CCS: 201.5540929
IONMODE: Negative
INSTRUMENTTYPE: LC-ESI-ITFT
INSTRUMENT: 
COLLISIONENERGY: 75.0
Comment: registered in MassBank
Num Peaks: 30
135.97169	13
138.9707	15
186.0959	42
206.0489	20
227.02319	12
232.0636	12
234.0807	1000
235.04649	16
235.0838	125
236.07561	23
238.0219	10
241.0034	10
250.09419	47
259.013	174
260.01682	13
266.0528	63
274.9899	146
275.992	11
290.98569	12
291.5788	11
299.0405	50
386.05771	31
400.07321	12
428.10559	703
429.10889	173
430.10269	34
477.07999	378
478.08319	88
479.07581	30
492.10461	123

NAME: Glucohirsutin; LC-ESI-ITFT; MS2; HCD; CE 55.0 eV; [M-H]-
PRECURSORMZ: 492.103732
PRECURSORTYPE: [M-H]-
FORMULA: C16H31NO10S3
Ontology: Alkylglucosinolates
INCHIKEY: GPMDJOOLATZDQL-SGBLMZTFSA-N
SMILES: CS(=O)CCCCCCCC\C(S[C@@H]1O[C@H](CO)[C@@H](O)[C@H](O)[C@H]1O)=N/OS(O)(=O)=O
RETENTIONTIME: 
CCS: 201.5540929
IONMODE: Negative
INSTRUMENTTYPE: LC-ESI-ITFT
INSTRUMENT: 
COLLISIONENERGY: 55.0
Comment: registered in MassBank
Num Peaks: 2
428.10571	552
492.10379	1000

NAME: Glucohirsutin; LC-ESI-ITFT; MS2; HCD; CE 85.0 eV; [M-H]-
PRECURSORMZ: 492.103732
PRECURSORTYPE: [M-H]-
FORMULA: C16H31NO10S3
Ontology: Alkylglucosinolates
INCHIKEY: GPMDJOOLATZDQL-SGBLMZTFSA-N
SMILES: CS(=O)CCCCCCCC\C(S[C@@H]1O[C@H](CO)[C@@H](O)[C@H](O)[C@H]1O)=N/OS(O)(=O)=O
RETENTIONTIME: 
CCS: 201.5540929
IONMODE: Negative
INSTRUMENTTYPE: LC-ESI-ITFT
INSTRUMENT: 
COLLISIONENERGY: 85.0
Comment: registered in MassBank
Num Peaks: 22
135.97141	30
138.9705	35
186.09531	53
206.0495	39
234.08051	1000
235.0834	143
236.0739	18
238.02161	24
241.00349	18
250.0946	43
259.0127	212
266.05261	58
274.98969	152
291.59021	15
299.01682	30
299.0481	19
386.05911	38
428.10501	240
429.1087	60
477.07941	203
478.08289	50
492.1098	15

NAME: Glucohirsutin; LC-ESI-ITFT; MS2; HCD; CE 70.0 eV; [M-H]-
PRECURSORMZ: 492.103732
PRECURSORTYPE: [M-H]-
FORMULA: C16H31NO10S3
Ontology: Alkylglucosinolates
INCHIKEY: GPMDJOOLATZDQL-SGBLMZTFSA-N
SMILES: CS(=O)CCCCCCCC\C(S[C@@H]1O[C@H](CO)[C@@H](O)[C@H](O)[C@H]1O)=N/OS(O)(=O)=O
RETENTIONTIME: 
CCS: 201.5540929
IONMODE: Negative
INSTRUMENTTYPE: LC-ESI-ITFT
INSTRUMENT: 
COLLISIONENERGY: 70.0
Comment: registered in MassBank
Num Peaks: 34
153.619	6
181.8398	5
186.0952	23
188.4055	6
190.411	6
206.04939	9
225.8587	6
227.0235	21
231.2581	6
232.0639	14
233.0715	8
234.0804	783
235.0833	36
250.0929	36
259.013	127
266.0527	51
274.98959	109
290.98431	19
291.5708	14
293.07471	7
299.02399	23
299.04669	15
312.8768	7
324.48969	6
344.00381	6
373.50769	6
386.0589	13
413.19479	6
428.1051	1000
429.10849	86
462.77841	5
477.07941	394
478.08179	33
492.10309	314

NAME: L-Serine; LC-ESI-ITFT; MS2; m/z
PRECURSORMZ: 104.035317
PRECURSORTYPE: [M-H]-
FORMULA: C3H7NO3
Ontology: Serine and derivatives
INCHIKEY: MTCFGRXMJLQNBG-REOHCLBHSA-N
SMILES: N[C@@H](CO)C(O)=O
RETENTIONTIME: 
CCS: 120.3202565
IONMODE: Negative
INSTRUMENTTYPE: LC-ESI-ITFT
INSTRUMENT: 
COLLISIONENERGY: 35
Comment: registered in MassBank
Num Peaks: 3
58.02941	51
59.78778	34
74.01385	1000

NAME: Taurine; LC-ESI-ITFT; MS2; m/z
PRECURSORMZ: 124.007387
PRECURSORTYPE: [M-H]-
FORMULA: C2H7NO3S
Ontology: Organosulfonic acids
INCHIKEY: XOAAWQZATWQOTB-UHFFFAOYSA-N
SMILES: NCCS(O)(=O)=O
RETENTIONTIME: 
CCS: 125.9119375
IONMODE: Negative
INSTRUMENTTYPE: LC-ESI-ITFT
INSTRUMENT: 
COLLISIONENERGY: 35
Comment: registered in MassBank
Num Peaks: 5
64.81515	73
79.8195	1000
80.90976	26
94.81209	99
106.8964	459

NAME: L-Asparagine; LC-ESI-ITFT; MS2; m/z
PRECURSORMZ: 131.046216
PRECURSORTYPE: [M-H]-
FORMULA: C4H8N2O3
Ontology: Asparagine and derivatives
INCHIKEY: DCXYFEDJOCDNAF-REOHCLBHSA-N
SMILES: N[C@@H](CC(O)=N)C(O)=O
RETENTIONTIME: 
CCS: 122.4414625
IONMODE: Negative
INSTRUMENTTYPE: LC-ESI-ITFT
INSTRUMENT: 
COLLISIONENERGY: 35
Comment: registered in MassBank
Num Peaks: 3
94.82535	5
113.012	1000
113.8602	103

NAME: L-Aspartic acid; LC-ESI-ITFT; MS2; m/z
PRECURSORMZ: 132.030231
PRECURSORTYPE: [M-H]-
FORMULA: C4H7NO4
Ontology: Aspartic acid and derivatives
INCHIKEY: CKLJMWTZIZZHCS-REOHCLBHSA-N
SMILES: N[C@@H](CC(O)=O)C(O)=O
RETENTIONTIME: 
CCS: 122.7851273
IONMODE: Negative
INSTRUMENTTYPE: LC-ESI-ITFT
INSTRUMENT: 
COLLISIONENERGY: 35
Comment: registered in MassBank
Num Peaks: 4
69.81007	36
87.94473	1000
113.9867	425
114.8739	850

NAME: L-Glutamine; LC-ESI-ITFT; MS2; m/z
PRECURSORMZ: 145.061866
PRECURSORTYPE: [M-H]-
FORMULA: C5H10N2O3
Ontology: Alpha amino acids
INCHIKEY: ZDXPYRJPNDTMRX-VKHMYHEASA-N
SMILES: N[C@@H](CCC(O)=N)C(O)=O
RETENTIONTIME: 
CCS: 126.3474033
IONMODE: Negative
INSTRUMENTTYPE: LC-ESI-ITFT
INSTRUMENT: 
COLLISIONENERGY: 35
Comment: registered in MassBank
Num Peaks: 4
100.9993	5
109.0327	95
126.9662	1000
128.0047	142

NAME: L-Glutamic acid; LC-ESI-ITFT; MS2; m/z
PRECURSORMZ: 146.045881
PRECURSORTYPE: [M-H]-
FORMULA: C5H9NO4
Ontology: Glutamic acid and derivatives
INCHIKEY: WHUUTDBJXJRKMK-VKHMYHEASA-N
SMILES: N[C@@H](CCC(O)=O)C(O)=O
RETENTIONTIME: 
CCS: 126.6424926
IONMODE: Negative
INSTRUMENTTYPE: LC-ESI-ITFT
INSTRUMENT: 
COLLISIONENERGY: 35
Comment: registered in MassBank
Num Peaks: 2
102.0502	107
127.9645	1000

NAME: L-Histidine; LC-ESI-ITFT; MS2; m/z
PRECURSORMZ: 154.0622
PRECURSORTYPE: [M-H]-
FORMULA: C6H9N3O2
Ontology: Histidine and derivatives
INCHIKEY: HNDVDQJCIGZPNO-YFKPBYRVSA-N
SMILES: N[C@@H](CC1=CN=CN1)C(O)=O
RETENTIONTIME: 
CCS: 129.4644498
IONMODE: Negative
INSTRUMENTTYPE: LC-ESI-ITFT
INSTRUMENT: 
COLLISIONENERGY: 35
Comment: registered in MassBank
Num Peaks: 10
71.98022	33
80.99217	15
93.00194	114
108.0606	53
109.0023	86
110.0087	86
118.0394	67
135.9648	719
137.0036	1000
154.0683	20

NAME: L-(+)-Arginine; LC-ESI-ITFT; MS2; m/z
PRECURSORMZ: 173.104399
PRECURSORTYPE: [M-H]-
FORMULA: C6H14N4O2
Ontology: L-alpha-amino acids
INCHIKEY: ODKSFYDXXFIFQN-BYPYZUCNSA-N
SMILES: N[C@@H](CCCNC(N)=N)C(O)=O
RETENTIONTIME: 
CCS: 135.8360956
IONMODE: Negative
INSTRUMENTTYPE: LC-ESI-ITFT
INSTRUMENT: 
COLLISIONENERGY: 35
Comment: registered in MassBank
Num Peaks: 2
130.9884	1000
156.0809	126

NAME: L-Tryptophan; LC-ESI-ITFT; MS2; m/z
PRECURSORMZ: 203.082601
PRECURSORTYPE: [M-H]-
FORMULA: C11H12N2O2
Ontology: Indolyl carboxylic acids and derivatives
INCHIKEY: QIVBCDIJIAJPQS-VIFPVBQESA-N
SMILES: N[C@@H](CC1=CNC2=CC=CC=C12)C(O)=O
RETENTIONTIME: 
CCS: 146.6599072
IONMODE: Negative
INSTRUMENTTYPE: LC-ESI-ITFT
INSTRUMENT: 
COLLISIONENERGY: 35
Comment: registered in MassBank
Num Peaks: 8
71.9912	5
73.97752	23
115.9791	384
129.9857	10
142.0484	165
159.0722	1000
173.0986	21
186.0524	77

NAME: L-Carnosine; LC-ESI-ITFT; MS2; m/z
PRECURSORMZ: 225.099314
PRECURSORTYPE: [M-H]-
FORMULA: C9H14N4O3
Ontology: Hybrid peptides
INCHIKEY: CQOVPNPJLQNMDC-ZETCQYMHSA-N
SMILES: NCCC(O)=N[C@@H](CC1=CN=CN1)C(O)=O
RETENTIONTIME: 
CCS: 149.8669213
IONMODE: Negative
INSTRUMENTTYPE: LC-ESI-ITFT
INSTRUMENT: 
COLLISIONENERGY: 35
Comment: registered in MassBank
Num Peaks: 8
88.02524	32
110.1193	55
154.04449	1000
163.1189	307
164.1032	5
181.1301	44
206.9951	55
208.1472	11

NAME: Uridine; LC-ESI-ITFT; MS2; m/z
PRECURSORMZ: 243.06226
PRECURSORTYPE: [M-H]-
FORMULA: C9H12N2O6
Ontology: Pyrimidine nucleosides
INCHIKEY: DRTQHJPVMGBUCF-XVFCMESISA-N
SMILES: OC[C@H]1O[C@H]([C@H](O)[C@@H]1O)N1C=CC(O)=NC1=O
RETENTIONTIME: 
CCS: 151.8583657
IONMODE: Negative
INSTRUMENTTYPE: LC-ESI-ITFT
INSTRUMENT: 
COLLISIONENERGY: 35
Comment: registered in MassBank
Num Peaks: 11
81.94397	7
109.9196	133
110.9884	127
116.8982	6
132.0594	6
140.0798	50
151.9962	105
153.03729	91
182.103	19
183.028	13
200.06709	1000

NAME: L-Glutathione (reduced form); LC-ESI-ITFT; MS2; m/z
PRECURSORMZ: 306.07653
PRECURSORTYPE: [M-H]-
FORMULA: C10H17N3O6S
Ontology: Peptides
INCHIKEY: RWSXRVCMGQZWBV-WDSKDSINSA-N
SMILES: N[C@@H](CCC(O)=N[C@@H](CS)C(O)=NCC(O)=O)C(O)=O
RETENTIONTIME: 
CCS: 165.7213611
IONMODE: Negative
INSTRUMENTTYPE: LC-ESI-ITFT
INSTRUMENT: 
COLLISIONENERGY: 35
Comment: registered in MassBank
Num Peaks: 19
128.112	123
143.01241	132
146.1548	10
160.1245	124
167.1015	9
171.1125	13
177.1252	101
179.1945	128
185.1832	9
197.1692	13
210.19591	69
213.20261	22
228.2184	7
231.22169	13
236.2506	8
242.1046	16
254.1519	1000
272.1171	946
288.08969	631

NAME: Succinic acid; LC-ESI-ITFT; MS2; m/z
PRECURSORMZ: 117.019332
PRECURSORTYPE: [M-H]-
FORMULA: C4H6O4
Ontology: Dicarboxylic acids and derivatives
INCHIKEY: KDYFGRWQOYBRFD-UHFFFAOYSA-N
SMILES: OC(=O)CCC(O)=O
RETENTIONTIME: 
CCS: 123.254263
IONMODE: Negative
INSTRUMENTTYPE: LC-ESI-ITFT
INSTRUMENT: 
COLLISIONENERGY: 35
Comment: registered in MassBank
Num Peaks: 2
72.91388	1000
98.94806	269

NAME: L-(-)-Malic acid; LC-ESI-ITFT; MS2; m/z
PRECURSORMZ: 133.014247
PRECURSORTYPE: [M-H]-
FORMULA: C4H6O5
Ontology: Beta hydroxy acids and derivatives
INCHIKEY: BJEPYKJPYRNKOW-REOHCLBHSA-N
SMILES: O[C@@H](CC(O)=O)C(O)=O
RETENTIONTIME: 
CCS: 122.6885198
IONMODE: Negative
INSTRUMENTTYPE: LC-ESI-ITFT
INSTRUMENT: 
COLLISIONENERGY: 35
Comment: registered in MassBank
Num Peaks: 3
70.89337	18
86.84527	22
114.9406	1000

NAME: 2-Oxoglutaric acid; LC-ESI-ITFT; MS2; m/z
PRECURSORMZ: 145.014247
PRECURSORTYPE: [M-H]-
FORMULA: C5H6O5
Ontology: Gamma-keto acids and derivatives
INCHIKEY: KPGXRSRHYNQIFN-UHFFFAOYSA-N
SMILES: OC(=O)CCC(=O)C(O)=O
RETENTIONTIME: 
CCS: 125.9706223
IONMODE: Negative
INSTRUMENTTYPE: LC-ESI-ITFT
INSTRUMENT: 
COLLISIONENERGY: 35
Comment: registered in MassBank
Num Peaks: 2
56.99548	7
100.8625	1000

NAME: L-Cysteine Sulfinic acid; LC-ESI-ITFT; MS2; m/z
PRECURSORMZ: 152.002302
PRECURSORTYPE: [M-H]-
FORMULA: C3H7NO4S
Ontology: L-alpha-amino acids
INCHIKEY: ADVPTQAUNPRNPO-REOHCLBHSA-N
SMILES: N[C@@H](CS(O)=O)C(O)=O
RETENTIONTIME: 
CCS: 125.9667696
IONMODE: Negative
INSTRUMENTTYPE: LC-ESI-ITFT
INSTRUMENT: 
COLLISIONENERGY: 35
Comment: registered in MassBank
Num Peaks: 1
87.9239	1000

NAME: sn-Glycerol 3-phosphate; LC-ESI-ITFT; MS2; m/z
PRECURSORMZ: 171.006398
PRECURSORTYPE: [M-H]-
FORMULA: C3H9O6P
Ontology: Glycerophosphates
INCHIKEY: AWUCVROLDVIAJX-GSVOUGTGSA-N
SMILES: OC[C@@H](O)COP(O)(O)=O
RETENTIONTIME: 
CCS: 130.2620348
IONMODE: Negative
INSTRUMENTTYPE: LC-ESI-ITFT
INSTRUMENT: 
COLLISIONENERGY: 35
Comment: registered in MassBank
Num Peaks: 1
78.78612	1000

NAME: cis-Aconitic acid; LC-ESI-ITFT; MS2; m/z
PRECURSORMZ: 173.009161
PRECURSORTYPE: [M-H]-
FORMULA: C6H6O6
Ontology: Tricarboxylic acids and derivatives
INCHIKEY: GTZCVFVGUGFEME-IWQZZHSRSA-N
SMILES: OC(=O)C\C(=C\C(O)=O)C(O)=O
RETENTIONTIME: 
CCS: 129.6078048
IONMODE: Negative
INSTRUMENTTYPE: LC-ESI-ITFT
INSTRUMENT: 
COLLISIONENERGY: 35
Comment: registered in MassBank
Num Peaks: 3
84.96336	69
111.0221	51
128.97681	1000

NAME: D-Gluconic acid; LC-ESI-ITFT; MS2; m/z
PRECURSORMZ: 195.051026
PRECURSORTYPE: [M-H]-
FORMULA: C6H12O7
Ontology: Medium-chain hydroxy acids and derivatives
INCHIKEY: RGHNJXZEOKUKBD-UHFFFAOYNA-N
SMILES: OCC(O)C(O)C(O)C(O)C(O)=O
RETENTIONTIME: 
CCS: 134.0914505
IONMODE: Negative
INSTRUMENTTYPE: LC-ESI-ITFT
INSTRUMENT: 
COLLISIONENERGY: 35
Comment: registered in MassBank
Num Peaks: 9
75.06127	28
84.99924	15
86.86739	25
98.91554	70
111.052	10
128.9395	1000
141.0202	8
159.061	85
177.0143	161

NAME: Citric acid; LC-ESI-ITFT; MS2; m/z
PRECURSORMZ: 191.019726
PRECURSORTYPE: [M-H]-
FORMULA: C6H8O7
Ontology: Tricarboxylic acids and derivatives
INCHIKEY: KRKNYBCHXYNGOX-UHFFFAOYSA-N
SMILES: OC(=O)CC(O)(CC(O)=O)C(O)=O
RETENTIONTIME: 
CCS: 132.8436043
IONMODE: Negative
INSTRUMENTTYPE: LC-ESI-ITFT
INSTRUMENT: 
COLLISIONENERGY: 35
Comment: registered in MassBank
Num Peaks: 5
87.01704	12
110.886	1000
129.01311	24
130.899	15
172.993	280

NAME: L-Homoserine; LC-ESI-ITFT; MS2; m/z
PRECURSORMZ: 118.050967
PRECURSORTYPE: [M-H]-
FORMULA: C4H9NO3
Ontology: L-alpha-amino acids
INCHIKEY: UKAUYVFTDYCKQA-VKHMYHEASA-N
SMILES: N[C@@H](CCO)C(O)=O
RETENTIONTIME: 
CCS: 122.1664861
IONMODE: Negative
INSTRUMENTTYPE: LC-ESI-ITFT
INSTRUMENT: 
COLLISIONENERGY: 35
Comment: registered in MassBank
Num Peaks: 2
97.98604	39
99.91853	1000

NAME: Creatine; LC-ESI-ITFT; MS2; m/z
PRECURSORMZ: 130.0622
PRECURSORTYPE: [M-H]-
FORMULA: C4H9N3O2
Ontology: Alpha amino acids and derivatives
INCHIKEY: CVSVTCORWBXHQV-UHFFFAOYSA-N
SMILES: CN(CC(O)=O)C(N)=N
RETENTIONTIME: 
CCS: 125.5637216
IONMODE: Negative
INSTRUMENTTYPE: LC-ESI-ITFT
INSTRUMENT: 
COLLISIONENERGY: 35
Comment: registered in MassBank
Num Peaks: 1
87.94714	1000

NAME: L-Ornithine; LC-ESI-ITFT; MS2; m/z
PRECURSORMZ: 131.082601
PRECURSORTYPE: [M-H]-
FORMULA: C5H12N2O2
Ontology: L-alpha-amino acids
INCHIKEY: AHLPHDHHMVZTML-BYPYZUCNSA-N
SMILES: NCCC[C@H](N)C(O)=O
RETENTIONTIME: 
CCS: 124.9658358
IONMODE: Negative
INSTRUMENTTYPE: LC-ESI-ITFT
INSTRUMENT: 
COLLISIONENERGY: 35
Comment: registered in MassBank
Num Peaks: 2
112.9343	1000
113.9991	129

NAME: Adenine; LC-ESI-ITFT; MS2; m/z
PRECURSORMZ: 134.047219
PRECURSORTYPE: [M-H]-
FORMULA: C5H5N5
Ontology: 6-aminopurines
INCHIKEY: GFFGJBXGBJISGV-UHFFFAOYSA-N
SMILES: NC1=C2N=CN=C2NC=N1
RETENTIONTIME: 
CCS: 122.1769505
IONMODE: Negative
INSTRUMENTTYPE: LC-ESI-ITFT
INSTRUMENT: 
COLLISIONENERGY: 35
Comment: registered in MassBank
Num Peaks: 2
106.0685	182
107.0399	1000

NAME: Hypoxanthine; LC-ESI-ITFT; MS2; m/z
PRECURSORMZ: 135.031234
PRECURSORTYPE: [M-H]-
FORMULA: C5H4N4O
Ontology: Hypoxanthines
INCHIKEY: FDGQSTZJBFJUBT-UHFFFAOYSA-N
SMILES: OC1=NC=NC2=C1N=CN2
RETENTIONTIME: 
CCS: 121.5287366
IONMODE: Negative
INSTRUMENTTYPE: LC-ESI-ITFT
INSTRUMENT: 
COLLISIONENERGY: 35
Comment: registered in MassBank
Num Peaks: 2
91.96152	1000
117.1324	20

NAME: L-Tyrosine; LC-ESI-ITFT; MS2; m/z
PRECURSORMZ: 180.066617
PRECURSORTYPE: [M-H]-
FORMULA: C9H11NO3
Ontology: Tyrosine and derivatives
INCHIKEY: OUYCCCASQSFEME-QMMMGPOBSA-N
SMILES: N[C@@H](CC1=CC=C(O)C=C1)C(O)=O
RETENTIONTIME: 
CCS: 138.7270639
IONMODE: Negative
INSTRUMENTTYPE: LC-ESI-ITFT
INSTRUMENT: 
COLLISIONENERGY: 35
Comment: registered in MassBank
Num Peaks: 6
71.93263	22
92.97633	101
106.0376	11
118.984	102
135.9841	65
163.06081	1000

NAME: DOPA; LC-ESI-ITFT; MS2; m/z
PRECURSORMZ: 196.061531
PRECURSORTYPE: [M-H]-
FORMULA: C9H11NO4
Ontology: Tyrosine and derivatives
INCHIKEY: WTDRDQBEARUVNC-LURJTMIESA-N
SMILES: N[C@@H](CC1=CC(O)=C(O)C=C1)C(O)=O
RETENTIONTIME: 
CCS: 141.1849616
IONMODE: Negative
INSTRUMENTTYPE: LC-ESI-ITFT
INSTRUMENT: 
COLLISIONENERGY: 35
Comment: registered in MassBank
Num Peaks: 10
72.02763	27
109.1245	25
122.0107	18
123.1026	15
124.1786	8
134.10629	85
135.0558	436
150.1385	9
152.0565	419
179.0022	1000

NAME: Inosine; LC-ESI-ITFT; MS2; m/z
PRECURSORMZ: 267.073493
PRECURSORTYPE: [M-H]-
FORMULA: C10H12N4O5
Ontology: Purine nucleosides
INCHIKEY: UGQMRVRMYYASKQ-KQYNXXCUSA-N
SMILES: OC[C@H]1O[C@H]([C@H](O)[C@@H]1O)N1C=NC2=C1N=CN=C2O
RETENTIONTIME: 
CCS: 158.4532116
IONMODE: Negative
INSTRUMENTTYPE: LC-ESI-ITFT
INSTRUMENT: 
COLLISIONENERGY: 35
Comment: registered in MassBank
Num Peaks: 2
92.0935	10
134.9825	1000

NAME: L-Glutathione (oxidized form); LC-ESI-ITFT; MS2; m/z
PRECURSORMZ: 611.144685
PRECURSORTYPE: [M-H]-
FORMULA: C20H32N6O12S2
Ontology: Peptides
INCHIKEY: YPZRWBKMTBYPTK-BJDJZHNGSA-N
SMILES: N[C@@H](CCC(O)=N[C@@H](CSSC[C@H](N=C(O)CC[C@H](N)C(O)=O)C(O)=NCC(O)=O)C(O)=NCC(O)=O)C(O)=O
RETENTIONTIME: 
CCS: 217.1958453
IONMODE: Negative
INSTRUMENTTYPE: LC-ESI-ITFT
INSTRUMENT: 
COLLISIONENERGY: 35
Comment: registered in MassBank
Num Peaks: 15
179.1413	33
197.17599	7
210.18719	33
254.13181	150
272.11139	399
286.15891	8
288.2193	62
304.17181	158
306.12231	1000
320.09851	6
338.02719	435
464.13708	14
482.1564	411
575.11908	8
593.16498	189

NAME: Guanosine; LC-ESI-ITFT; MS2; m/z
PRECURSORMZ: 282.084392
PRECURSORTYPE: [M-H]-
FORMULA: C10H13N5O5
Ontology: Purine nucleosides
INCHIKEY: NYHBQMYGNKIUIF-UUOKFMHZSA-N
SMILES: OC[C@H]1O[C@H]([C@H](O)[C@@H]1O)N1C=NC2=C1NC(=N)N=C2O
RETENTIONTIME: 
CCS: 161.5378727
IONMODE: Negative
INSTRUMENTTYPE: LC-ESI-ITFT
INSTRUMENT: 
COLLISIONENERGY: 35
Comment: registered in MassBank
Num Peaks: 2
133.1237	59
149.9944	1000

NAME: 3',5'-Cyclic AMP; LC-ESI-ITFT; MS2; m/z
PRECURSORMZ: 328.045243
PRECURSORTYPE: [M-H]-
FORMULA: C10H12N5O6P
Ontology: 3',5'-cyclic purine nucleotides
INCHIKEY: IVOMOUWHDPKRLL-KQYNXXCUSA-N
SMILES: NC1=C2N=CN([C@@H]3O[C@@H]4COP(O)(=O)O[C@H]4[C@H]3O)C2=NC=N1
RETENTIONTIME: 
CCS: 167.0918046
IONMODE: Negative
INSTRUMENTTYPE: LC-ESI-ITFT
INSTRUMENT: 
COLLISIONENERGY: 35
Comment: registered in MassBank
Num Peaks: 3
107.0634	25
133.96429	1000
192.9767	20

NAME: AMP; LC-ESI-ITFT; MS2; m/z
PRECURSORMZ: 346.055808
PRECURSORTYPE: [M-H]-
FORMULA: C10H14N5O7P
Ontology: Purine ribonucleoside monophosphates
INCHIKEY: UDMBCSSLTHHNCD-KQYNXXCUSA-N
SMILES: NC1=C2N=CN([C@@H]3O[C@H](COP(O)(O)=O)[C@@H](O)[C@H]3O)C2=NC=N1
RETENTIONTIME: 
CCS: 170.2284352
IONMODE: Negative
INSTRUMENTTYPE: LC-ESI-ITFT
INSTRUMENT: 
COLLISIONENERGY: 35
Comment: registered in MassBank
Num Peaks: 5
134.0199	14
138.8643	17
151.0103	125
192.9996	63
210.96111	1000

NAME: Acetyl-CoA; LC-ESI-ITFT; MS2; m/z
PRECURSORMZ: 808.118497
PRECURSORTYPE: [M-H]-
FORMULA: C23H38N7O17P3S
Ontology: Acyl CoAs
INCHIKEY: ZSLZBFCDCINBPY-ZSJPKINUSA-N
SMILES: CC(=O)SCCN=C(O)CCN=C(O)[C@H](O)C(C)(C)COP(O)(=O)OP(O)(=O)OC[C@H]1O[C@H]([C@H](O)[C@@H]1OP(O)(O)=O)N1C=NC2=C(N)N=CN=C12
RETENTIONTIME: 
CCS: 247.7615566
IONMODE: Negative
INSTRUMENTTYPE: LC-ESI-ITFT
INSTRUMENT: 
COLLISIONENERGY: 35
Comment: registered in MassBank
Num Peaks: 29
271.07629	42
273.16211	65
291.14059	5
305.327	10
328.2226	95
339.2059	26
353.10681	5
367.27731	10
381.17819	134
385.2345	12
399.25739	11
408.0679	763
419.19769	15
426.14471	428
443.2084	64
461.11401	1000
479.1694	152
488.12491	30
506.10641	29
510.25519	27
541.0672	28
575.22522	18
618.09271	108
655.03528	18
673.11267	279
710.2193	204
728.14581	260
748.17743	5
790.18958	248

NAME: FAD; LC-ESI-ITFT; MS2; m/z
PRECURSORMZ: 784.149858
PRECURSORTYPE: [M-H]-
FORMULA: C27H33N9O15P2
Ontology: Flavin nucleotides
INCHIKEY: VWWQXMAJTJZDQX-UYBVJOGSSA-N
SMILES: CC1=CC2=C(C=C1C)N(C[C@H](O)[C@H](O)[C@H](O)COP(O)(=O)OP(O)(=O)OC[C@H]1O[C@H]([C@H](O)[C@@H]1O)N1C=NC3=C(N)N=CN=C13)C1=NC(=O)N=C(O)C1=N2
RETENTIONTIME: 
CCS: 240.9170789
IONMODE: Negative
INSTRUMENTTYPE: LC-ESI-ITFT
INSTRUMENT: 
COLLISIONENERGY: 35
Comment: registered in MassBank
Num Peaks: 7
241.1956	7
346.01501	391
408.16721	9
419.2366	5
437.13599	1000
517.07483	23
542.16498	7

NAME: NADH; LC-ESI-ITFT; MS2; m/z
PRECURSORMZ: 664.117495
PRECURSORTYPE: [M-H]-
FORMULA: C21H29N7O14P2
Ontology: (5'->5')-dinucleotides
INCHIKEY: BOPGDPNILDQYTO-NNYOXOHSSA-N
SMILES: NC1=C2N=CN([C@@H]3O[C@H](COP(O)(=O)OP(O)(=O)OC[C@H]4O[C@H]([C@H](O)[C@@H]4O)N4C=CCC(=C4)C(O)=N)[C@@H](O)[C@H]3O)C2=NC=N1
RETENTIONTIME: 
CCS: 223.9454395
IONMODE: Negative
INSTRUMENTTYPE: LC-ESI-ITFT
INSTRUMENT: 
COLLISIONENERGY: 35
Comment: registered in MassBank
Num Peaks: 15
210.98129	6
272.97021	176
299.21631	22
317.14429	12
328.10889	126
335.20309	40
346.12369	309
397.1268	999
400.13101	6
408.03159	1000
415.08569	6
426.0014	23
497.99829	9
529.19983	14
566.1994	13

NAME: Cytidine; LC-ESI-ITFT; MS2; m/z
PRECURSORMZ: 242.078244
PRECURSORTYPE: [M-H]-
FORMULA: C9H13N3O5
Ontology: Pyrimidine nucleosides
INCHIKEY: UHDGCWIWMRVCDJ-XVFCMESISA-N
SMILES: OC[C@H]1O[C@H]([C@H](O)[C@@H]1O)N1C=CC(=N)N=C1O
RETENTIONTIME: 
CCS: 152.5274112
IONMODE: Negative
INSTRUMENTTYPE: LC-ESI-ITFT
INSTRUMENT: 
COLLISIONENERGY: 35
Comment: registered in MassBank
Num Peaks: 10
81.01814	6
91.01388	172
108.9003	1000
109.9383	385
126.0617	44
152.0647	246
181.0204	9
182.02521	20
199.1024	36
224.203	5

NAME: Cytidine; LC-ESI-ITFT; MS2; m/z
PRECURSORMZ: 288.056685
PRECURSORTYPE: [M+2Na-H]+
FORMULA: C9H13N3O5
Ontology: Pyrimidine nucleosides
INCHIKEY: UHDGCWIWMRVCDJ-XVFCMESISA-N
SMILES: OC[C@H]1O[C@H]([C@H](O)[C@@H]1O)N1C=CC(=N)N=C1O
RETENTIONTIME: 
CCS: -1
IONMODE: Negative
INSTRUMENTTYPE: LC-ESI-ITFT
INSTRUMENT: 
COLLISIONENERGY: 35
Comment: registered in MassBank
Num Peaks: 1
242.03281	1000

NAME: S-Adenosyl-L-homocysteine; LC-ESI-ITFT; MS2; m/z
PRECURSORMZ: 383.114312
PRECURSORTYPE: [M-H]-
FORMULA: C14H20N6O5S
Ontology: 5'-deoxy-5'-thionucleosides
INCHIKEY: ZJUKTBDSGOFHSH-WFMPWKQPSA-N
SMILES: N[C@@H](CCSC[C@H]1O[C@H]([C@H](O)[C@@H]1O)N1C=NC2=C(N)N=CN=C12)C(O)=O
RETENTIONTIME: 
CCS: 181.939052
IONMODE: Negative
INSTRUMENTTYPE: LC-ESI-ITFT
INSTRUMENT: 
COLLISIONENERGY: 35
Comment: registered in MassBank
Num Peaks: 9
126.0555	5
129.00481	36
133.9575	1000
144.0728	8
154.0295	13
176.01759	93
188.0237	246
248.1059	217
282.0643	25

NAME: L-Glutamine; LC-ESI-ITFT; MS2; m/z
PRECURSORMZ: 145.061866
PRECURSORTYPE: [M-H]-
FORMULA: C5H10N2O3
Ontology: Alpha amino acids
INCHIKEY: ZDXPYRJPNDTMRX-VKHMYHEASA-N
SMILES: N[C@@H](CCC(O)=N)C(O)=O
RETENTIONTIME: 
CCS: 126.3474033
IONMODE: Negative
INSTRUMENTTYPE: LC-ESI-ITFT
INSTRUMENT: 
COLLISIONENERGY: 35
Comment: registered in MassBank
Num Peaks: 3
108.993	98
126.9347	1000
128.03729	154

NAME: L-Tryptophan; LC-ESI-ITFT; MS2; m/z
PRECURSORMZ: 203.082601
PRECURSORTYPE: [M-H]-
FORMULA: C11H12N2O2
Ontology: Indolyl carboxylic acids and derivatives
INCHIKEY: QIVBCDIJIAJPQS-VIFPVBQESA-N
SMILES: N[C@@H](CC1=CNC2=CC=CC=C12)C(O)=O
RETENTIONTIME: 
CCS: 146.6599072
IONMODE: Negative
INSTRUMENTTYPE: LC-ESI-ITFT
INSTRUMENT: 
COLLISIONENERGY: 35
Comment: registered in MassBank
Num Peaks: 8
73.92183	22
115.9322	369
130.0462	9
141.97771	165
159.0876	1000
173.0524	22
185.06779	6
186.1503	90

NAME: D-Gluconic acid; LC-ESI-ITFT; MS2; m/z
PRECURSORMZ: 195.051026
PRECURSORTYPE: [M-H]-
FORMULA: C6H12O7
Ontology: Medium-chain hydroxy acids and derivatives
INCHIKEY: RGHNJXZEOKUKBD-UHFFFAOYNA-N
SMILES: OCC(O)C(O)C(O)C(O)C(O)=O
RETENTIONTIME: 
CCS: 134.0914505
IONMODE: Negative
INSTRUMENTTYPE: LC-ESI-ITFT
INSTRUMENT: 
COLLISIONENERGY: 35
Comment: registered in MassBank
Num Peaks: 9
74.9072	36
84.96408	15
86.91647	22
98.9577	74
111.0102	8
128.95151	1000
140.9902	14
159.01669	111
177.0536	160

NAME: Guanine; LC-ESI-ITFT; MS2; m/z
PRECURSORMZ: 150.042133
PRECURSORTYPE: [M-H]-
FORMULA: C5H5N5O
Ontology: Purines and purine derivatives
INCHIKEY: UYTPUPDQBNUYGX-UHFFFAOYSA-N
SMILES: OC1=NC(=N)NC2=C1N=CN2
RETENTIONTIME: 
CCS: 126.3124371
IONMODE: Negative
INSTRUMENTTYPE: LC-ESI-ITFT
INSTRUMENT: 
COLLISIONENERGY: 35
Comment: registered in MassBank
Num Peaks: 3
107.0433	46
108.066	25
132.9525	1000

NAME: FAD; LC-ESI-ITFT; MS2; m/z
PRECURSORMZ: 784.149858
PRECURSORTYPE: [M-H]-
FORMULA: C27H33N9O15P2
Ontology: Flavin nucleotides
INCHIKEY: VWWQXMAJTJZDQX-UYBVJOGSSA-N
SMILES: CC1=CC2=C(C=C1C)N(C[C@H](O)[C@H](O)[C@H](O)COP(O)(=O)OP(O)(=O)OC[C@H]1O[C@H]([C@H](O)[C@@H]1O)N1C=NC3=C(N)N=CN=C13)C1=NC(=O)N=C(O)C1=N2
RETENTIONTIME: 
CCS: 240.9170789
IONMODE: Negative
INSTRUMENTTYPE: LC-ESI-ITFT
INSTRUMENT: 
COLLISIONENERGY: 35
Comment: registered in MassBank
Num Peaks: 6
241.2142	6
346.2345	364
408.14679	10
437.20901	1000
517.06079	27
542.17767	7

NAME: L-(-)-Threonine; LC-ESI-ITFT; MS2; m/z
PRECURSORMZ: 118.050967
PRECURSORTYPE: [M-H]-
FORMULA: C4H9NO3
Ontology: L-alpha-amino acids
INCHIKEY: AYFVYJQAPQTCCC-GBXIJSLDSA-N
SMILES: C[C@@H](O)[C@H](N)C(O)=O
RETENTIONTIME: 
CCS: 121.9256951
IONMODE: Negative
INSTRUMENTTYPE: LC-ESI-ITFT
INSTRUMENT: 
COLLISIONENERGY: 35
Comment: registered in MassBank
Num Peaks: 2
71.93988	21
73.97616	1000

NAME: L-Carnosine; LC-ESI-ITFT; MS2; m/z
PRECURSORMZ: 225.099314
PRECURSORTYPE: [M-H]-
FORMULA: C9H14N4O3
Ontology: Hybrid peptides
INCHIKEY: CQOVPNPJLQNMDC-ZETCQYMHSA-N
SMILES: NCCC(O)=N[C@@H](CC1=CN=CN1)C(O)=O
RETENTIONTIME: 
CCS: 149.8669213
IONMODE: Negative
INSTRUMENTTYPE: LC-ESI-ITFT
INSTRUMENT: 
COLLISIONENERGY: 35
Comment: registered in MassBank
Num Peaks: 8
88.03955	34
110.0619	57
137.0899	6
153.9993	1000
163.00661	304
181.06329	49
207.1279	53
208.1835	10

NAME: D-Ribose 5-phosphate; LC-ESI-ITFT; MS2; m/z
PRECURSORMZ: 229.011877
PRECURSORTYPE: [M-H]-
FORMULA: C5H11O8P
Ontology: Pentose phosphates
INCHIKEY: KTVPXOYAKDPRHY-SOOFDHNKSA-N
SMILES: OC1O[C@H](COP(O)(O)=O)[C@@H](O)[C@H]1O
RETENTIONTIME: 
CCS: 140.0709074
IONMODE: Negative
INSTRUMENTTYPE: LC-ESI-ITFT
INSTRUMENT: 
COLLISIONENERGY: 35
Comment: registered in MassBank
Num Peaks: 7
78.81479	124
96.81485	1000
139.04221	73
169.0235	23
170.97231	7
192.9411	24
210.9915	27

NAME: L-Tyrosine; LC-ESI-ITFT; MS2; m/z
PRECURSORMZ: 180.066617
PRECURSORTYPE: [M-H]-
FORMULA: C9H11NO3
Ontology: Tyrosine and derivatives
INCHIKEY: OUYCCCASQSFEME-QMMMGPOBSA-N
SMILES: N[C@@H](CC1=CC=C(O)C=C1)C(O)=O
RETENTIONTIME: 
CCS: 138.7270639
IONMODE: Negative
INSTRUMENTTYPE: LC-ESI-ITFT
INSTRUMENT: 
COLLISIONENERGY: 35
Comment: registered in MassBank
Num Peaks: 7
71.97208	14
74.22255	5
92.9677	110
106.1652	6
118.9511	148
136.0349	88
163.0126	1000

NAME: NADH; LC-ESI-ITFT; MS2; m/z
PRECURSORMZ: 664.117495
PRECURSORTYPE: [M-H]-
FORMULA: C21H29N7O14P2
Ontology: (5'->5')-dinucleotides
INCHIKEY: BOPGDPNILDQYTO-NNYOXOHSSA-N
SMILES: NC1=C2N=CN([C@@H]3O[C@H](COP(O)(=O)OP(O)(=O)OC[C@H]4O[C@H]([C@H](O)[C@@H]4O)N4C=CCC(=C4)C(O)=N)[C@@H](O)[C@H]3O)C2=NC=N1
RETENTIONTIME: 
CCS: 223.9454395
IONMODE: Negative
INSTRUMENTTYPE: LC-ESI-ITFT
INSTRUMENT: 
COLLISIONENERGY: 35
Comment: registered in MassBank
Num Peaks: 16
211.1534	9
273.07031	168
299.18509	22
317.2384	12
328.11331	147
335.14581	41
346.20609	304
397.12881	1000
400.2197	6
408.07761	991
415.05109	7
426.10199	21
498.17249	10
529.12341	12
566.17932	13
584.31488	7

NAME: Taurine; LC-ESI-ITFT; MS2; m/z
PRECURSORMZ: 124.007387
PRECURSORTYPE: [M-H]-
FORMULA: C2H7NO3S
Ontology: Organosulfonic acids
INCHIKEY: XOAAWQZATWQOTB-UHFFFAOYSA-N
SMILES: NCCS(O)(=O)=O
RETENTIONTIME: 
CCS: 125.9119375
IONMODE: Negative
INSTRUMENTTYPE: LC-ESI-ITFT
INSTRUMENT: 
COLLISIONENERGY: 35
Comment: registered in MassBank
Num Peaks: 4
64.94663	38
79.83067	1000
80.94041	38
106.9298	410

NAME: L-Glutamic acid; LC-ESI-ITFT; MS2; m/z
PRECURSORMZ: 146.045881
PRECURSORTYPE: [M-H]-
FORMULA: C5H9NO4
Ontology: Glutamic acid and derivatives
INCHIKEY: WHUUTDBJXJRKMK-VKHMYHEASA-N
SMILES: N[C@@H](CCC(O)=O)C(O)=O
RETENTIONTIME: 
CCS: 126.6424926
IONMODE: Negative
INSTRUMENTTYPE: LC-ESI-ITFT
INSTRUMENT: 
COLLISIONENERGY: 35
Comment: registered in MassBank
Num Peaks: 2
102.0687	107
128.0265	1000

NAME: Uridine; LC-ESI-ITFT; MS2; m/z
PRECURSORMZ: 243.06226
PRECURSORTYPE: [M-H]-
FORMULA: C9H12N2O6
Ontology: Pyrimidine nucleosides
INCHIKEY: DRTQHJPVMGBUCF-XVFCMESISA-N
SMILES: OC[C@H]1O[C@H]([C@H](O)[C@@H]1O)N1C=CC(O)=NC1=O
RETENTIONTIME: 
CCS: 151.8583657
IONMODE: Negative
INSTRUMENTTYPE: LC-ESI-ITFT
INSTRUMENT: 
COLLISIONENERGY: 35
Comment: registered in MassBank
Num Peaks: 9
109.8253	140
110.9954	128
117.0858	7
132.0553	6
139.9808	45
151.9691	75
152.9624	93
182.071	34
200.16521	1000

NAME: D-Glucose 1-phosphate; LC-ESI-ITFT; MS2; m/z
PRECURSORMZ: 259.022442
PRECURSORTYPE: [M-H]-
FORMULA: C6H13O9P
Ontology: Monosaccharide phosphates
INCHIKEY: HXXFSFRBOHSIMQ-VFUOTHLCSA-N
SMILES: OC[C@H]1O[C@H](OP(O)(O)=O)[C@H](O)[C@@H](O)[C@@H]1O
RETENTIONTIME: 
CCS: 146.1664715
IONMODE: Negative
INSTRUMENTTYPE: LC-ESI-ITFT
INSTRUMENT: 
COLLISIONENERGY: 35
Comment: registered in MassBank
Num Peaks: 5
78.90215	28
96.91808	188
138.97549	33
181.05679	8
240.9559	1000

NAME: DOPA; LC-ESI-ITFT; MS2; m/z
PRECURSORMZ: 196.061531
PRECURSORTYPE: [M-H]-
FORMULA: C9H11NO4
Ontology: Tyrosine and derivatives
INCHIKEY: WTDRDQBEARUVNC-LURJTMIESA-N
SMILES: N[C@@H](CC1=CC(O)=C(O)C=C1)C(O)=O
RETENTIONTIME: 
CCS: 141.1849616
IONMODE: Negative
INSTRUMENTTYPE: LC-ESI-ITFT
INSTRUMENT: 
COLLISIONENERGY: 35
Comment: registered in MassBank
Num Peaks: 9
71.99978	28
109.0559	32
122.0639	12
123.0774	14
124.1257	8
134.14391	83
135.1635	443
152.01849	419
179.0265	1000

NAME: Cytidine; LC-ESI-ITFT; MS2; m/z
PRECURSORMZ: 242.078244
PRECURSORTYPE: [M-H]-
FORMULA: C9H13N3O5
Ontology: Pyrimidine nucleosides
INCHIKEY: UHDGCWIWMRVCDJ-XVFCMESISA-N
SMILES: OC[C@H]1O[C@H]([C@H](O)[C@@H]1O)N1C=CC(=N)N=C1O
RETENTIONTIME: 
CCS: 152.5274112
IONMODE: Negative
INSTRUMENTTYPE: LC-ESI-ITFT
INSTRUMENT: 
COLLISIONENERGY: 35
Comment: registered in MassBank
Num Peaks: 8
91.04874	159
108.9205	1000
110.0347	408
126.1002	30
151.93111	236
181.9489	7
196.0685	19
199.0179	32

NAME: Cytidine; LC-ESI-ITFT; MS2; m/z
PRECURSORMZ: 288.056685
PRECURSORTYPE: [M+2Na-H]+
FORMULA: C9H13N3O5
Ontology: Pyrimidine nucleosides
INCHIKEY: UHDGCWIWMRVCDJ-XVFCMESISA-N
SMILES: OC[C@H]1O[C@H]([C@H](O)[C@@H]1O)N1C=CC(=N)N=C1O
RETENTIONTIME: 
CCS: -1
IONMODE: Negative
INSTRUMENTTYPE: LC-ESI-ITFT
INSTRUMENT: 
COLLISIONENERGY: 35
Comment: registered in MassBank
Num Peaks: 1
242.0509	1000

NAME: 4-Hydroxy-L-proline; LC-ESI-ITFT; MS2; m/z
PRECURSORMZ: 130.050967
PRECURSORTYPE: [M-H]-
FORMULA: C5H9NO3
Ontology: Proline and derivatives
INCHIKEY: PMMYEEVYMWASQN-BKLSDQPFSA-N
SMILES: OC1CN[C@@H](C1)C(O)=O
RETENTIONTIME: 
CCS: 123.049502
IONMODE: Negative
INSTRUMENTTYPE: LC-ESI-ITFT
INSTRUMENT: 
COLLISIONENERGY: 35
Comment: registered in MassBank
Num Peaks: 2
67.88477	98
83.98364	1000

NAME: 2-Oxoglutaric acid; LC-ESI-ITFT; MS2; m/z
PRECURSORMZ: 145.014247
PRECURSORTYPE: [M-H]-
FORMULA: C5H6O5
Ontology: Gamma-keto acids and derivatives
INCHIKEY: KPGXRSRHYNQIFN-UHFFFAOYSA-N
SMILES: OC(=O)CCC(=O)C(O)=O
RETENTIONTIME: 
CCS: 125.9706223
IONMODE: Negative
INSTRUMENTTYPE: LC-ESI-ITFT
INSTRUMENT: 
COLLISIONENERGY: 35
Comment: registered in MassBank
Num Peaks: 1
100.9457	1000

NAME: beta-D-Fructose 6-phosphate; LC-ESI-ITFT; MS2; m/z
PRECURSORMZ: 259.022442
PRECURSORTYPE: [M-H]-
FORMULA: C6H13O9P
Ontology: Pentose phosphates
INCHIKEY: BGWGXPAPYGQALX-ARQDHWQXSA-N
SMILES: OC[C@@]1(O)O[C@H](COP(O)(O)=O)[C@@H](O)[C@@H]1O
RETENTIONTIME: 
CCS: 147.2156332
IONMODE: Negative
INSTRUMENTTYPE: LC-ESI-ITFT
INSTRUMENT: 
COLLISIONENERGY: 35
Comment: registered in MassBank
Num Peaks: 9
78.94379	139
96.87024	1000
138.9928	47
160.9872	28
169.0127	166
186.93111	5
199.0108	34
222.94031	40
240.989	28

NAME: Inosine; LC-ESI-ITFT; MS2; m/z
PRECURSORMZ: 267.073493
PRECURSORTYPE: [M-H]-
FORMULA: C10H12N4O5
Ontology: Purine nucleosides
INCHIKEY: UGQMRVRMYYASKQ-KQYNXXCUSA-N
SMILES: OC[C@H]1O[C@H]([C@H](O)[C@@H]1O)N1C=NC2=C1N=CN=C2O
RETENTIONTIME: 
CCS: 158.4532116
IONMODE: Negative
INSTRUMENTTYPE: LC-ESI-ITFT
INSTRUMENT: 
COLLISIONENERGY: 35
Comment: registered in MassBank
Num Peaks: 2
92.05681	6
134.9787	1000

NAME: S-Adenosyl-L-homocysteine; LC-ESI-ITFT; MS2; m/z
PRECURSORMZ: 383.114312
PRECURSORTYPE: [M-H]-
FORMULA: C14H20N6O5S
Ontology: 5'-deoxy-5'-thionucleosides
INCHIKEY: ZJUKTBDSGOFHSH-WFMPWKQPSA-N
SMILES: N[C@@H](CCSC[C@H]1O[C@H]([C@H](O)[C@@H]1O)N1C=NC2=C(N)N=CN=C12)C(O)=O
RETENTIONTIME: 
CCS: 181.939052
IONMODE: Negative
INSTRUMENTTYPE: LC-ESI-ITFT
INSTRUMENT: 
COLLISIONENERGY: 35
Comment: registered in MassBank
Num Peaks: 9
126.1064	7
129.0437	35
133.993	1000
144.0266	10
154.11	14
176.03529	94
187.96581	264
248.16541	193
282.04709	27

NAME: L-Cysteine Sulfinic acid; LC-ESI-ITFT; MS2; m/z
PRECURSORMZ: 152.002302
PRECURSORTYPE: [M-H]-
FORMULA: C3H7NO4S
Ontology: L-alpha-amino acids
INCHIKEY: ADVPTQAUNPRNPO-REOHCLBHSA-N
SMILES: N[C@@H](CS(O)=O)C(O)=O
RETENTIONTIME: 
CCS: 125.9667696
IONMODE: Negative
INSTRUMENTTYPE: LC-ESI-ITFT
INSTRUMENT: 
COLLISIONENERGY: 35
Comment: registered in MassBank
Num Peaks: 1
88.0023	1000

NAME: alpha-D-Glucose 6-phosphate; LC-ESI-ITFT; MS2; m/z
PRECURSORMZ: 259.022442
PRECURSORTYPE: [M-H]-
FORMULA: C6H13O9P
Ontology: Hexose phosphates
INCHIKEY: NBSCHQHZLSJFNQ-DVKNGEFBSA-N
SMILES: O[C@H]1O[C@H](COP(O)(O)=O)[C@@H](O)[C@H](O)[C@H]1O
RETENTIONTIME: 
CCS: 147.1625908
IONMODE: Negative
INSTRUMENTTYPE: LC-ESI-ITFT
INSTRUMENT: 
COLLISIONENERGY: 35
Comment: registered in MassBank
Num Peaks: 8
78.7943	155
96.86746	1000
138.98351	51
161.1115	22
168.88811	197
198.93941	257
223.0905	37
241.09869	22

NAME: L-Homoserine; LC-ESI-ITFT; MS2; m/z
PRECURSORMZ: 118.050967
PRECURSORTYPE: [M-H]-
FORMULA: C4H9NO3
Ontology: L-alpha-amino acids
INCHIKEY: UKAUYVFTDYCKQA-VKHMYHEASA-N
SMILES: N[C@@H](CCO)C(O)=O
RETENTIONTIME: 
CCS: 122.1664861
IONMODE: Negative
INSTRUMENTTYPE: LC-ESI-ITFT
INSTRUMENT: 
COLLISIONENERGY: 35
Comment: registered in MassBank
Num Peaks: 3
72.05084	12
98.13908	17
99.99026	1000

NAME: L-Asparagine; LC-ESI-ITFT; MS2; m/z
PRECURSORMZ: 131.046216
PRECURSORTYPE: [M-H]-
FORMULA: C4H8N2O3
Ontology: Asparagine and derivatives
INCHIKEY: DCXYFEDJOCDNAF-REOHCLBHSA-N
SMILES: N[C@@H](CC(O)=N)C(O)=O
RETENTIONTIME: 
CCS: 122.4414625
IONMODE: Negative
INSTRUMENTTYPE: LC-ESI-ITFT
INSTRUMENT: 
COLLISIONENERGY: 35
Comment: registered in MassBank
Num Peaks: 3
95.01486	11
113.0027	1000
113.9493	83

NAME: L-Histidine; LC-ESI-ITFT; MS2; m/z
PRECURSORMZ: 154.0622
PRECURSORTYPE: [M-H]-
FORMULA: C6H9N3O2
Ontology: Histidine and derivatives
INCHIKEY: HNDVDQJCIGZPNO-YFKPBYRVSA-N
SMILES: N[C@@H](CC1=CN=CN1)C(O)=O
RETENTIONTIME: 
CCS: 129.4644498
IONMODE: Negative
INSTRUMENTTYPE: LC-ESI-ITFT
INSTRUMENT: 
COLLISIONENERGY: 35
Comment: registered in MassBank
Num Peaks: 9
71.90015	29
93.01117	121
108.1407	47
109.0635	83
110.0335	93
118.0242	31
135.9314	861
136.97839	1000
154.1628	22

NAME: Phosphoenolpyruvic acid; LC-ESI-ITFT; MS2; m/z
PRECURSORMZ: 166.975098
PRECURSORTYPE: [M-H]-
FORMULA: C3H5O6P
Ontology: Phosphate esters
INCHIKEY: DTBNBXWJWCWCIK-UHFFFAOYSA-N
SMILES: OC(=O)C(=C)OP(O)(O)=O
RETENTIONTIME: 
CCS: 126.7752318
IONMODE: Negative
INSTRUMENTTYPE: LC-ESI-ITFT
INSTRUMENT: 
COLLISIONENERGY: 35
Comment: registered in MassBank
Num Peaks: 2
78.86938	1000
138.9427	121

NAME: 6-Phospho-D-gluconic acid; LC-ESI-ITFT; MS2; m/z
PRECURSORMZ: 275.017357
PRECURSORTYPE: [M-H]-
FORMULA: C6H13O10P
Ontology: Monosaccharide phosphates
INCHIKEY: BIRSGZKFKXLSJQ-SQOUGZDYSA-N
SMILES: O[C@H](COP(O)(O)=O)[C@@H](O)[C@H](O)[C@@H](O)C(O)=O
RETENTIONTIME: 
CCS: 149.4516652
IONMODE: Negative
INSTRUMENTTYPE: LC-ESI-ITFT
INSTRUMENT: 
COLLISIONENERGY: 35
Comment: registered in MassBank
Num Peaks: 7
78.94951	34
96.90497	577
159.0112	7
176.9864	80
199.0508	14
238.99541	58
256.97339	1000

NAME: L-Serine; LC-ESI-ITFT; MS2; m/z
PRECURSORMZ: 104.035317
PRECURSORTYPE: [M-H]-
FORMULA: C3H7NO3
Ontology: Serine and derivatives
INCHIKEY: MTCFGRXMJLQNBG-REOHCLBHSA-N
SMILES: N[C@@H](CO)C(O)=O
RETENTIONTIME: 
CCS: 120.3202565
IONMODE: Negative
INSTRUMENTTYPE: LC-ESI-ITFT
INSTRUMENT: 
COLLISIONENERGY: 35
Comment: registered in MassBank
Num Peaks: 1
73.86426	1000

NAME: L-Aspartic acid; LC-ESI-ITFT; MS2; m/z
PRECURSORMZ: 132.030231
PRECURSORTYPE: [M-H]-
FORMULA: C4H7NO4
Ontology: Aspartic acid and derivatives
INCHIKEY: CKLJMWTZIZZHCS-REOHCLBHSA-N
SMILES: N[C@@H](CC(O)=O)C(O)=O
RETENTIONTIME: 
CCS: 122.7851273
IONMODE: Negative
INSTRUMENTTYPE: LC-ESI-ITFT
INSTRUMENT: 
COLLISIONENERGY: 35
Comment: registered in MassBank
Num Peaks: 3
87.99345	1000
113.942	378
114.9841	932

NAME: L-(-)-Phenylalanine; LC-ESI-ITFT; MS2; m/z
PRECURSORMZ: 164.071702
PRECURSORTYPE: [M-H]-
FORMULA: C9H11NO2
Ontology: Phenylalanine and derivatives
INCHIKEY: COLNVLDHVKWLRT-QMMMGPOBSA-N
SMILES: N[C@@H](CC1=CC=CC=C1)C(O)=O
RETENTIONTIME: 
CCS: 135.2474301
IONMODE: Negative
INSTRUMENTTYPE: LC-ESI-ITFT
INSTRUMENT: 
COLLISIONENERGY: 35
Comment: registered in MassBank
Num Peaks: 3
71.9741	19
103.265	10
146.99159	1000

NAME: Glycerone phosphate; LC-ESI-ITFT; MS2; m/z
PRECURSORMZ: 168.990748
PRECURSORTYPE: [M-H]-
FORMULA: C3H7O6P
Ontology: Monosaccharide phosphates
INCHIKEY: GNGACRATGGDKBX-UHFFFAOYSA-N
SMILES: OCC(=O)COP(O)(O)=O
RETENTIONTIME: 
CCS: 128.4586763
IONMODE: Negative
INSTRUMENTTYPE: LC-ESI-ITFT
INSTRUMENT: 
COLLISIONENERGY: 35
Comment: registered in MassBank
Num Peaks: 1
96.8233	1000

NAME: beta-D-Fructose 1,6-bisphosphate; LC-ESI-ITFT; MS2; m/z
PRECURSORMZ: 338.988772
PRECURSORTYPE: [M-H]-
FORMULA: C6H14O12P2
Ontology: Hexose phosphates
INCHIKEY: RNBGYGVWRKECFJ-ARQDHWQXSA-N
SMILES: O[C@H]1[C@H](O)[C@@](O)(COP(O)(O)=O)O[C@@H]1COP(O)(O)=O
RETENTIONTIME: 
CCS: 160.4400598
IONMODE: Negative
INSTRUMENTTYPE: LC-ESI-ITFT
INSTRUMENT: 
COLLISIONENERGY: 35
Comment: registered in MassBank
Num Peaks: 12
96.95319	45
151.032	11
159.0435	8
169.02361	11
176.9623	92
181.1008	8
194.9485	26
205.0477	6
223.0769	73
240.9375	1000
248.92261	12
321.03741	68

NAME: Creatine; LC-ESI-ITFT; MS2; m/z
PRECURSORMZ: 130.0622
PRECURSORTYPE: [M-H]-
FORMULA: C4H9N3O2
Ontology: Alpha amino acids and derivatives
INCHIKEY: CVSVTCORWBXHQV-UHFFFAOYSA-N
SMILES: CN(CC(O)=O)C(N)=N
RETENTIONTIME: 
CCS: 125.5637216
IONMODE: Negative
INSTRUMENTTYPE: LC-ESI-ITFT
INSTRUMENT: 
COLLISIONENERGY: 35
Comment: registered in MassBank
Num Peaks: 1
87.87201	1000

NAME: Guanosine; LC-ESI-ITFT; MS2; m/z
PRECURSORMZ: 282.084392
PRECURSORTYPE: [M-H]-
FORMULA: C10H13N5O5
Ontology: Purine nucleosides
INCHIKEY: NYHBQMYGNKIUIF-UUOKFMHZSA-N
SMILES: OC[C@H]1O[C@H]([C@H](O)[C@@H]1O)N1C=NC2=C1NC(=N)N=C2O
RETENTIONTIME: 
CCS: 161.5378727
IONMODE: Negative
INSTRUMENTTYPE: LC-ESI-ITFT
INSTRUMENT: 
COLLISIONENERGY: 35
Comment: registered in MassBank
Num Peaks: 2
133.0979	58
150.00281	1000

NAME: NADP+; LC-ESI-ITFT; MS2; m/z
PRECURSORMZ: 743.075452
PRECURSORTYPE: [M-H]-
FORMULA: C21H29N7O17P3
Ontology: (5'->5')-dinucleotides
INCHIKEY: XJLXINKUBYWONI-NNYOXOHSSA-O
SMILES: NC1=C2N=CN([C@@H]3O[C@H](COP(O)(=O)OP(O)(=O)OC[C@H]4O[C@H]([C@H](O)[C@@H]4O)[N+]4=CC=CC(=C4)C(O)=N)[C@@H](O)[C@H]3OP(O)(O)=O)C2=NC=N1
RETENTIONTIME: 
CCS: 228.0072308
IONMODE: Negative
INSTRUMENTTYPE: LC-ESI-ITFT
INSTRUMENT: 
COLLISIONENERGY: 35
Comment: registered in MassBank
Num Peaks: 3
602.25708	6
620.1015	1000
621.05621	29

NAME: L-(+)-Arginine; LC-ESI-ITFT; MS2; m/z
PRECURSORMZ: 173.104399
PRECURSORTYPE: [M-H]-
FORMULA: C6H14N4O2
Ontology: L-alpha-amino acids
INCHIKEY: ODKSFYDXXFIFQN-BYPYZUCNSA-N
SMILES: N[C@@H](CCCNC(N)=N)C(O)=O
RETENTIONTIME: 
CCS: 135.8360956
IONMODE: Negative
INSTRUMENTTYPE: LC-ESI-ITFT
INSTRUMENT: 
COLLISIONENERGY: 35
Comment: registered in MassBank
Num Peaks: 2
130.97951	1000
156.0524	144

NAME: sn-Glycerol 3-phosphate; LC-ESI-ITFT; MS2; m/z
PRECURSORMZ: 171.006398
PRECURSORTYPE: [M-H]-
FORMULA: C3H9O6P
Ontology: Glycerophosphates
INCHIKEY: AWUCVROLDVIAJX-GSVOUGTGSA-N
SMILES: OC[C@@H](O)COP(O)(O)=O
RETENTIONTIME: 
CCS: 130.2620348
IONMODE: Negative
INSTRUMENTTYPE: LC-ESI-ITFT
INSTRUMENT: 
COLLISIONENERGY: 35
Comment: registered in MassBank
Num Peaks: 3
78.86234	1000
96.85524	16
152.97549	18

NAME: DL-Isocitric acid; LC-ESI-ITFT; MS2; m/z
PRECURSORMZ: 173.009161
PRECURSORTYPE: [M-H2O-H]-
FORMULA: C6H8O7
Ontology: Tricarboxylic acids and derivatives
INCHIKEY: ODBLHEXUDAPZAU-UHFFFAOYNA-N
SMILES: OC(C(CC(O)=O)C(O)=O)C(O)=O
RETENTIONTIME: 
CCS: -1
IONMODE: Negative
INSTRUMENTTYPE: LC-ESI-ITFT
INSTRUMENT: 
COLLISIONENERGY: 35
Comment: registered in MassBank
Num Peaks: 3
110.9521	1000
129.03349	209
155.0007	291

NAME: DL-Isocitric acid; LC-ESI-ITFT; MS2; m/z
PRECURSORMZ: 191.019726
PRECURSORTYPE: [M-H]-
FORMULA: C6H8O7
Ontology: Tricarboxylic acids and derivatives
INCHIKEY: ODBLHEXUDAPZAU-UHFFFAOYNA-N
SMILES: OC(C(CC(O)=O)C(O)=O)C(O)=O
RETENTIONTIME: 
CCS: 132.7376313
IONMODE: Negative
INSTRUMENTTYPE: LC-ESI-ITFT
INSTRUMENT: 
COLLISIONENERGY: 35
Comment: registered in MassBank
Num Peaks: 4
110.8745	142
129.0132	12
155.08611	41
172.9037	1000

NAME: 3',5'-Cyclic AMP; LC-ESI-ITFT; MS2; m/z
PRECURSORMZ: 328.045243
PRECURSORTYPE: [M-H]-
FORMULA: C10H12N5O6P
Ontology: 3',5'-cyclic purine nucleotides
INCHIKEY: IVOMOUWHDPKRLL-KQYNXXCUSA-N
SMILES: NC1=C2N=CN([C@@H]3O[C@@H]4COP(O)(=O)O[C@H]4[C@H]3O)C2=NC=N1
RETENTIONTIME: 
CCS: 167.0918046
IONMODE: Negative
INSTRUMENTTYPE: LC-ESI-ITFT
INSTRUMENT: 
COLLISIONENERGY: 35
Comment: registered in MassBank
Num Peaks: 3
107.0686	22
133.9994	1000
193.0361	23

NAME: CDP; LC-ESI-ITFT; MS2; m/z
PRECURSORMZ: 384.00034
PRECURSORTYPE: [M-H2O-H]-
FORMULA: C9H15N3O11P2
Ontology: Pyrimidine ribonucleoside diphosphates
INCHIKEY: ZWIADYZPOWUWEW-XVFCMESISA-N
SMILES: O[C@H]1[C@@H](O)[C@@H](O[C@@H]1COP(O)(=O)OP(O)(O)=O)N1C=CC(=N)N=C1O
RETENTIONTIME: 
CCS: -1
IONMODE: Negative
INSTRUMENTTYPE: LC-ESI-ITFT
INSTRUMENT: 
COLLISIONENERGY: 35
Comment: registered in MassBank
Num Peaks: 11
136.8988	7
158.86391	316
175.033	73
177.0356	13
190.1642	12
243.093	6
255.0916	11
272.94669	1000
286.08099	27
340.9455	10
366.10349	27

NAME: CDP; LC-ESI-ITFT; MS2; m/z
PRECURSORMZ: 402.010905
PRECURSORTYPE: [M-H]-
FORMULA: C9H15N3O11P2
Ontology: Pyrimidine ribonucleoside diphosphates
INCHIKEY: ZWIADYZPOWUWEW-XVFCMESISA-N
SMILES: O[C@H]1[C@@H](O)[C@@H](O[C@@H]1COP(O)(=O)OP(O)(O)=O)N1C=CC(=N)N=C1O
RETENTIONTIME: 
CCS: 175.4100076
IONMODE: Negative
INSTRUMENTTYPE: LC-ESI-ITFT
INSTRUMENT: 
COLLISIONENERGY: 35
Comment: registered in MassBank
Num Peaks: 8
159.03191	130
193.0289	14
206.20621	13
273.04129	26
291.10349	37
304.10751	1000
359.19312	13
384.05911	448

NAME: L-Citrulline; LC-ESI-ITFT; MS2; m/z
PRECURSORMZ: 174.088415
PRECURSORTYPE: [M-H]-
FORMULA: C6H13N3O3
Ontology: L-alpha-amino acids
INCHIKEY: RHGKLRLOHDJJDR-BYPYZUCNSA-N
SMILES: N[C@@H](CCCNC(O)=N)C(O)=O
RETENTIONTIME: 
CCS: 135.3693852
IONMODE: Negative
INSTRUMENTTYPE: LC-ESI-ITFT
INSTRUMENT: 
COLLISIONENERGY: 35
Comment: registered in MassBank
Num Peaks: 2
130.96899	1000
157.0972	16

NAME: cis-Aconitic acid; LC-ESI-ITFT; MS2; m/z
PRECURSORMZ: 173.009161
PRECURSORTYPE: [M-H]-
FORMULA: C6H6O6
Ontology: Tricarboxylic acids and derivatives
INCHIKEY: GTZCVFVGUGFEME-IWQZZHSRSA-N
SMILES: OC(=O)C\C(=C\C(O)=O)C(O)=O
RETENTIONTIME: 
CCS: 129.6078048
IONMODE: Negative
INSTRUMENTTYPE: LC-ESI-ITFT
INSTRUMENT: 
COLLISIONENERGY: 35
Comment: registered in MassBank
Num Peaks: 3
84.87459	64
110.9677	9
128.96249	1000

NAME: Citric acid; LC-ESI-ITFT; MS2; m/z
PRECURSORMZ: 191.019726
PRECURSORTYPE: [M-H]-
FORMULA: C6H8O7
Ontology: Tricarboxylic acids and derivatives
INCHIKEY: KRKNYBCHXYNGOX-UHFFFAOYSA-N
SMILES: OC(=O)CC(O)(CC(O)=O)C(O)=O
RETENTIONTIME: 
CCS: 132.8436043
IONMODE: Negative
INSTRUMENTTYPE: LC-ESI-ITFT
INSTRUMENT: 
COLLISIONENERGY: 35
Comment: registered in MassBank
Num Peaks: 4
87.05798	10
110.9603	1000
128.97771	24
172.99879	225

NAME: AMP; LC-ESI-ITFT; MS2; m/z
PRECURSORMZ: 346.055808
PRECURSORTYPE: [M-H]-
FORMULA: C10H14N5O7P
Ontology: Purine ribonucleoside monophosphates
INCHIKEY: UDMBCSSLTHHNCD-KQYNXXCUSA-N
SMILES: NC1=C2N=CN([C@@H]3O[C@H](COP(O)(O)=O)[C@@H](O)[C@H]3O)C2=NC=N1
RETENTIONTIME: 
CCS: 170.2284352
IONMODE: Negative
INSTRUMENTTYPE: LC-ESI-ITFT
INSTRUMENT: 
COLLISIONENERGY: 35
Comment: registered in MassBank
Num Peaks: 6
134.0146	13
138.95151	19
150.9498	115
192.9332	64
211.0139	1000
248.16969	6

NAME: 3-Phospho-D-glycerate; LC-ESI-ITFT; MS2; m/z
PRECURSORMZ: 184.985663
PRECURSORTYPE: [M-H]-
FORMULA: C3H7O7P
Ontology: Sugar acids and derivatives
INCHIKEY: OSJPPGNTCRNQQC-UWTATZPHSA-N
SMILES: O[C@H](COP(O)(O)=O)C(O)=O
RETENTIONTIME: 
CCS: 130.3451365
IONMODE: Negative
INSTRUMENTTYPE: LC-ESI-ITFT
INSTRUMENT: 
COLLISIONENERGY: 35
Comment: registered in MassBank
Num Peaks: 4
78.86975	249
86.98736	19
96.92368	1000
166.961	842

NAME: ADP; LC-ESI-ITFT; MS2; m/z
PRECURSORMZ: 426.022138
PRECURSORTYPE: [M-H]-
FORMULA: C10H15N5O10P2
Ontology: Purine ribonucleoside diphosphates
INCHIKEY: XTWYTFMLZFPYCI-KQYNXXCUSA-N
SMILES: NC1=C2N=CN([C@@H]3O[C@H](COP(O)(=O)OP(O)(O)=O)[C@@H](O)[C@H]3O)C2=NC=N1
RETENTIONTIME: 
CCS: 180.3061453
IONMODE: Negative
INSTRUMENTTYPE: LC-ESI-ITFT
INSTRUMENT: 
COLLISIONENERGY: 35
Comment: registered in MassBank
Num Peaks: 5
134.0226	208
158.95689	40
291.0224	14
328.03781	1000
407.99579	96

NAME: Adenosine 5'-triphosphate; LC-ESI-ITFT; MS2; [M-2H]2-
PRECURSORMZ: 252.491145
PRECURSORTYPE: [M-2H]2-
FORMULA: C10H16N5O13P3
Ontology: Purine ribonucleoside triphosphates
INCHIKEY: ZKHQWZAMYRWXGA-KQYNXXCUSA-N
SMILES: NC1=C2N=CN([C@@H]3O[C@H](COP(O)(=O)OP(O)(=O)OP(O)(O)=O)[C@@H](O)[C@H]3O)C2=NC=N1
RETENTIONTIME: 
CCS: -1
IONMODE: Negative
INSTRUMENTTYPE: LC-ESI-ITFT
INSTRUMENT: 
COLLISIONENERGY: 
Comment: registered in MassBank
Num Peaks: 1
78.89393	59

NAME: Adenosine 5'-triphosphate; LC-ESI-ITFT; MS2; [M-H]-
PRECURSORMZ: 505.988469
PRECURSORTYPE: [M-H]-
FORMULA: C10H16N5O13P3
Ontology: Purine ribonucleoside triphosphates
INCHIKEY: ZKHQWZAMYRWXGA-KQYNXXCUSA-N
SMILES: NC1=C2N=CN([C@@H]3O[C@H](COP(O)(=O)OP(O)(=O)OP(O)(O)=O)[C@@H](O)[C@H]3O)C2=NC=N1
RETENTIONTIME: 
CCS: 190.1842167
IONMODE: Negative
INSTRUMENTTYPE: LC-ESI-ITFT
INSTRUMENT: 
COLLISIONENERGY: 
Comment: registered in MassBank
Num Peaks: 7
158.86349	39
176.8688	35
213.98669	6
272.99731	33
370.93481	19
408.00031	1000
487.98929	34

NAME: nPFOS; LC-ESI-QQ; MS2; CE10eV; [M-H]-
PRECURSORMZ: 498.930218
PRECURSORTYPE: [M-H]-
FORMULA: C8HF17O3S
Ontology: Perfluorooctane sulfonic acid and derivatives
INCHIKEY: YFSUTJLHUFNCNZ-UHFFFAOYSA-N
SMILES: OS(=O)(=O)C(F)(F)C(F)(F)C(F)(F)C(F)(F)C(F)(F)C(F)(F)C(F)(F)C(F)(F)F
RETENTIONTIME: 
CCS: 159.3554712
IONMODE: Negative
INSTRUMENTTYPE: LC-ESI-QQ
INSTRUMENT: 
COLLISIONENERGY: 10
Comment: registered in MassBank
Num Peaks: 8
79.80997	64
83.03458	33
84.83428	7
98.73213	28
118.9429	7
134.8885	6
168.8613	20
499.01859	1000

NAME: nPFOS; LC-ESI-QQ; MS2; CE20eV; [M-H]-
PRECURSORMZ: 498.930218
PRECURSORTYPE: [M-H]-
FORMULA: C8HF17O3S
Ontology: Perfluorooctane sulfonic acid and derivatives
INCHIKEY: YFSUTJLHUFNCNZ-UHFFFAOYSA-N
SMILES: OS(=O)(=O)C(F)(F)C(F)(F)C(F)(F)C(F)(F)C(F)(F)C(F)(F)C(F)(F)C(F)(F)F
RETENTIONTIME: 
CCS: 159.3554712
IONMODE: Negative
INSTRUMENTTYPE: LC-ESI-QQ
INSTRUMENT: 
COLLISIONENERGY: 20
Comment: registered in MassBank
Num Peaks: 7
79.87564	19
83.03847	14
98.54843	17
119.0627	30
170.8336	5
329.9913	9
498.95511	1000

NAME: nPFOS; LC-ESI-QQ; MS2; CE30eV; [M-H]-
PRECURSORMZ: 498.930218
PRECURSORTYPE: [M-H]-
FORMULA: C8HF17O3S
Ontology: Perfluorooctane sulfonic acid and derivatives
INCHIKEY: YFSUTJLHUFNCNZ-UHFFFAOYSA-N
SMILES: OS(=O)(=O)C(F)(F)C(F)(F)C(F)(F)C(F)(F)C(F)(F)C(F)(F)C(F)(F)C(F)(F)F
RETENTIONTIME: 
CCS: 159.3554712
IONMODE: Negative
INSTRUMENTTYPE: LC-ESI-QQ
INSTRUMENT: 
COLLISIONENERGY: 30
Comment: registered in MassBank
Num Peaks: 15
79.98768	656
83.06901	173
84.90763	37
99.01325	568
118.8975	150
129.88609	173
168.9832	132
179.6588	47
218.9758	50
229.6581	115
280.15591	31
330.16531	69
379.95059	48
394.7756	31
498.77859	1000

NAME: nPFOS; LC-ESI-QQ; MS2; CE40eV; [M-H]-
PRECURSORMZ: 498.930218
PRECURSORTYPE: [M-H]-
FORMULA: C8HF17O3S
Ontology: Perfluorooctane sulfonic acid and derivatives
INCHIKEY: YFSUTJLHUFNCNZ-UHFFFAOYSA-N
SMILES: OS(=O)(=O)C(F)(F)C(F)(F)C(F)(F)C(F)(F)C(F)(F)C(F)(F)C(F)(F)C(F)(F)F
RETENTIONTIME: 
CCS: 159.3554712
IONMODE: Negative
INSTRUMENTTYPE: LC-ESI-QQ
INSTRUMENT: 
COLLISIONENERGY: 40
Comment: registered in MassBank
Num Peaks: 14
79.80241	1000
83.08364	178
84.76359	104
98.69148	763
118.9867	206
129.70239	212
168.6405	231
179.97749	171
219.12331	50
229.9324	303
279.5701	88
329.7486	34
379.79919	42
498.76971	283

NAME: nPFOS; LC-ESI-QQ; MS2; CE50eV; [M-H]-
PRECURSORMZ: 498.930218
PRECURSORTYPE: [M-H]-
FORMULA: C8HF17O3S
Ontology: Perfluorooctane sulfonic acid and derivatives
INCHIKEY: YFSUTJLHUFNCNZ-UHFFFAOYSA-N
SMILES: OS(=O)(=O)C(F)(F)C(F)(F)C(F)(F)C(F)(F)C(F)(F)C(F)(F)C(F)(F)C(F)(F)F
RETENTIONTIME: 
CCS: 159.3554712
IONMODE: Negative
INSTRUMENTTYPE: LC-ESI-QQ
INSTRUMENT: 
COLLISIONENERGY: 50
Comment: registered in MassBank
Num Peaks: 13
79.74659	1000
82.73233	273
98.74919	613
119.0621	150
129.82739	220
168.9183	215
180.22951	94
229.5219	56
277.21991	21
279.88321	21
394.7663	66
435.05209	26
499.2973	48

NAME: nPFOS; LC-ESI-QQ; MS2; CE60eV; [M-H]-
PRECURSORMZ: 498.930218
PRECURSORTYPE: [M-H]-
FORMULA: C8HF17O3S
Ontology: Perfluorooctane sulfonic acid and derivatives
INCHIKEY: YFSUTJLHUFNCNZ-UHFFFAOYSA-N
SMILES: OS(=O)(=O)C(F)(F)C(F)(F)C(F)(F)C(F)(F)C(F)(F)C(F)(F)C(F)(F)C(F)(F)F
RETENTIONTIME: 
CCS: 159.3554712
IONMODE: Negative
INSTRUMENTTYPE: LC-ESI-QQ
INSTRUMENT: 
COLLISIONENERGY: 60
Comment: registered in MassBank
Num Peaks: 14
79.74587	1000
82.7332	254
98.74926	610
119.0241	145
129.73489	155
168.9449	163
180.1899	66
229.5378	118
277.2103	18
279.8959	22
312.77719	15
394.76471	49
435.05069	22
499.3067	49

NAME: isoPFOS; LC-ESI-QQ; MS2; CE10eV
PRECURSORMZ: 498.930218
PRECURSORTYPE: [M-H]-
FORMULA: C8HF17O3S
Ontology: Organosulfonic acids
INCHIKEY: NIKYAXWJPSOKTP-UHFFFAOYSA-N
SMILES: OS(=O)(=O)C(F)(F)C(F)(F)C(F)(F)C(F)(F)C(F)(F)C(F)(C(F)(F)F)C(F)(F)F
RETENTIONTIME: 
CCS: -1
IONMODE: Negative
INSTRUMENTTYPE: LC-ESI-QQ
INSTRUMENT: 
COLLISIONENERGY: 10
Comment: registered in MassBank
Num Peaks: 10
79.51456	58
84.9466	20
98.78749	84
168.7352	149
179.6897	35
229.5816	11
280.13419	36
330.0574	26
430.83939	18
499.0127	1000

NAME: isoPFOS; LC-ESI-QQ; MS2; CE20eV
PRECURSORMZ: 498.930218
PRECURSORTYPE: [M-H]-
FORMULA: C8HF17O3S
Ontology: Organosulfonic acids
INCHIKEY: NIKYAXWJPSOKTP-UHFFFAOYSA-N
SMILES: OS(=O)(=O)C(F)(F)C(F)(F)C(F)(F)C(F)(F)C(F)(F)C(F)(C(F)(F)F)C(F)(F)F
RETENTIONTIME: 
CCS: -1
IONMODE: Negative
INSTRUMENTTYPE: LC-ESI-QQ
INSTRUMENT: 
COLLISIONENERGY: 20
Comment: registered in MassBank
Num Peaks: 11
79.51689	71
82.69046	7
84.94066	19
98.7879	89
168.7352	160
179.6897	34
229.5816	10
280.13589	56
330.0578	28
430.83969	20
499.01291	1000

NAME: isoPFOS; LC-ESI-QQ; MS2; CE30eV
PRECURSORMZ: 498.930218
PRECURSORTYPE: [M-H]-
FORMULA: C8HF17O3S
Ontology: Organosulfonic acids
INCHIKEY: NIKYAXWJPSOKTP-UHFFFAOYSA-N
SMILES: OS(=O)(=O)C(F)(F)C(F)(F)C(F)(F)C(F)(F)C(F)(F)C(F)(C(F)(F)F)C(F)(F)F
RETENTIONTIME: 
CCS: -1
IONMODE: Negative
INSTRUMENTTYPE: LC-ESI-QQ
INSTRUMENT: 
COLLISIONENERGY: 30
Comment: registered in MassBank
Num Peaks: 21
62.73494	38
68.74407	59
79.82072	567
82.76289	613
84.87338	273
99.06144	492
118.8172	74
129.9594	422
145.51801	27
169.0128	455
180.0056	437
219.1882	130
229.97459	496
279.96689	183
329.70599	200
344.69699	70
350.65881	45
364.49301	42
408.53931	301
430.0173	114
498.90179	1000

NAME: isoPFOS; LC-ESI-QQ; MS2; CE40eV
PRECURSORMZ: 498.930218
PRECURSORTYPE: [M-H]-
FORMULA: C8HF17O3S
Ontology: Organosulfonic acids
INCHIKEY: NIKYAXWJPSOKTP-UHFFFAOYSA-N
SMILES: OS(=O)(=O)C(F)(F)C(F)(F)C(F)(F)C(F)(F)C(F)(F)C(F)(C(F)(F)F)C(F)(F)F
RETENTIONTIME: 
CCS: -1
IONMODE: Negative
INSTRUMENTTYPE: LC-ESI-QQ
INSTRUMENT: 
COLLISIONENERGY: 40
Comment: registered in MassBank
Num Peaks: 18
63.75938	74
68.68052	35
79.92465	1000
82.80629	528
85.05207	45
98.80034	858
119.0845	121
130.1082	436
168.7406	554
180.2047	415
219.0296	72
230.21809	632
279.9549	209
330.11899	283
376.92709	47
400.64871	35
481.14249	272
499.0564	542

NAME: isoPFOS; LC-ESI-QQ; MS2; CE50eV
PRECURSORMZ: 498.930218
PRECURSORTYPE: [M-H]-
FORMULA: C8HF17O3S
Ontology: Organosulfonic acids
INCHIKEY: NIKYAXWJPSOKTP-UHFFFAOYSA-N
SMILES: OS(=O)(=O)C(F)(F)C(F)(F)C(F)(F)C(F)(F)C(F)(F)C(F)(C(F)(F)F)C(F)(F)F
RETENTIONTIME: 
CCS: -1
IONMODE: Negative
INSTRUMENTTYPE: LC-ESI-QQ
INSTRUMENT: 
COLLISIONENERGY: 50
Comment: registered in MassBank
Num Peaks: 16
63.73279	128
69.05619	42
73.95027	33
80.11513	1000
83.15793	133
85.13244	76
99.04938	408
129.95419	457
169.03349	387
179.77319	109
191.0519	37
230.0692	279
321.58759	56
357.48029	40
412.77191	73
498.69339	36

NAME: isoPFOS; LC-ESI-QQ; MS2; CE60eV
PRECURSORMZ: 498.930218
PRECURSORTYPE: [M-H]-
FORMULA: C8HF17O3S
Ontology: Organosulfonic acids
INCHIKEY: NIKYAXWJPSOKTP-UHFFFAOYSA-N
SMILES: OS(=O)(=O)C(F)(F)C(F)(F)C(F)(F)C(F)(F)C(F)(F)C(F)(C(F)(F)F)C(F)(F)F
RETENTIONTIME: 
CCS: -1
IONMODE: Negative
INSTRUMENTTYPE: LC-ESI-QQ
INSTRUMENT: 
COLLISIONENERGY: 60
Comment: registered in MassBank
Num Peaks: 8
79.74314	1000
83.05012	179
94.95558	47
98.85048	782
130.22639	707
168.98061	124
229.5771	124
367.54459	87

NAME: 5mPFOS; LC-ESI-QQ; MS2; CE10eV
PRECURSORMZ: 498.930218
PRECURSORTYPE: [M-H]-
FORMULA: C8HF17O3S
Ontology: Organosulfonic acids
INCHIKEY: MLMPJIZPFXGYRO-UHFFFAOYNA-N
SMILES: OS(=O)(=O)C(F)(F)C(F)(F)C(F)(F)C(F)(F)C(F)(C(F)(F)F)C(F)(F)C(F)(F)F
RETENTIONTIME: 
CCS: -1
IONMODE: Negative
INSTRUMENTTYPE: LC-ESI-QQ
INSTRUMENT: 
COLLISIONENERGY: 10
Comment: registered in MassBank
Num Peaks: 10
79.99552	35
91.3837	8
98.62056	21
119.0638	9
129.6357	50
219.13049	24
229.6595	78
280.02579	132
379.83841	23
499.01559	1000

NAME: 5mPFOS; LC-ESI-QQ; MS2; CE20eV
PRECURSORMZ: 498.930218
PRECURSORTYPE: [M-H]-
FORMULA: C8HF17O3S
Ontology: Organosulfonic acids
INCHIKEY: MLMPJIZPFXGYRO-UHFFFAOYNA-N
SMILES: OS(=O)(=O)C(F)(F)C(F)(F)C(F)(F)C(F)(F)C(F)(C(F)(F)F)C(F)(F)C(F)(F)F
RETENTIONTIME: 
CCS: -1
IONMODE: Negative
INSTRUMENTTYPE: LC-ESI-QQ
INSTRUMENT: 
COLLISIONENERGY: 20
Comment: registered in MassBank
Num Peaks: 4
279.80829	14
294.71899	17
379.7868	81
499.08041	1000

NAME: 5mPFOS; LC-ESI-QQ; MS2; CE30eV
PRECURSORMZ: 498.930218
PRECURSORTYPE: [M-H]-
FORMULA: C8HF17O3S
Ontology: Organosulfonic acids
INCHIKEY: MLMPJIZPFXGYRO-UHFFFAOYNA-N
SMILES: OS(=O)(=O)C(F)(F)C(F)(F)C(F)(F)C(F)(F)C(F)(C(F)(F)F)C(F)(F)C(F)(F)F
RETENTIONTIME: 
CCS: -1
IONMODE: Negative
INSTRUMENTTYPE: LC-ESI-QQ
INSTRUMENT: 
COLLISIONENERGY: 30
Comment: registered in MassBank
Num Peaks: 16
79.8828	588
83.0368	174
98.71712	363
119.2905	65
130.01379	860
168.9948	59
179.8418	327
193.618	253
218.8965	166
229.6873	475
280.0899	412
310.63889	64
379.98679	86
429.69711	96
496.8161	45
498.82831	1000

NAME: 5mPFOS; LC-ESI-QQ; MS2; CE40eV
PRECURSORMZ: 498.930218
PRECURSORTYPE: [M-H]-
FORMULA: C8HF17O3S
Ontology: Organosulfonic acids
INCHIKEY: MLMPJIZPFXGYRO-UHFFFAOYNA-N
SMILES: OS(=O)(=O)C(F)(F)C(F)(F)C(F)(F)C(F)(F)C(F)(C(F)(F)F)C(F)(F)C(F)(F)F
RETENTIONTIME: 
CCS: -1
IONMODE: Negative
INSTRUMENTTYPE: LC-ESI-QQ
INSTRUMENT: 
COLLISIONENERGY: 40
Comment: registered in MassBank
Num Peaks: 13
63.662	142
64.17913	185
77.099	123
79.86473	910
98.9962	597
118.738	196
129.86729	871
180.3539	1000
219.00101	93
229.9164	643
279.81021	436
316.93921	84
499.08081	429

NAME: 5mPFOS; LC-ESI-QQ; MS2; 50eV
PRECURSORMZ: 498.930218
PRECURSORTYPE: [M-H]-
FORMULA: C8HF17O3S
Ontology: Organosulfonic acids
INCHIKEY: MLMPJIZPFXGYRO-UHFFFAOYNA-N
SMILES: OS(=O)(=O)C(F)(F)C(F)(F)C(F)(F)C(F)(F)C(F)(C(F)(F)F)C(F)(F)C(F)(F)F
RETENTIONTIME: 
CCS: -1
IONMODE: Negative
INSTRUMENTTYPE: LC-ESI-QQ
INSTRUMENT: 
COLLISIONENERGY: 50
Comment: registered in MassBank
Num Peaks: 12
63.76359	103
79.8626	1000
82.69625	72
98.80897	437
119.2692	48
129.9422	879
180.2175	292
229.6554	383
280.0752	66
365.12561	73
413.19739	97
498.73141	67

NAME: 5mPFOS; LC-ESI-QQ; MS2; 60eV
PRECURSORMZ: 498.930218
PRECURSORTYPE: [M-H]-
FORMULA: C8HF17O3S
Ontology: Organosulfonic acids
INCHIKEY: MLMPJIZPFXGYRO-UHFFFAOYNA-N
SMILES: OS(=O)(=O)C(F)(F)C(F)(F)C(F)(F)C(F)(F)C(F)(C(F)(F)F)C(F)(F)C(F)(F)F
RETENTIONTIME: 
CCS: -1
IONMODE: Negative
INSTRUMENTTYPE: LC-ESI-QQ
INSTRUMENT: 
COLLISIONENERGY: 60
Comment: registered in MassBank
Num Peaks: 8
68.98839	96
79.76032	1000
98.70687	322
129.66769	682
180.1521	80
229.3214	139
273.62451	31
338.9017	29

NAME: 4mPFOS; LC-ESI-QQ; MS2; CE10eV
PRECURSORMZ: 498.930218
PRECURSORTYPE: [M-H]-
FORMULA: C8HF17O3S
Ontology: Organosulfonic acids
INCHIKEY: MDEVHGNTMAPDQA-UHFFFAOYNA-N
SMILES: OS(=O)(=O)C(F)(F)C(F)(F)C(F)(F)C(F)(C(F)(F)F)C(F)(F)C(F)(F)C(F)(F)F
RETENTIONTIME: 
CCS: -1
IONMODE: Negative
INSTRUMENTTYPE: LC-ESI-QQ
INSTRUMENT: 
COLLISIONENERGY: 10
Comment: registered in MassBank
Num Peaks: 9
79.83497	30
83.02302	34
98.89847	66
118.9263	14
180.1906	50
229.85719	121
268.9361	22
330.00531	64
498.89301	1000

NAME: 4mPFOS; LC-ESI-QQ; MS2; CE20eV
PRECURSORMZ: 498.930218
PRECURSORTYPE: [M-H]-
FORMULA: C8HF17O3S
Ontology: Organosulfonic acids
INCHIKEY: MDEVHGNTMAPDQA-UHFFFAOYNA-N
SMILES: OS(=O)(=O)C(F)(F)C(F)(F)C(F)(F)C(F)(C(F)(F)F)C(F)(F)C(F)(F)C(F)(F)F
RETENTIONTIME: 
CCS: -1
IONMODE: Negative
INSTRUMENTTYPE: LC-ESI-QQ
INSTRUMENT: 
COLLISIONENERGY: 20
Comment: registered in MassBank
Num Peaks: 8
104.1902	26
150.6344	34
230.02769	168
279.69958	140
329.7399	42
367.08911	17
434.5455	53
498.89011	1000

NAME: 4mPFOS; LC-ESI-QQ; MS2; CE30eV
PRECURSORMZ: 498.930218
PRECURSORTYPE: [M-H]-
FORMULA: C8HF17O3S
Ontology: Organosulfonic acids
INCHIKEY: MDEVHGNTMAPDQA-UHFFFAOYNA-N
SMILES: OS(=O)(=O)C(F)(F)C(F)(F)C(F)(F)C(F)(C(F)(F)F)C(F)(F)C(F)(F)C(F)(F)F
RETENTIONTIME: 
CCS: -1
IONMODE: Negative
INSTRUMENTTYPE: LC-ESI-QQ
INSTRUMENT: 
COLLISIONENERGY: 30
Comment: registered in MassBank
Num Peaks: 15
61.4661	109
68.99541	79
79.85809	1000
82.63506	794
85.00159	94
98.6981	463
119.1186	272
129.99561	318
168.6857	70
179.8156	786
230.04671	620
269.1846	225
311.29141	225
330.1123	299
499.1347	782

NAME: 4mPFOS; LC-ESI-QQ; MS2; CE40eV
PRECURSORMZ: 498.930218
PRECURSORTYPE: [M-H]-
FORMULA: C8HF17O3S
Ontology: Organosulfonic acids
INCHIKEY: MDEVHGNTMAPDQA-UHFFFAOYNA-N
SMILES: OS(=O)(=O)C(F)(F)C(F)(F)C(F)(F)C(F)(C(F)(F)F)C(F)(F)C(F)(F)C(F)(F)F
RETENTIONTIME: 
CCS: -1
IONMODE: Negative
INSTRUMENTTYPE: LC-ESI-QQ
INSTRUMENT: 
COLLISIONENERGY: 40
Comment: registered in MassBank
Num Peaks: 17
63.67109	69
80.04099	1000
82.89721	72
99.10598	294
118.8989	242
129.922	351
169.2915	17
180.03329	286
230.08701	290
279.6973	70
310.77899	74
329.74359	234
394.76971	27
444.54849	37
462.65231	131
486.69699	21
498.95239	182

NAME: 4mPFOS; LC-ESI-QQ; MS2; CE50eV
PRECURSORMZ: 498.930218
PRECURSORTYPE: [M-H]-
FORMULA: C8HF17O3S
Ontology: Organosulfonic acids
INCHIKEY: MDEVHGNTMAPDQA-UHFFFAOYNA-N
SMILES: OS(=O)(=O)C(F)(F)C(F)(F)C(F)(F)C(F)(C(F)(F)F)C(F)(F)C(F)(F)C(F)(F)F
RETENTIONTIME: 
CCS: -1
IONMODE: Negative
INSTRUMENTTYPE: LC-ESI-QQ
INSTRUMENT: 
COLLISIONENERGY: 50
Comment: registered in MassBank
Num Peaks: 13
74.72455	40
79.99518	1000
83.14423	250
98.87886	416
118.7389	425
130.0735	211
180.21359	355
229.87289	134
324.78311	23
330.25809	86
363.02789	62
400.6304	119
498.79581	103

NAME: 4mPFOS; LC-ESI-QQ; MS2; CE60eV
PRECURSORMZ: 498.930218
PRECURSORTYPE: [M-H]-
FORMULA: C8HF17O3S
Ontology: Organosulfonic acids
INCHIKEY: MDEVHGNTMAPDQA-UHFFFAOYNA-N
SMILES: OS(=O)(=O)C(F)(F)C(F)(F)C(F)(F)C(F)(C(F)(F)F)C(F)(F)C(F)(F)C(F)(F)F
RETENTIONTIME: 
CCS: -1
IONMODE: Negative
INSTRUMENTTYPE: LC-ESI-QQ
INSTRUMENT: 
COLLISIONENERGY: 60
Comment: registered in MassBank
Num Peaks: 8
79.99346	1000
89.14469	51
98.77462	305
118.9776	344
129.7588	458
182.1442	33
229.772	245
341.858	56

NAME: 3mPFOS; LC-ESI-QQ; MS2; CE10eV
PRECURSORMZ: 498.930218
PRECURSORTYPE: [M-H]-
FORMULA: C8HF17O3S
Ontology: Organosulfonic acids
INCHIKEY: CCEVPOURSCMDRL-UHFFFAOYNA-N
SMILES: OS(=O)(=O)C(F)(F)C(F)(F)C(F)(C(F)(F)F)C(F)(F)C(F)(F)C(F)(F)C(F)(F)F
RETENTIONTIME: 
CCS: -1
IONMODE: Negative
INSTRUMENTTYPE: LC-ESI-QQ
INSTRUMENT: 
COLLISIONENERGY: 10
Comment: registered in MassBank
Num Peaks: 10
79.69657	75
83.15383	24
98.84896	74
129.6989	106
169.09351	26
179.8385	63
268.72449	11
279.64331	98
319.0394	32
498.95761	1000

NAME: 3mPFOS; LC-ESI-QQ; MS2; CE20eV
PRECURSORMZ: 498.930218
PRECURSORTYPE: [M-H]-
FORMULA: C8HF17O3S
Ontology: Organosulfonic acids
INCHIKEY: CCEVPOURSCMDRL-UHFFFAOYNA-N
SMILES: OS(=O)(=O)C(F)(F)C(F)(F)C(F)(C(F)(F)F)C(F)(F)C(F)(F)C(F)(F)C(F)(F)F
RETENTIONTIME: 
CCS: -1
IONMODE: Negative
INSTRUMENTTYPE: LC-ESI-QQ
INSTRUMENT: 
COLLISIONENERGY: 20
Comment: registered in MassBank
Num Peaks: 9
80.15048	19
103.9514	26
129.6337	27
168.92841	42
242.9122	16
279.91129	83
350.52979	22
422.75259	168
499.13779	1000

NAME: 3mPFOS; LC-ESI-QQ; MS2; CE30eV
PRECURSORMZ: 498.930218
PRECURSORTYPE: [M-H]-
FORMULA: C8HF17O3S
Ontology: Organosulfonic acids
INCHIKEY: CCEVPOURSCMDRL-UHFFFAOYNA-N
SMILES: OS(=O)(=O)C(F)(F)C(F)(F)C(F)(C(F)(F)F)C(F)(F)C(F)(F)C(F)(F)C(F)(F)F
RETENTIONTIME: 
CCS: -1
IONMODE: Negative
INSTRUMENTTYPE: LC-ESI-QQ
INSTRUMENT: 
COLLISIONENERGY: 30
Comment: registered in MassBank
Num Peaks: 15
79.63839	835
83.0125	216
98.95858	606
118.7779	101
130.0631	1000
168.8499	345
180.2923	642
229.76109	43
260.99261	350
279.90289	675
319.0853	230
329.80649	171
361.43509	82
378.25891	211
498.85339	831

NAME: 3mPFOS; LC-ESI-QQ; MS2; CE40eV
PRECURSORMZ: 498.930218
PRECURSORTYPE: [M-H]-
FORMULA: C8HF17O3S
Ontology: Organosulfonic acids
INCHIKEY: CCEVPOURSCMDRL-UHFFFAOYNA-N
SMILES: OS(=O)(=O)C(F)(F)C(F)(F)C(F)(C(F)(F)F)C(F)(F)C(F)(F)C(F)(F)C(F)(F)F
RETENTIONTIME: 
CCS: -1
IONMODE: Negative
INSTRUMENTTYPE: LC-ESI-QQ
INSTRUMENT: 
COLLISIONENERGY: 40
Comment: registered in MassBank
Num Peaks: 18
63.94832	65
68.9004	72
79.86595	796
82.66571	80
99.06995	406
118.9986	188
129.7475	1000
146.6819	230
168.828	532
180.2766	226
229.6478	289
261.3985	158
270.83679	208
280.01779	452
364.3548	54
372.39401	58
462.40479	121
498.9295	283

NAME: 3mPFOS; LC-ESI-QQ; MS2; CE50eV
PRECURSORMZ: 498.930218
PRECURSORTYPE: [M-H]-
FORMULA: C8HF17O3S
Ontology: Organosulfonic acids
INCHIKEY: CCEVPOURSCMDRL-UHFFFAOYNA-N
SMILES: OS(=O)(=O)C(F)(F)C(F)(F)C(F)(C(F)(F)F)C(F)(F)C(F)(F)C(F)(F)C(F)(F)F
RETENTIONTIME: 
CCS: -1
IONMODE: Negative
INSTRUMENTTYPE: LC-ESI-QQ
INSTRUMENT: 
COLLISIONENERGY: 50
Comment: registered in MassBank
Num Peaks: 12
68.86582	184
79.86398	912
83.01025	407
98.66744	678
118.6885	103
129.87781	1000
169.2639	105
260.57181	239
280.01419	130
354.73721	201
411.2796	39
489.1817	31

NAME: 3mPFOS; LC-ESI-QQ; MS2; CE60eV
PRECURSORMZ: 498.930218
PRECURSORTYPE: [M-H]-
FORMULA: C8HF17O3S
Ontology: Organosulfonic acids
INCHIKEY: CCEVPOURSCMDRL-UHFFFAOYNA-N
SMILES: OS(=O)(=O)C(F)(F)C(F)(F)C(F)(C(F)(F)F)C(F)(F)C(F)(F)C(F)(F)C(F)(F)F
RETENTIONTIME: 
CCS: -1
IONMODE: Negative
INSTRUMENTTYPE: LC-ESI-QQ
INSTRUMENT: 
COLLISIONENERGY: 60
Comment: registered in MassBank
Num Peaks: 12
64.0315	54
76.77122	164
80.0441	1000
83.08899	136
98.93106	436
118.8749	435
129.8129	480
168.8768	233
213.82809	38
244.1851	192
432.8139	63
498.56439	155

NAME: 2mPFOS; LC-ESI-QQ; MS2; CE10eV
PRECURSORMZ: 498.930218
PRECURSORTYPE: [M-H]-
FORMULA: C8HF17O3S
Ontology: Organosulfonic acids
INCHIKEY: QNLVHHDMJVQEDV-UHFFFAOYNA-N
SMILES: OS(=O)(=O)C(F)(F)C(F)(C(F)(F)F)C(F)(F)C(F)(F)C(F)(F)C(F)(F)C(F)(F)F
RETENTIONTIME: 
CCS: -1
IONMODE: Negative
INSTRUMENTTYPE: LC-ESI-QQ
INSTRUMENT: 
COLLISIONENERGY: 10
Comment: registered in MassBank
Num Peaks: 7
79.89918	70
99.0389	37
168.8754	28
219.028	103
230.0332	14
418.9903	31
498.8273	1000

NAME: 2mPFOS; LC-ESI-QQ; MS2; CE20eV
PRECURSORMZ: 498.930218
PRECURSORTYPE: [M-H]-
FORMULA: C8HF17O3S
Ontology: Organosulfonic acids
INCHIKEY: QNLVHHDMJVQEDV-UHFFFAOYNA-N
SMILES: OS(=O)(=O)C(F)(F)C(F)(C(F)(F)F)C(F)(F)C(F)(F)C(F)(F)C(F)(F)C(F)(F)F
RETENTIONTIME: 
CCS: -1
IONMODE: Negative
INSTRUMENTTYPE: LC-ESI-QQ
INSTRUMENT: 
COLLISIONENERGY: 20
Comment: registered in MassBank
Num Peaks: 7
79.71283	58
97.19252	35
98.7324	107
130.16229	39
169.0645	373
419.11139	37
498.8345	1000

NAME: 2mPFOS; LC-ESI-QQ; MS2; CE30eV
PRECURSORMZ: 498.930218
PRECURSORTYPE: [M-H]-
FORMULA: C8HF17O3S
Ontology: Organosulfonic acids
INCHIKEY: QNLVHHDMJVQEDV-UHFFFAOYNA-N
SMILES: OS(=O)(=O)C(F)(F)C(F)(C(F)(F)F)C(F)(F)C(F)(F)C(F)(F)C(F)(F)C(F)(F)F
RETENTIONTIME: 
CCS: -1
IONMODE: Negative
INSTRUMENTTYPE: LC-ESI-QQ
INSTRUMENT: 
COLLISIONENERGY: 30
Comment: registered in MassBank
Num Peaks: 8
79.84578	831
84.73995	89
99.16972	1000
118.74	51
129.5854	105
169.0602	239
219.1107	798
498.9407	851

NAME: 2mPFOS; LC-ESI-QQ; MS2; CE40eV
PRECURSORMZ: 498.930218
PRECURSORTYPE: [M-H]-
FORMULA: C8HF17O3S
Ontology: Organosulfonic acids
INCHIKEY: QNLVHHDMJVQEDV-UHFFFAOYNA-N
SMILES: OS(=O)(=O)C(F)(F)C(F)(C(F)(F)F)C(F)(F)C(F)(F)C(F)(F)C(F)(F)C(F)(F)F
RETENTIONTIME: 
CCS: -1
IONMODE: Negative
INSTRUMENTTYPE: LC-ESI-QQ
INSTRUMENT: 
COLLISIONENERGY: 40
Comment: registered in MassBank
Num Peaks: 9
68.9268	71
80.04511	1000
82.58126	65
98.78411	888
103.4994	95
129.6378	205
218.74519	157
438.7518	124
498.9874	274

NAME: 2mPFOS; LC-ESI-QQ; MS2; CE50eV
PRECURSORMZ: 498.930218
PRECURSORTYPE: [M-H]-
FORMULA: C8HF17O3S
Ontology: Organosulfonic acids
INCHIKEY: QNLVHHDMJVQEDV-UHFFFAOYNA-N
SMILES: OS(=O)(=O)C(F)(F)C(F)(C(F)(F)F)C(F)(F)C(F)(F)C(F)(F)C(F)(F)C(F)(F)F
RETENTIONTIME: 
CCS: -1
IONMODE: Negative
INSTRUMENTTYPE: LC-ESI-QQ
INSTRUMENT: 
COLLISIONENERGY: 50
Comment: registered in MassBank
Num Peaks: 10
80.00651	803
82.90888	93
98.95325	1000
118.6035	56
129.6515	806
339.05621	228
342.36011	68
352.89511	63
394.6131	78
462.48181	67

NAME: 2mPFOS; LC-ESI-QQ; MS2; CE60eV
PRECURSORMZ: 498.930218
PRECURSORTYPE: [M-H]-
FORMULA: C8HF17O3S
Ontology: Organosulfonic acids
INCHIKEY: QNLVHHDMJVQEDV-UHFFFAOYNA-N
SMILES: OS(=O)(=O)C(F)(F)C(F)(C(F)(F)F)C(F)(F)C(F)(F)C(F)(F)C(F)(F)C(F)(F)F
RETENTIONTIME: 
CCS: -1
IONMODE: Negative
INSTRUMENTTYPE: LC-ESI-QQ
INSTRUMENT: 
COLLISIONENERGY: 60
Comment: registered in MassBank
Num Peaks: 5
79.74313	1000
82.91258	194
99.00558	678
218.6777	233
422.6333	150

NAME: 1mPFOS; LC-ESI-QQ; MS2; CE10eV
PRECURSORMZ: 498.930218
PRECURSORTYPE: [M-H]-
FORMULA: C8HF17O3S
Ontology: Organosulfonic acids
INCHIKEY: LYZNUCXUQHMFTA-UHFFFAOYNA-N
SMILES: OS(=O)(=O)C(F)(C(F)(F)F)C(F)(F)C(F)(F)C(F)(F)C(F)(F)C(F)(F)C(F)(F)F
RETENTIONTIME: 
CCS: -1
IONMODE: Negative
INSTRUMENTTYPE: LC-ESI-QQ
INSTRUMENT: 
COLLISIONENERGY: 10
Comment: registered in MassBank
Num Peaks: 6
98.79959	159
168.7323	85
219.07941	45
268.90991	16
418.71881	92
498.9577	1000

NAME: 1mPFOS; LC-ESI-QQ; MS2; CE20eV
PRECURSORMZ: 498.930218
PRECURSORTYPE: [M-H]-
FORMULA: C8HF17O3S
Ontology: Organosulfonic acids
INCHIKEY: LYZNUCXUQHMFTA-UHFFFAOYNA-N
SMILES: OS(=O)(=O)C(F)(C(F)(F)F)C(F)(F)C(F)(F)C(F)(F)C(F)(F)C(F)(F)C(F)(F)F
RETENTIONTIME: 
CCS: -1
IONMODE: Negative
INSTRUMENTTYPE: LC-ESI-QQ
INSTRUMENT: 
COLLISIONENERGY: 20
Comment: registered in MassBank
Num Peaks: 11
98.70178	205
118.6151	7
169.0587	128
219.1852	79
268.84891	37
341.8475	9
367.1655	49
384.69781	63
418.7851	182
452.77399	36
498.8963	1000

NAME: 1mPFOS; LC-ESI-QQ; MS2; CE30eV
PRECURSORMZ: 498.930218
PRECURSORTYPE: [M-H]-
FORMULA: C8HF17O3S
Ontology: Organosulfonic acids
INCHIKEY: LYZNUCXUQHMFTA-UHFFFAOYNA-N
SMILES: OS(=O)(=O)C(F)(C(F)(F)F)C(F)(F)C(F)(F)C(F)(F)C(F)(F)C(F)(F)C(F)(F)F
RETENTIONTIME: 
CCS: -1
IONMODE: Negative
INSTRUMENTTYPE: LC-ESI-QQ
INSTRUMENT: 
COLLISIONENERGY: 30
Comment: registered in MassBank
Num Peaks: 10
79.86682	61
98.87824	1000
118.6986	143
169.08701	437
218.9906	389
268.8212	304
340.76361	30
378.71289	72
418.79251	409
498.9584	453

NAME: 1mPFOS; LC-ESI-QQ; MS2; CE40eV
PRECURSORMZ: 498.930218
PRECURSORTYPE: [M-H]-
FORMULA: C8HF17O3S
Ontology: Organosulfonic acids
INCHIKEY: LYZNUCXUQHMFTA-UHFFFAOYNA-N
SMILES: OS(=O)(=O)C(F)(C(F)(F)F)C(F)(F)C(F)(F)C(F)(F)C(F)(F)C(F)(F)C(F)(F)F
RETENTIONTIME: 
CCS: -1
IONMODE: Negative
INSTRUMENTTYPE: LC-ESI-QQ
INSTRUMENT: 
COLLISIONENERGY: 40
Comment: registered in MassBank
Num Peaks: 10
99.05031	1000
118.8835	315
129.98241	35
168.7612	396
218.78239	85
256.80219	101
269.242	41
324.8924	23
395.97589	69
439.84149	36

NAME: 1mPFOS; LC-ESI-QQ; MS2; CE50eV
PRECURSORMZ: 498.930218
PRECURSORTYPE: [M-H]-
FORMULA: C8HF17O3S
Ontology: Organosulfonic acids
INCHIKEY: LYZNUCXUQHMFTA-UHFFFAOYNA-N
SMILES: OS(=O)(=O)C(F)(C(F)(F)F)C(F)(F)C(F)(F)C(F)(F)C(F)(F)C(F)(F)C(F)(F)F
RETENTIONTIME: 
CCS: -1
IONMODE: Negative
INSTRUMENTTYPE: LC-ESI-QQ
INSTRUMENT: 
COLLISIONENERGY: 50
Comment: registered in MassBank
Num Peaks: 10
79.60311	128
98.86918	1000
118.8242	284
129.7106	113
168.6987	284
218.617	183
254.7681	45
406.56671	39
444.03799	64
499.1106	165

NAME: 1mPFOS; LC-ESI-QQ; MS2; CE60eV
PRECURSORMZ: 498.930218
PRECURSORTYPE: [M-H]-
FORMULA: C8HF17O3S
Ontology: Organosulfonic acids
INCHIKEY: LYZNUCXUQHMFTA-UHFFFAOYNA-N
SMILES: OS(=O)(=O)C(F)(C(F)(F)F)C(F)(F)C(F)(F)C(F)(F)C(F)(F)C(F)(F)C(F)(F)F
RETENTIONTIME: 
CCS: -1
IONMODE: Negative
INSTRUMENTTYPE: LC-ESI-QQ
INSTRUMENT: 
COLLISIONENERGY: 60
Comment: registered in MassBank
Num Peaks: 5
68.53801	44
79.66264	46
98.79315	1000
168.9465	86
252.65981	54

NAME: 44m2PFOS; LC-ESI-QQ; MS2; CE10eV
PRECURSORMZ: 498.930218
PRECURSORTYPE: [M-H]-
FORMULA: C8HF17O3S
Ontology: Organosulfonic acids
INCHIKEY: SIBWNSUYVDSFHF-UHFFFAOYSA-N
SMILES: OS(=O)(=O)C(F)(F)C(F)(F)C(F)(F)C(C(F)(F)F)(C(F)(F)F)C(F)(F)C(F)(F)F
RETENTIONTIME: 
CCS: -1
IONMODE: Negative
INSTRUMENTTYPE: LC-ESI-QQ
INSTRUMENT: 
COLLISIONENERGY: 10
Comment: registered in MassBank
Num Peaks: 7
69.67779	16
79.7577	32
180.2897	172
230.0838	267
269.08441	489
280.03159	153
498.9473	1000

NAME: 44m2PFOS; LC-ESI-QQ; MS2; CE20eV
PRECURSORMZ: 498.930218
PRECURSORTYPE: [M-H]-
FORMULA: C8HF17O3S
Ontology: Organosulfonic acids
INCHIKEY: SIBWNSUYVDSFHF-UHFFFAOYSA-N
SMILES: OS(=O)(=O)C(F)(F)C(F)(F)C(F)(F)C(C(F)(F)F)(C(F)(F)F)C(F)(F)C(F)(F)F
RETENTIONTIME: 
CCS: -1
IONMODE: Negative
INSTRUMENTTYPE: LC-ESI-QQ
INSTRUMENT: 
COLLISIONENERGY: 20
Comment: registered in MassBank
Num Peaks: 7
99.23434	63
179.9487	24
230.2202	216
268.8942	594
279.7616	123
319.12399	328
498.90811	1000

NAME: 44m2PFOS; LC-ESI-QQ; MS2; CE30eV
PRECURSORMZ: 498.930218
PRECURSORTYPE: [M-H]-
FORMULA: C8HF17O3S
Ontology: Organosulfonic acids
INCHIKEY: SIBWNSUYVDSFHF-UHFFFAOYSA-N
SMILES: OS(=O)(=O)C(F)(F)C(F)(F)C(F)(F)C(C(F)(F)F)(C(F)(F)F)C(F)(F)C(F)(F)F
RETENTIONTIME: 
CCS: -1
IONMODE: Negative
INSTRUMENTTYPE: LC-ESI-QQ
INSTRUMENT: 
COLLISIONENERGY: 30
Comment: registered in MassBank
Num Peaks: 10
68.808	234
80.05043	340
129.79849	151
180.1248	336
229.935	369
268.80899	1000
279.87881	115
430.6546	126
431.3551	106
498.659	501

NAME: 44m2PFOS; LC-ESI-QQ; MS2; CE40eV
PRECURSORMZ: 498.930218
PRECURSORTYPE: [M-H]-
FORMULA: C8HF17O3S
Ontology: Organosulfonic acids
INCHIKEY: SIBWNSUYVDSFHF-UHFFFAOYSA-N
SMILES: OS(=O)(=O)C(F)(F)C(F)(F)C(F)(F)C(C(F)(F)F)(C(F)(F)F)C(F)(F)C(F)(F)F
RETENTIONTIME: 
CCS: -1
IONMODE: Negative
INSTRUMENTTYPE: LC-ESI-QQ
INSTRUMENT: 
COLLISIONENERGY: 40
Comment: registered in MassBank
Num Peaks: 12
69.1176	898
79.9864	786
98.96946	112
118.7454	286
129.92039	257
179.6671	365
219.3286	62
230.1026	364
269.09009	1000
318.76831	53
373.12299	52
412.49619	54

NAME: 44m2PFOS; LC-ESI-QQ; MS2; CE50eV
PRECURSORMZ: 498.930218
PRECURSORTYPE: [M-H]-
FORMULA: C8HF17O3S
Ontology: Organosulfonic acids
INCHIKEY: SIBWNSUYVDSFHF-UHFFFAOYSA-N
SMILES: OS(=O)(=O)C(F)(F)C(F)(F)C(F)(F)C(C(F)(F)F)(C(F)(F)F)C(F)(F)C(F)(F)F
RETENTIONTIME: 
CCS: -1
IONMODE: Negative
INSTRUMENTTYPE: LC-ESI-QQ
INSTRUMENT: 
COLLISIONENERGY: 50
Comment: registered in MassBank
Num Peaks: 9
69.10981	538
79.78311	1000
118.8813	76
129.86729	572
179.7182	135
219.31351	90
223.1378	63
230.15269	86
269.24619	452

NAME: 44m2PFOS; LC-ESI-QQ; MS2; CE60eV
PRECURSORMZ: 498.930218
PRECURSORTYPE: [M-H]-
FORMULA: C8HF17O3S
Ontology: Organosulfonic acids
INCHIKEY: SIBWNSUYVDSFHF-UHFFFAOYSA-N
SMILES: OS(=O)(=O)C(F)(F)C(F)(F)C(F)(F)C(C(F)(F)F)(C(F)(F)F)C(F)(F)C(F)(F)F
RETENTIONTIME: 
CCS: -1
IONMODE: Negative
INSTRUMENTTYPE: LC-ESI-QQ
INSTRUMENT: 
COLLISIONENERGY: 60
Comment: registered in MassBank
Num Peaks: 9
61.71613	77
68.71994	607
79.74913	1000
118.9277	96
129.60651	426
244.3761	63
268.85861	393
326.8765	446
382.08511	54

NAME: nPFOA; LC-ESI-QQ; MS2; CE10eV
PRECURSORMZ: 412.966426
PRECURSORTYPE: [M-H]-
FORMULA: C8HF15O2
Ontology: Perfluoroalkyl carboxylic acid and derivatives
INCHIKEY: SNGREZUHAYWORS-UHFFFAOYSA-N
SMILES: OC(=O)C(F)(F)C(F)(F)C(F)(F)C(F)(F)C(F)(F)C(F)(F)C(F)(F)F
RETENTIONTIME: 
CCS: 144.7009144
IONMODE: Negative
INSTRUMENTTYPE: LC-ESI-QQ
INSTRUMENT: 
COLLISIONENERGY: 10
Comment: registered in MassBank
Num Peaks: 6
119.1144	91
169.1425	261
219.1794	154
368.92471	1000
403.2475	38
412.79459	242

NAME: nPFOA; LC-ESI-QQ; MS2; CE20eV
PRECURSORMZ: 412.966426
PRECURSORTYPE: [M-H]-
FORMULA: C8HF15O2
Ontology: Perfluoroalkyl carboxylic acid and derivatives
INCHIKEY: SNGREZUHAYWORS-UHFFFAOYSA-N
SMILES: OC(=O)C(F)(F)C(F)(F)C(F)(F)C(F)(F)C(F)(F)C(F)(F)C(F)(F)F
RETENTIONTIME: 
CCS: 144.7009144
IONMODE: Negative
INSTRUMENTTYPE: LC-ESI-QQ
INSTRUMENT: 
COLLISIONENERGY: 20
Comment: registered in MassBank
Num Peaks: 7
119	298
168.6636	1000
219.04221	239
369.26251	77
381.13019	176
410.67291	108
412.7059	80

NAME: nPFOA; LC-ESI-QQ; MS2; CE30eV
PRECURSORMZ: 412.966426
PRECURSORTYPE: [M-H]-
FORMULA: C8HF15O2
Ontology: Perfluoroalkyl carboxylic acid and derivatives
INCHIKEY: SNGREZUHAYWORS-UHFFFAOYSA-N
SMILES: OC(=O)C(F)(F)C(F)(F)C(F)(F)C(F)(F)C(F)(F)C(F)(F)C(F)(F)F
RETENTIONTIME: 
CCS: 144.7009144
IONMODE: Negative
INSTRUMENTTYPE: LC-ESI-QQ
INSTRUMENT: 
COLLISIONENERGY: 30
Comment: registered in MassBank
Num Peaks: 3
119.1433	453
168.8618	1000
219.043	240

NAME: nPFOA; LC-ESI-QQ; MS2; CE40eV
PRECURSORMZ: 412.966426
PRECURSORTYPE: [M-H]-
FORMULA: C8HF15O2
Ontology: Perfluoroalkyl carboxylic acid and derivatives
INCHIKEY: SNGREZUHAYWORS-UHFFFAOYSA-N
SMILES: OC(=O)C(F)(F)C(F)(F)C(F)(F)C(F)(F)C(F)(F)C(F)(F)C(F)(F)F
RETENTIONTIME: 
CCS: 144.7009144
IONMODE: Negative
INSTRUMENTTYPE: LC-ESI-QQ
INSTRUMENT: 
COLLISIONENERGY: 40
Comment: registered in MassBank
Num Peaks: 4
68.67071	380
118.9386	1000
168.93201	799
257.96799	144

NAME: nPFOA; LC-ESI-QQ; MS2; CE50eV
PRECURSORMZ: 412.966426
PRECURSORTYPE: [M-H]-
FORMULA: C8HF15O2
Ontology: Perfluoroalkyl carboxylic acid and derivatives
INCHIKEY: SNGREZUHAYWORS-UHFFFAOYSA-N
SMILES: OC(=O)C(F)(F)C(F)(F)C(F)(F)C(F)(F)C(F)(F)C(F)(F)C(F)(F)F
RETENTIONTIME: 
CCS: 144.7009144
IONMODE: Negative
INSTRUMENTTYPE: LC-ESI-QQ
INSTRUMENT: 
COLLISIONENERGY: 50
Comment: registered in MassBank
Num Peaks: 1
119.1043	1000

NAME: isoPFOA; LC-ESI-QQ; MS2; CE10eV
PRECURSORMZ: 412.966426
PRECURSORTYPE: [M-H]-
FORMULA: C8HF15O2
Ontology: Medium-chain fatty acids
INCHIKEY: KPBOPOXIOBBZTR-UHFFFAOYSA-N
SMILES: OC(=O)C(F)(F)C(F)(F)C(F)(F)C(F)(F)C(F)(C(F)(F)F)C(F)(F)F
RETENTIONTIME: 
CCS: -1
IONMODE: Negative
INSTRUMENTTYPE: LC-ESI-QQ
INSTRUMENT: 
COLLISIONENERGY: 10
Comment: registered in MassBank
Num Peaks: 7
85.26471	40
168.99831	972
219.03619	325
267.32101	32
368.93271	1000
394.57629	74
412.78619	610

NAME: isoPFOA; LC-ESI-QQ; MS2; CE20eV
PRECURSORMZ: 412.966426
PRECURSORTYPE: [M-H]-
FORMULA: C8HF15O2
Ontology: Medium-chain fatty acids
INCHIKEY: KPBOPOXIOBBZTR-UHFFFAOYSA-N
SMILES: OC(=O)C(F)(F)C(F)(F)C(F)(F)C(F)(F)C(F)(C(F)(F)F)C(F)(F)F
RETENTIONTIME: 
CCS: -1
IONMODE: Negative
INSTRUMENTTYPE: LC-ESI-QQ
INSTRUMENT: 
COLLISIONENERGY: 20
Comment: registered in MassBank
Num Peaks: 6
169.293	1000
218.7464	199
309.10461	282
365.13541	225
380.94479	574
394.5289	334

NAME: isoPFOA; LC-ESI-QQ; MS2; CE30eV
PRECURSORMZ: 412.966426
PRECURSORTYPE: [M-H]-
FORMULA: C8HF15O2
Ontology: Medium-chain fatty acids
INCHIKEY: KPBOPOXIOBBZTR-UHFFFAOYSA-N
SMILES: OC(=O)C(F)(F)C(F)(F)C(F)(F)C(F)(F)C(F)(C(F)(F)F)C(F)(F)F
RETENTIONTIME: 
CCS: -1
IONMODE: Negative
INSTRUMENTTYPE: LC-ESI-QQ
INSTRUMENT: 
COLLISIONENERGY: 30
Comment: registered in MassBank
Num Peaks: 4
73.79611	46
169.1219	1000
219.15379	179
413.02509	245

NAME: isoPFOA; LC-ESI-QQ; MS2; CE40eV
PRECURSORMZ: 412.966426
PRECURSORTYPE: [M-H]-
FORMULA: C8HF15O2
Ontology: Medium-chain fatty acids
INCHIKEY: KPBOPOXIOBBZTR-UHFFFAOYSA-N
SMILES: OC(=O)C(F)(F)C(F)(F)C(F)(F)C(F)(F)C(F)(C(F)(F)F)C(F)(F)F
RETENTIONTIME: 
CCS: -1
IONMODE: Negative
INSTRUMENTTYPE: LC-ESI-QQ
INSTRUMENT: 
COLLISIONENERGY: 40
Comment: registered in MassBank
Num Peaks: 2
169.1938	1000
219.0462	86

NAME: isoPFOA; LC-ESI-QQ; MS2; CE50eV
PRECURSORMZ: 412.966426
PRECURSORTYPE: [M-H]-
FORMULA: C8HF15O2
Ontology: Medium-chain fatty acids
INCHIKEY: KPBOPOXIOBBZTR-UHFFFAOYSA-N
SMILES: OC(=O)C(F)(F)C(F)(F)C(F)(F)C(F)(F)C(F)(C(F)(F)F)C(F)(F)F
RETENTIONTIME: 
CCS: -1
IONMODE: Negative
INSTRUMENTTYPE: LC-ESI-QQ
INSTRUMENT: 
COLLISIONENERGY: 50
Comment: registered in MassBank
Num Peaks: 1
169.1273	1000

NAME: 5mPFOA; LC-ESI-QQ; MS2; CE10eV
PRECURSORMZ: 412.966426
PRECURSORTYPE: [M-H]-
FORMULA: C8HF15O2
Ontology: Medium-chain fatty acids
INCHIKEY: HDWNCRCOUUAYQG-UHFFFAOYNA-N
SMILES: OC(=O)C(F)(F)C(F)(F)C(F)(F)C(F)(C(F)(F)F)C(F)(F)C(F)(F)F
RETENTIONTIME: 
CCS: -1
IONMODE: Negative
INSTRUMENTTYPE: LC-ESI-QQ
INSTRUMENT: 
COLLISIONENERGY: 10
Comment: registered in MassBank
Num Peaks: 7
118.9237	119
169.15871	782
218.90269	1000
278.8009	112
326.5704	74
369.01291	429
413.18839	716

NAME: 5mPFOA; LC-ESI-QQ; MS2; CE20eV
PRECURSORMZ: 412.966426
PRECURSORTYPE: [M-H]-
FORMULA: C8HF15O2
Ontology: Medium-chain fatty acids
INCHIKEY: HDWNCRCOUUAYQG-UHFFFAOYNA-N
SMILES: OC(=O)C(F)(F)C(F)(F)C(F)(F)C(F)(C(F)(F)F)C(F)(F)C(F)(F)F
RETENTIONTIME: 
CCS: -1
IONMODE: Negative
INSTRUMENTTYPE: LC-ESI-QQ
INSTRUMENT: 
COLLISIONENERGY: 20
Comment: registered in MassBank
Num Peaks: 3
118.7701	1000
219.3837	262
412.58569	508

NAME: 5mPFOA; LC-ESI-QQ; MS2; CE30eV
PRECURSORMZ: 412.966426
PRECURSORTYPE: [M-H]-
FORMULA: C8HF15O2
Ontology: Medium-chain fatty acids
INCHIKEY: HDWNCRCOUUAYQG-UHFFFAOYNA-N
SMILES: OC(=O)C(F)(F)C(F)(F)C(F)(F)C(F)(C(F)(F)F)C(F)(F)C(F)(F)F
RETENTIONTIME: 
CCS: -1
IONMODE: Negative
INSTRUMENTTYPE: LC-ESI-QQ
INSTRUMENT: 
COLLISIONENERGY: 30
Comment: registered in MassBank
Num Peaks: 5
78.59713	81
118.784	646
124.6571	103
219.1212	1000
407.19849	98

NAME: 5mPFOA; LC-ESI-QQ; MS2; CE40eV
PRECURSORMZ: 412.966426
PRECURSORTYPE: [M-H]-
FORMULA: C8HF15O2
Ontology: Medium-chain fatty acids
INCHIKEY: HDWNCRCOUUAYQG-UHFFFAOYNA-N
SMILES: OC(=O)C(F)(F)C(F)(F)C(F)(F)C(F)(C(F)(F)F)C(F)(F)C(F)(F)F
RETENTIONTIME: 
CCS: -1
IONMODE: Negative
INSTRUMENTTYPE: LC-ESI-QQ
INSTRUMENT: 
COLLISIONENERGY: 40
Comment: registered in MassBank
Num Peaks: 2
118.7751	1000
194.7014	822

NAME: 5mPFOA; LC-ESI-QQ; MS2; CE50eV
PRECURSORMZ: 412.966426
PRECURSORTYPE: [M-H]-
FORMULA: C8HF15O2
Ontology: Medium-chain fatty acids
INCHIKEY: HDWNCRCOUUAYQG-UHFFFAOYNA-N
SMILES: OC(=O)C(F)(F)C(F)(F)C(F)(F)C(F)(C(F)(F)F)C(F)(F)C(F)(F)F
RETENTIONTIME: 
CCS: -1
IONMODE: Negative
INSTRUMENTTYPE: LC-ESI-QQ
INSTRUMENT: 
COLLISIONENERGY: 50
Comment: registered in MassBank
Num Peaks: 4
69.24717	1000
118.6202	540
128.0771	139
197.01199	156

NAME: 4mPFOA; LC-ESI-QQ; MS2; CE10eV
PRECURSORMZ: 412.966426
PRECURSORTYPE: [M-H]-
FORMULA: C8HF15O2
Ontology: Medium-chain fatty acids
INCHIKEY: RGXLMLZPWKONOH-UHFFFAOYNA-N
SMILES: OC(=O)C(F)(F)C(F)(F)C(F)(C(F)(F)F)C(F)(F)C(F)(F)C(F)(F)F
RETENTIONTIME: 
CCS: -1
IONMODE: Negative
INSTRUMENTTYPE: LC-ESI-QQ
INSTRUMENT: 
COLLISIONENERGY: 10
Comment: registered in MassBank
Num Peaks: 6
118.7025	346
219.2953	470
276.70261	64
369.11249	1000
380.42599	48
412.8916	224

NAME: 4mPFOA; LC-ESI-QQ; MS2; CE20eV
PRECURSORMZ: 412.966426
PRECURSORTYPE: [M-H]-
FORMULA: C8HF15O2
Ontology: Medium-chain fatty acids
INCHIKEY: RGXLMLZPWKONOH-UHFFFAOYNA-N
SMILES: OC(=O)C(F)(F)C(F)(F)C(F)(C(F)(F)F)C(F)(F)C(F)(F)C(F)(F)F
RETENTIONTIME: 
CCS: -1
IONMODE: Negative
INSTRUMENTTYPE: LC-ESI-QQ
INSTRUMENT: 
COLLISIONENERGY: 20
Comment: registered in MassBank
Num Peaks: 5
118.7511	1000
304.83731	139
366.7818	131
368.91989	230
394.6669	254

NAME: 4mPFOA; LC-ESI-QQ; MS2; CE30eV
PRECURSORMZ: 412.966426
PRECURSORTYPE: [M-H]-
FORMULA: C8HF15O2
Ontology: Medium-chain fatty acids
INCHIKEY: RGXLMLZPWKONOH-UHFFFAOYNA-N
SMILES: OC(=O)C(F)(F)C(F)(F)C(F)(C(F)(F)F)C(F)(F)C(F)(F)C(F)(F)F
RETENTIONTIME: 
CCS: -1
IONMODE: Negative
INSTRUMENTTYPE: LC-ESI-QQ
INSTRUMENT: 
COLLISIONENERGY: 30
Comment: registered in MassBank
Num Peaks: 4
118.7885	1000
168.96249	63
218.7928	68
298.85791	138

NAME: 4mPFOA; LC-ESI-QQ; MS2; CE40eV
PRECURSORMZ: 412.966426
PRECURSORTYPE: [M-H]-
FORMULA: C8HF15O2
Ontology: Medium-chain fatty acids
INCHIKEY: RGXLMLZPWKONOH-UHFFFAOYNA-N
SMILES: OC(=O)C(F)(F)C(F)(F)C(F)(C(F)(F)F)C(F)(F)C(F)(F)C(F)(F)F
RETENTIONTIME: 
CCS: -1
IONMODE: Negative
INSTRUMENTTYPE: LC-ESI-QQ
INSTRUMENT: 
COLLISIONENERGY: 40
Comment: registered in MassBank
Num Peaks: 1
118.7474	1000

NAME: 4mPFOA; LC-ESI-QQ; MS2; CE50eV
PRECURSORMZ: 412.966426
PRECURSORTYPE: [M-H]-
FORMULA: C8HF15O2
Ontology: Medium-chain fatty acids
INCHIKEY: RGXLMLZPWKONOH-UHFFFAOYNA-N
SMILES: OC(=O)C(F)(F)C(F)(F)C(F)(C(F)(F)F)C(F)(F)C(F)(F)C(F)(F)F
RETENTIONTIME: 
CCS: -1
IONMODE: Negative
INSTRUMENTTYPE: LC-ESI-QQ
INSTRUMENT: 
COLLISIONENERGY: 50
Comment: registered in MassBank
Num Peaks: 3
68.758	252
118.6235	1000
363.96149	121

NAME: 3mPFOA; LC-ESI-QQ; MS2; CE10eV
PRECURSORMZ: 412.966426
PRECURSORTYPE: [M-H]-
FORMULA: C8HF15O2
Ontology: Medium-chain fatty acids
INCHIKEY: FUGOJSZHPNUCLK-UHFFFAOYNA-N
SMILES: OC(=O)C(F)(F)C(F)(C(F)(F)F)C(F)(F)C(F)(F)C(F)(F)C(F)(F)F
RETENTIONTIME: 
CCS: -1
IONMODE: Negative
INSTRUMENTTYPE: LC-ESI-QQ
INSTRUMENT: 
COLLISIONENERGY: 10
Comment: registered in MassBank
Num Peaks: 4
168.65649	167
218.74651	53
369.06961	1000
412.8978	143

NAME: 3mPFOA; LC-ESI-QQ; MS2; CE20eV
PRECURSORMZ: 412.966426
PRECURSORTYPE: [M-H]-
FORMULA: C8HF15O2
Ontology: Medium-chain fatty acids
INCHIKEY: FUGOJSZHPNUCLK-UHFFFAOYNA-N
SMILES: OC(=O)C(F)(F)C(F)(C(F)(F)F)C(F)(F)C(F)(F)C(F)(F)C(F)(F)F
RETENTIONTIME: 
CCS: -1
IONMODE: Negative
INSTRUMENTTYPE: LC-ESI-QQ
INSTRUMENT: 
COLLISIONENERGY: 20
Comment: registered in MassBank
Num Peaks: 3
168.77431	259
395.1192	174
412.9046	1000

NAME: 3mPFOA; LC-ESI-QQ; MS2; CE30eV
PRECURSORMZ: 412.966426
PRECURSORTYPE: [M-H]-
FORMULA: C8HF15O2
Ontology: Medium-chain fatty acids
INCHIKEY: FUGOJSZHPNUCLK-UHFFFAOYNA-N
SMILES: OC(=O)C(F)(F)C(F)(C(F)(F)F)C(F)(F)C(F)(F)C(F)(F)C(F)(F)F
RETENTIONTIME: 
CCS: -1
IONMODE: Negative
INSTRUMENTTYPE: LC-ESI-QQ
INSTRUMENT: 
COLLISIONENERGY: 30
Comment: registered in MassBank
Num Peaks: 3
107.3163	194
168.7952	1000
280.75409	360

NAME: 3mPFOA; LC-ESI-QQ; MS2; CE40eV
PRECURSORMZ: 412.966426
PRECURSORTYPE: [M-H]-
FORMULA: C8HF15O2
Ontology: Medium-chain fatty acids
INCHIKEY: FUGOJSZHPNUCLK-UHFFFAOYNA-N
SMILES: OC(=O)C(F)(F)C(F)(C(F)(F)F)C(F)(F)C(F)(F)C(F)(F)C(F)(F)F
RETENTIONTIME: 
CCS: -1
IONMODE: Negative
INSTRUMENTTYPE: LC-ESI-QQ
INSTRUMENT: 
COLLISIONENERGY: 40
Comment: registered in MassBank
Num Peaks: 4
188.452	374
218.6143	1000
231.0484	919
372.77451	837

NAME: 44m2PFOA; LC-ESI-QQ; MS2; CE10eV
PRECURSORMZ: 412.966426
PRECURSORTYPE: [M-H]-
FORMULA: C8HF15O2
Ontology: Medium-chain fatty acids
INCHIKEY: UDFRHYDOIIBODA-UHFFFAOYSA-N
SMILES: OC(=O)C(F)(F)C(F)(F)C(C(F)(F)F)(C(F)(F)F)C(F)(F)C(F)(F)F
RETENTIONTIME: 
CCS: -1
IONMODE: Negative
INSTRUMENTTYPE: LC-ESI-QQ
INSTRUMENT: 
COLLISIONENERGY: 10
Comment: registered in MassBank
Num Peaks: 5
118.8754	148
169.19679	625
269.0282	1000
368.7634	601
412.90851	165

NAME: 44m2PFOA; LC-ESI-QQ; MS2; CE20eV
PRECURSORMZ: 412.966426
PRECURSORTYPE: [M-H]-
FORMULA: C8HF15O2
Ontology: Medium-chain fatty acids
INCHIKEY: UDFRHYDOIIBODA-UHFFFAOYSA-N
SMILES: OC(=O)C(F)(F)C(F)(F)C(C(F)(F)F)(C(F)(F)F)C(F)(F)C(F)(F)F
RETENTIONTIME: 
CCS: -1
IONMODE: Negative
INSTRUMENTTYPE: LC-ESI-QQ
INSTRUMENT: 
COLLISIONENERGY: 20
Comment: registered in MassBank
Num Peaks: 6
118.8785	1000
268.9039	557
337.11111	475
368.98691	79
381.07349	715
394.4697	93

NAME: 44m2PFOA; LC-ESI-QQ; MS2; CE30eV
PRECURSORMZ: 412.966426
PRECURSORTYPE: [M-H]-
FORMULA: C8HF15O2
Ontology: Medium-chain fatty acids
INCHIKEY: UDFRHYDOIIBODA-UHFFFAOYSA-N
SMILES: OC(=O)C(F)(F)C(F)(F)C(C(F)(F)F)(C(F)(F)F)C(F)(F)C(F)(F)F
RETENTIONTIME: 
CCS: -1
IONMODE: Negative
INSTRUMENTTYPE: LC-ESI-QQ
INSTRUMENT: 
COLLISIONENERGY: 30
Comment: registered in MassBank
Num Peaks: 5
68.76259	284
118.884	559
168.72279	712
218.8688	164
269.0163	1000

NAME: 44m2PFOA; LC-ESI-QQ; MS2; CE40eV
PRECURSORMZ: 412.966426
PRECURSORTYPE: [M-H]-
FORMULA: C8HF15O2
Ontology: Medium-chain fatty acids
INCHIKEY: UDFRHYDOIIBODA-UHFFFAOYSA-N
SMILES: OC(=O)C(F)(F)C(F)(F)C(C(F)(F)F)(C(F)(F)F)C(F)(F)C(F)(F)F
RETENTIONTIME: 
CCS: -1
IONMODE: Negative
INSTRUMENTTYPE: LC-ESI-QQ
INSTRUMENT: 
COLLISIONENERGY: 40
Comment: registered in MassBank
Num Peaks: 8
68.76335	779
119.167	192
168.86909	316
232.6284	208
269.2486	1000
296.3316	176
320.9501	325
369.0842	306

NAME: 55m2PFOA; LC-ESI-QQ; MS2; CE10eV
PRECURSORMZ: 412.966426
PRECURSORTYPE: [M-H]-
FORMULA: C8HF15O2
Ontology: Medium-chain fatty acids
INCHIKEY: GTHPUDUCLLCPLT-UHFFFAOYSA-N
SMILES: OC(=O)C(F)(F)C(F)(F)C(F)(F)C(C(F)(F)F)(C(F)(F)F)C(F)(F)F
RETENTIONTIME: 
CCS: -1
IONMODE: Negative
INSTRUMENTTYPE: LC-ESI-QQ
INSTRUMENT: 
COLLISIONENERGY: 10
Comment: registered in MassBank
Num Peaks: 4
192.4669	235
218.6785	773
345.16919	119
412.9624	1000

NAME: 55m2PFOA; LC-ESI-QQ; MS2; CE30eV
PRECURSORMZ: 412.966426
PRECURSORTYPE: [M-H]-
FORMULA: C8HF15O2
Ontology: Medium-chain fatty acids
INCHIKEY: GTHPUDUCLLCPLT-UHFFFAOYSA-N
SMILES: OC(=O)C(F)(F)C(F)(F)C(F)(F)C(C(F)(F)F)(C(F)(F)F)C(F)(F)F
RETENTIONTIME: 
CCS: -1
IONMODE: Negative
INSTRUMENTTYPE: LC-ESI-QQ
INSTRUMENT: 
COLLISIONENERGY: 30
Comment: registered in MassBank
Num Peaks: 3
210.5972	174
219.21741	1000
252.5435	234

NAME: 33FTA; LC-ESI-QQ; MS2; CE10; [M-H]-
PRECURSORMZ: 241.0105
PRECURSORTYPE: [M-H]-
FORMULA: C6H5F7O2
Ontology: Medium-chain fatty acids
INCHIKEY: ISFKSWMQWIRDNC-UHFFFAOYSA-N
SMILES: OC(=O)CCC(F)(F)C(F)(F)C(F)(F)F
RETENTIONTIME: 
CCS: -1
IONMODE: Negative
INSTRUMENTTYPE: LC-ESI-QQ
INSTRUMENT: 
COLLISIONENERGY: 10
Comment: registered in MassBank
Num Peaks: 9
62.9995	770
116.9628	41
136.9566	239
156.9856	105
177.03751	1000
177.6864	101
180.9962	17
221.08681	42
241.0703	258

NAME: 33FTA; LC-ESI-QQ; MS2; CE20; [M-H]-
PRECURSORMZ: 241.0105
PRECURSORTYPE: [M-H]-
FORMULA: C6H5F7O2
Ontology: Medium-chain fatty acids
INCHIKEY: ISFKSWMQWIRDNC-UHFFFAOYSA-N
SMILES: OC(=O)CCC(F)(F)C(F)(F)C(F)(F)F
RETENTIONTIME: 
CCS: -1
IONMODE: Negative
INSTRUMENTTYPE: LC-ESI-QQ
INSTRUMENT: 
COLLISIONENERGY: 20
Comment: registered in MassBank
Num Peaks: 18
66.79204	518
67.03638	651
68.80571	59
69.05328	34
80.64985	36
80.91128	127
81.1204	166
104.8954	79
105.2819	40
116.529	64
116.7324	807
116.9648	1000
117.1982	837
124.698	49
130.8167	32
131.1062	42
132.8795	37
137.164	54

NAME: 33FTA; LC-ESI-QQ; MS2; CE30; [M-H]-
PRECURSORMZ: 241.0105
PRECURSORTYPE: [M-H]-
FORMULA: C6H5F7O2
Ontology: Medium-chain fatty acids
INCHIKEY: ISFKSWMQWIRDNC-UHFFFAOYSA-N
SMILES: OC(=O)CCC(F)(F)C(F)(F)C(F)(F)F
RETENTIONTIME: 
CCS: -1
IONMODE: Negative
INSTRUMENTTYPE: LC-ESI-QQ
INSTRUMENT: 
COLLISIONENERGY: 30
Comment: registered in MassBank
Num Peaks: 11
62.31319	56
62.99789	325
116.9664	1000
131.08099	28
133.0298	55
136.955	535
153.0298	22
156.9836	30
168.96519	27
176.9828	18
180.995	40

NAME: 33FTA; LC-ESI-QQ; MS2; CE40; [M-H]-
PRECURSORMZ: 241.0105
PRECURSORTYPE: [M-H]-
FORMULA: C6H5F7O2
Ontology: Medium-chain fatty acids
INCHIKEY: ISFKSWMQWIRDNC-UHFFFAOYSA-N
SMILES: OC(=O)CCC(F)(F)C(F)(F)C(F)(F)F
RETENTIONTIME: 
CCS: -1
IONMODE: Negative
INSTRUMENTTYPE: LC-ESI-QQ
INSTRUMENT: 
COLLISIONENERGY: 40
Comment: registered in MassBank
Num Peaks: 8
63.00381	45
66.97053	22
104.9266	16
116.9665	1000
130.328	15
131.019	52
133.02679	58
137.0638	100

NAME: 33FTA; LC-ESI-QQ; MS2; CE50; [M-H]-
PRECURSORMZ: 241.0105
PRECURSORTYPE: [M-H]-
FORMULA: C6H5F7O2
Ontology: Medium-chain fatty acids
INCHIKEY: ISFKSWMQWIRDNC-UHFFFAOYSA-N
SMILES: OC(=O)CCC(F)(F)C(F)(F)C(F)(F)F
RETENTIONTIME: 
CCS: -1
IONMODE: Negative
INSTRUMENTTYPE: LC-ESI-QQ
INSTRUMENT: 
COLLISIONENERGY: 50
Comment: registered in MassBank
Num Peaks: 6
66.96886	120
104.9257	27
116.9666	1000
131.0192	36
132.9248	29
137.06329	25

NAME: 33FTA; LC-ESI-QQ; MS2; CE60; [M-H]-
PRECURSORMZ: 241.0105
PRECURSORTYPE: [M-H]-
FORMULA: C6H5F7O2
Ontology: Medium-chain fatty acids
INCHIKEY: ISFKSWMQWIRDNC-UHFFFAOYSA-N
SMILES: OC(=O)CCC(F)(F)C(F)(F)C(F)(F)F
RETENTIONTIME: 
CCS: -1
IONMODE: Negative
INSTRUMENTTYPE: LC-ESI-QQ
INSTRUMENT: 
COLLISIONENERGY: 60
Comment: registered in MassBank
Num Peaks: 10
63.00118	15
66.97629	318
69.07732	12
80.97198	42
104.91	44
116.245	34
116.9656	1000
131.06419	45
132.9023	28
136.9451	18

NAME: 53FTA; LC-ESI-QQ; MS2; CE10; [M-H]-
PRECURSORMZ: 341.004113
PRECURSORTYPE: [M-H]-
FORMULA: C8H5F11O2
Ontology: Medium-chain fatty acids
INCHIKEY: ABFCFCPCGMHSRX-UHFFFAOYSA-N
SMILES: OC(=O)CCC(F)(F)C(F)(F)C(F)(F)C(F)(F)C(F)(F)F
RETENTIONTIME: 
CCS: -1
IONMODE: Negative
INSTRUMENTTYPE: LC-ESI-QQ
INSTRUMENT: 
COLLISIONENERGY: 10
Comment: registered in MassBank
Num Peaks: 5
62.93355	130
216.9846	261
237.03571	1000
257.0611	221
341.05869	144

NAME: 53FTA; LC-ESI-QQ; MS2; CE20; [M-H]-
PRECURSORMZ: 341.004113
PRECURSORTYPE: [M-H]-
FORMULA: C8H5F11O2
Ontology: Medium-chain fatty acids
INCHIKEY: ABFCFCPCGMHSRX-UHFFFAOYSA-N
SMILES: OC(=O)CCC(F)(F)C(F)(F)C(F)(F)C(F)(F)C(F)(F)F
RETENTIONTIME: 
CCS: -1
IONMODE: Negative
INSTRUMENTTYPE: LC-ESI-QQ
INSTRUMENT: 
COLLISIONENERGY: 20
Comment: registered in MassBank
Num Peaks: 3
62.92842	36
216.98421	1000
237.036	732

NAME: 53FTA; LC-ESI-QQ; MS2; CE30; [M-H]-
PRECURSORMZ: 341.004113
PRECURSORTYPE: [M-H]-
FORMULA: C8H5F11O2
Ontology: Medium-chain fatty acids
INCHIKEY: ABFCFCPCGMHSRX-UHFFFAOYSA-N
SMILES: OC(=O)CCC(F)(F)C(F)(F)C(F)(F)C(F)(F)C(F)(F)F
RETENTIONTIME: 
CCS: -1
IONMODE: Negative
INSTRUMENTTYPE: LC-ESI-QQ
INSTRUMENT: 
COLLISIONENERGY: 30
Comment: registered in MassBank
Num Peaks: 3
167.06619	76
216.98351	1000
237.0363	68

NAME: 53FTA; LC-ESI-QQ; MS2; CE40; [M-H]-
PRECURSORMZ: 341.004113
PRECURSORTYPE: [M-H]-
FORMULA: C8H5F11O2
Ontology: Medium-chain fatty acids
INCHIKEY: ABFCFCPCGMHSRX-UHFFFAOYSA-N
SMILES: OC(=O)CCC(F)(F)C(F)(F)C(F)(F)C(F)(F)C(F)(F)F
RETENTIONTIME: 
CCS: -1
IONMODE: Negative
INSTRUMENTTYPE: LC-ESI-QQ
INSTRUMENT: 
COLLISIONENERGY: 40
Comment: registered in MassBank
Num Peaks: 8
62.83815	35
97.98643	104
116.9648	63
143.0036	130
147.9639	35
166.9539	551
216.3512	230
216.9841	1000

NAME: 53FTA; LC-ESI-QQ; MS2; CE50; [M-H]-
PRECURSORMZ: 341.004113
PRECURSORTYPE: [M-H]-
FORMULA: C8H5F11O2
Ontology: Medium-chain fatty acids
INCHIKEY: ABFCFCPCGMHSRX-UHFFFAOYSA-N
SMILES: OC(=O)CCC(F)(F)C(F)(F)C(F)(F)C(F)(F)C(F)(F)F
RETENTIONTIME: 
CCS: -1
IONMODE: Negative
INSTRUMENTTYPE: LC-ESI-QQ
INSTRUMENT: 
COLLISIONENERGY: 50
Comment: registered in MassBank
Num Peaks: 13
62.81494	52
68.9714	42
92.82584	180
97.98289	721
116.9631	383
117.6648	32
118.9038	35
143.0014	568
143.6485	57
147.909	98
167.0616	1000
181.1756	34
216.98061	372

NAME: 53FTA; LC-ESI-QQ; MS2; CE60; [M-H]-
PRECURSORMZ: 341.004113
PRECURSORTYPE: [M-H]-
FORMULA: C8H5F11O2
Ontology: Medium-chain fatty acids
INCHIKEY: ABFCFCPCGMHSRX-UHFFFAOYSA-N
SMILES: OC(=O)CCC(F)(F)C(F)(F)C(F)(F)C(F)(F)C(F)(F)F
RETENTIONTIME: 
CCS: -1
IONMODE: Negative
INSTRUMENTTYPE: LC-ESI-QQ
INSTRUMENT: 
COLLISIONENERGY: 60
Comment: registered in MassBank
Num Peaks: 16
62.97524	64
66.98661	67
68.78828	89
92.30122	140
92.83145	413
93.49123	47
97.98078	1000
98.54199	153
113.9744	30
116.9603	515
128.84241	43
142.9986	428
143.6324	49
147.9225	76
167.0611	448
217.0517	120

NAME: 73FTA; LC-ESI-QQ; MS2; CE10; [M-H]-
PRECURSORMZ: 440.997726
PRECURSORTYPE: [M-H]-
FORMULA: C10H5F15O2
Ontology: Medium-chain fatty acids
INCHIKEY: HLBRGVKRZQSQHB-UHFFFAOYSA-N
SMILES: OC(=O)CCC(F)(F)C(F)(F)C(F)(F)C(F)(F)C(F)(F)C(F)(F)C(F)(F)F
RETENTIONTIME: 
CCS: -1
IONMODE: Negative
INSTRUMENTTYPE: LC-ESI-QQ
INSTRUMENT: 
COLLISIONENERGY: 10
Comment: registered in MassBank
Num Peaks: 5
62.94361	69
317.02701	320
337.00769	1000
357.0947	85
441.01419	256

NAME: 73FTA; LC-ESI-QQ; MS2; CE20; [M-H]-
PRECURSORMZ: 440.997726
PRECURSORTYPE: [M-H]-
FORMULA: C10H5F15O2
Ontology: Medium-chain fatty acids
INCHIKEY: HLBRGVKRZQSQHB-UHFFFAOYSA-N
SMILES: OC(=O)CCC(F)(F)C(F)(F)C(F)(F)C(F)(F)C(F)(F)C(F)(F)C(F)(F)F
RETENTIONTIME: 
CCS: -1
IONMODE: Negative
INSTRUMENTTYPE: LC-ESI-QQ
INSTRUMENT: 
COLLISIONENERGY: 20
Comment: registered in MassBank
Num Peaks: 10
266.8869	61
267.12659	61
316.80011	733
317.03351	1000
317.25839	619
317.48141	51
336.7446	171
336.94669	425
337.18451	395
337.3912	81

NAME: 73FTA; LC-ESI-QQ; MS2; CE30; [M-H]-
PRECURSORMZ: 440.997726
PRECURSORTYPE: [M-H]-
FORMULA: C10H5F15O2
Ontology: Medium-chain fatty acids
INCHIKEY: HLBRGVKRZQSQHB-UHFFFAOYSA-N
SMILES: OC(=O)CCC(F)(F)C(F)(F)C(F)(F)C(F)(F)C(F)(F)C(F)(F)C(F)(F)F
RETENTIONTIME: 
CCS: -1
IONMODE: Negative
INSTRUMENTTYPE: LC-ESI-QQ
INSTRUMENT: 
COLLISIONENERGY: 30
Comment: registered in MassBank
Num Peaks: 4
167.1111	31
267.01361	484
317.0275	1000
337.0007	48

NAME: 73FTA; LC-ESI-QQ; MS2; CE40; [M-H]-
PRECURSORMZ: 440.997726
PRECURSORTYPE: [M-H]-
FORMULA: C10H5F15O2
Ontology: Medium-chain fatty acids
INCHIKEY: HLBRGVKRZQSQHB-UHFFFAOYSA-N
SMILES: OC(=O)CCC(F)(F)C(F)(F)C(F)(F)C(F)(F)C(F)(F)C(F)(F)C(F)(F)F
RETENTIONTIME: 
CCS: -1
IONMODE: Negative
INSTRUMENTTYPE: LC-ESI-QQ
INSTRUMENT: 
COLLISIONENERGY: 40
Comment: registered in MassBank
Num Peaks: 3
198.11099	139
267.0014	1000
317.0322	571

NAME: 73FTA; LC-ESI-QQ; MS2; CE50; [M-H]-
PRECURSORMZ: 440.997726
PRECURSORTYPE: [M-H]-
FORMULA: C10H5F15O2
Ontology: Medium-chain fatty acids
INCHIKEY: HLBRGVKRZQSQHB-UHFFFAOYSA-N
SMILES: OC(=O)CCC(F)(F)C(F)(F)C(F)(F)C(F)(F)C(F)(F)C(F)(F)C(F)(F)F
RETENTIONTIME: 
CCS: -1
IONMODE: Negative
INSTRUMENTTYPE: LC-ESI-QQ
INSTRUMENT: 
COLLISIONENERGY: 50
Comment: registered in MassBank
Num Peaks: 31
62.98675	110
67.1128	31
68.96977	76
93.05382	264
97.92001	293
98.60091	32
104.9281	55
117.0707	191
118.9657	74
128.6214	43
130.9025	79
142.7735	81
147.965	417
154.91209	133
166.28661	51
167.00481	170
168.9061	65
178.84241	122
185.9162	96
193.0311	91
197.8945	358
204.9406	98
217.0435	365
217.6705	52
228.94749	57
236.1544	31
242.99969	238
247.8568	151
266.9541	1000
281.11899	36
317.03448	292

NAME: 73FTA; LC-ESI-QQ; MS2; CE60; [M-H]-
PRECURSORMZ: 440.997726
PRECURSORTYPE: [M-H]-
FORMULA: C10H5F15O2
Ontology: Medium-chain fatty acids
INCHIKEY: HLBRGVKRZQSQHB-UHFFFAOYSA-N
SMILES: OC(=O)CCC(F)(F)C(F)(F)C(F)(F)C(F)(F)C(F)(F)C(F)(F)C(F)(F)F
RETENTIONTIME: 
CCS: -1
IONMODE: Negative
INSTRUMENTTYPE: LC-ESI-QQ
INSTRUMENT: 
COLLISIONENERGY: 60
Comment: registered in MassBank
Num Peaks: 34
63.04607	152
63.52859	43
67.04987	89
69.04103	131
80.80806	50
92.94463	400
97.92152	721
98.48966	133
104.9251	57
113.9634	79
116.8856	293
118.809	122
129.05251	151
130.89619	93
135.9339	51
142.90981	159
147.9624	1000
154.39819	63
154.9193	175
167.0029	229
168.84129	172
178.9865	179
186.0732	97
192.9868	273
198.1284	435
204.8078	96
213.8313	39
216.983	506
229.2007	97
243.0704	306
248.21111	198
267.0679	381
316.25009	38
317.18561	208

NAME: 62FTA; LC-ESI-QQ; MS2; CE10; [M-H]-
PRECURSORMZ: 376.98527
PRECURSORTYPE: [M-H]-
FORMULA: C8H3F13O2
Ontology: Medium-chain fatty acids
INCHIKEY: LRWIIEJPCFNNCZ-UHFFFAOYSA-N
SMILES: OC(=O)CC(F)(F)C(F)(F)C(F)(F)C(F)(F)C(F)(F)C(F)(F)F
RETENTIONTIME: 
CCS: -1
IONMODE: Negative
INSTRUMENTTYPE: LC-ESI-QQ
INSTRUMENT: 
COLLISIONENERGY: 10
Comment: registered in MassBank
Num Peaks: 10
62.99211	399
64.67978	32
213.03439	51
265.0174	39
292.9653	1000
295.16959	65
309.00211	54
313.06369	354
333.1402	73
377.0701	206

NAME: 62FTA; LC-ESI-QQ; MS2; CE20; [M-H]-
PRECURSORMZ: 376.98527
PRECURSORTYPE: [M-H]-
FORMULA: C8H3F13O2
Ontology: Medium-chain fatty acids
INCHIKEY: LRWIIEJPCFNNCZ-UHFFFAOYSA-N
SMILES: OC(=O)CC(F)(F)C(F)(F)C(F)(F)C(F)(F)C(F)(F)C(F)(F)F
RETENTIONTIME: 
CCS: -1
IONMODE: Negative
INSTRUMENTTYPE: LC-ESI-QQ
INSTRUMENT: 
COLLISIONENERGY: 20
Comment: registered in MassBank
Num Peaks: 8
62.99708	230
92.79106	59
131.088	59
143.1019	43
227.1145	36
243.0132	120
289.02991	43
292.90271	1000

NAME: 62FTA; LC-ESI-QQ; MS2; CE30; [M-H]-
PRECURSORMZ: 376.98527
PRECURSORTYPE: [M-H]-
FORMULA: C8H3F13O2
Ontology: Medium-chain fatty acids
INCHIKEY: LRWIIEJPCFNNCZ-UHFFFAOYSA-N
SMILES: OC(=O)CC(F)(F)C(F)(F)C(F)(F)C(F)(F)C(F)(F)C(F)(F)F
RETENTIONTIME: 
CCS: -1
IONMODE: Negative
INSTRUMENTTYPE: LC-ESI-QQ
INSTRUMENT: 
COLLISIONENERGY: 30
Comment: registered in MassBank
Num Peaks: 17
59.13954	31
63.01336	308
68.80234	59
89.05872	74
92.9659	295
103.0911	43
115.1621	39
118.9541	55
131.0968	151
143.0117	275
158.90581	32
159.1969	43
192.9268	35
205.3374	34
219.2838	42
242.99541	434
293.03601	1000

NAME: 62FTA; LC-ESI-QQ; MS2; CE40; [M-H]-
PRECURSORMZ: 376.98527
PRECURSORTYPE: [M-H]-
FORMULA: C8H3F13O2
Ontology: Medium-chain fatty acids
INCHIKEY: LRWIIEJPCFNNCZ-UHFFFAOYSA-N
SMILES: OC(=O)CC(F)(F)C(F)(F)C(F)(F)C(F)(F)C(F)(F)C(F)(F)F
RETENTIONTIME: 
CCS: -1
IONMODE: Negative
INSTRUMENTTYPE: LC-ESI-QQ
INSTRUMENT: 
COLLISIONENERGY: 40
Comment: registered in MassBank
Num Peaks: 18
62.98295	170
68.86037	119
74.06646	81
88.98184	52
92.91526	400
100.1477	46
102.8232	55
119.171	86
124.2837	57
131.0686	121
143.11971	354
143.62219	62
169.14149	46
170.7276	31
192.8295	118
212.9361	31
243.0825	646
293.16721	1000

NAME: 62FTA; LC-ESI-QQ; MS2; CE50; [M-H]-
PRECURSORMZ: 376.98527
PRECURSORTYPE: [M-H]-
FORMULA: C8H3F13O2
Ontology: Medium-chain fatty acids
INCHIKEY: LRWIIEJPCFNNCZ-UHFFFAOYSA-N
SMILES: OC(=O)CC(F)(F)C(F)(F)C(F)(F)C(F)(F)C(F)(F)C(F)(F)F
RETENTIONTIME: 
CCS: -1
IONMODE: Negative
INSTRUMENTTYPE: LC-ESI-QQ
INSTRUMENT: 
COLLISIONENERGY: 50
Comment: registered in MassBank
Num Peaks: 19
62.98169	132
69.01611	218
73.87749	104
80.8865	63
93.02114	1000
107.0577	51
114.9964	63
118.722	128
142.912	263
168.9198	138
169.1965	180
173.40379	72
174.02209	210
188.8759	52
192.3871	142
192.9321	405
242.99921	546
278.302	66
293.22089	281

NAME: 62FTA; LC-ESI-QQ; MS2; CE60; [M-H]-
PRECURSORMZ: 376.98527
PRECURSORTYPE: [M-H]-
FORMULA: C8H3F13O2
Ontology: Medium-chain fatty acids
INCHIKEY: LRWIIEJPCFNNCZ-UHFFFAOYSA-N
SMILES: OC(=O)CC(F)(F)C(F)(F)C(F)(F)C(F)(F)C(F)(F)C(F)(F)F
RETENTIONTIME: 
CCS: -1
IONMODE: Negative
INSTRUMENTTYPE: LC-ESI-QQ
INSTRUMENT: 
COLLISIONENERGY: 60
Comment: registered in MassBank
Num Peaks: 18
63.16149	255
63.43397	97
68.72826	239
68.99741	139
74.06612	131
92.29543	231
92.95319	1000
99.62944	88
109.1653	95
121.1594	172
121.4635	71
124.0372	116
142.8475	205
166.6897	80
192.8504	796
242.9118	377
254.6523	78
286.82281	183

NAME: 62FTA; LC-ESI-QQ; MS2; CE10; [M-H-CO2-2HF]-
PRECURSORMZ: 292.982984
PRECURSORTYPE: [M-H-CO2-2HF]-
FORMULA: C8H3F13O2
Ontology: Medium-chain fatty acids
INCHIKEY: LRWIIEJPCFNNCZ-UHFFFAOYSA-N
SMILES: OC(=O)CC(F)(F)C(F)(F)C(F)(F)C(F)(F)C(F)(F)C(F)(F)F
RETENTIONTIME: 
CCS: -1
IONMODE: Negative
INSTRUMENTTYPE: LC-ESI-QQ
INSTRUMENT: 
COLLISIONENERGY: 10
Comment: registered in MassBank
Num Peaks: 4
130.9552	10
142.93159	10
243.0099	17
293.0657	1000

NAME: 62FTA; LC-ESI-QQ; MS2; CE20; [M-H-CO2-2HF]-
PRECURSORMZ: 292.982984
PRECURSORTYPE: [M-H-CO2-2HF]-
FORMULA: C8H3F13O2
Ontology: Medium-chain fatty acids
INCHIKEY: LRWIIEJPCFNNCZ-UHFFFAOYSA-N
SMILES: OC(=O)CC(F)(F)C(F)(F)C(F)(F)C(F)(F)C(F)(F)C(F)(F)F
RETENTIONTIME: 
CCS: -1
IONMODE: Negative
INSTRUMENTTYPE: LC-ESI-QQ
INSTRUMENT: 
COLLISIONENERGY: 20
Comment: registered in MassBank
Num Peaks: 15
68.83891	42
85.08015	14
88.9966	11
92.94004	83
118.9636	31
130.3136	17
130.9623	59
142.31039	24
143.0132	101
180.9821	19
193.08591	20
219.0222	27
242.3046	34
243.0128	195
292.99759	1000

NAME: 62FTA; LC-ESI-QQ; MS2; CE30; [M-H-CO2-2HF]-
PRECURSORMZ: 292.982984
PRECURSORTYPE: [M-H-CO2-2HF]-
FORMULA: C8H3F13O2
Ontology: Medium-chain fatty acids
INCHIKEY: LRWIIEJPCFNNCZ-UHFFFAOYSA-N
SMILES: OC(=O)CC(F)(F)C(F)(F)C(F)(F)C(F)(F)C(F)(F)C(F)(F)F
RETENTIONTIME: 
CCS: -1
IONMODE: Negative
INSTRUMENTTYPE: LC-ESI-QQ
INSTRUMENT: 
COLLISIONENERGY: 30
Comment: registered in MassBank
Num Peaks: 25
55.01152	56
69.02818	322
73.93256	259
74.57969	40
85.0435	131
89.15973	91
92.9415	993
96.87264	66
102.7514	34
103.0487	64
119.1031	259
122.9471	37
123.8756	165
130.3251	127
130.9438	425
136.90891	55
142.9525	694
152.9194	33
154.9471	67
168.99319	257
193.0092	372
243.00929	1000
275.23541	87
292.50491	204
293.06009	486

NAME: 62FTA; LC-ESI-QQ; MS2; CE40; [M-H-CO2-2HF]-
PRECURSORMZ: 292.982984
PRECURSORTYPE: [M-H-CO2-2HF]-
FORMULA: C8H3F13O2
Ontology: Medium-chain fatty acids
INCHIKEY: LRWIIEJPCFNNCZ-UHFFFAOYSA-N
SMILES: OC(=O)CC(F)(F)C(F)(F)C(F)(F)C(F)(F)C(F)(F)C(F)(F)F
RETENTIONTIME: 
CCS: -1
IONMODE: Negative
INSTRUMENTTYPE: LC-ESI-QQ
INSTRUMENT: 
COLLISIONENERGY: 40
Comment: registered in MassBank
Num Peaks: 19
54.9628	81
69.0395	495
73.41191	163
73.94453	478
86.79901	57
88.99806	57
92.31447	271
92.94249	1000
96.88207	58
118.9904	147
123.8695	187
131.0361	196
137.1265	70
142.9498	522
152.8746	93
168.9872	133
193.0162	395
243.0713	310
293.18109	113

NAME: 62FTA; LC-ESI-QQ; MS2; CE50; [M-H-CO2-2HF]-
PRECURSORMZ: 292.982984
PRECURSORTYPE: [M-H-CO2-2HF]-
FORMULA: C8H3F13O2
Ontology: Medium-chain fatty acids
INCHIKEY: LRWIIEJPCFNNCZ-UHFFFAOYSA-N
SMILES: OC(=O)CC(F)(F)C(F)(F)C(F)(F)C(F)(F)C(F)(F)C(F)(F)F
RETENTIONTIME: 
CCS: -1
IONMODE: Negative
INSTRUMENTTYPE: LC-ESI-QQ
INSTRUMENT: 
COLLISIONENERGY: 50
Comment: registered in MassBank
Num Peaks: 14
68.95413	615
74.05028	609
92.24997	316
92.82108	1000
118.8655	148
124.0985	150
135.8432	109
142.9485	531
152.69209	80
193.00259	333
205.1727	78
243.2403	129
256.81009	85
291.94971	83

NAME: 62FTA; LC-ESI-QQ; MS2; CE60; [M-H-CO2-2HF]-
PRECURSORMZ: 292.982984
PRECURSORTYPE: [M-H-CO2-2HF]-
FORMULA: C8H3F13O2
Ontology: Medium-chain fatty acids
INCHIKEY: LRWIIEJPCFNNCZ-UHFFFAOYSA-N
SMILES: OC(=O)CC(F)(F)C(F)(F)C(F)(F)C(F)(F)C(F)(F)C(F)(F)F
RETENTIONTIME: 
CCS: -1
IONMODE: Negative
INSTRUMENTTYPE: LC-ESI-QQ
INSTRUMENT: 
COLLISIONENERGY: 60
Comment: registered in MassBank
Num Peaks: 13
69.05432	536
73.82376	677
92.28706	272
92.92023	1000
105.0407	59
119.0099	113
120.8445	77
124.0544	362
136.10451	70
136.9136	82
143.0826	178
152.2202	57
244.10001	63

NAME: 82FTA; LC-ESI-QQ; MS2; CE10; [M-H]-
PRECURSORMZ: 476.978882
PRECURSORTYPE: [M-H]-
FORMULA: C10H3F17O2
Ontology: Medium-chain fatty acids
INCHIKEY: XTBXSCIWOVSSGB-UHFFFAOYSA-N
SMILES: OC(=O)CC(F)(F)C(F)(F)C(F)(F)C(F)(F)C(F)(F)C(F)(F)C(F)(F)C(F)(F)F
RETENTIONTIME: 
CCS: -1
IONMODE: Negative
INSTRUMENTTYPE: LC-ESI-QQ
INSTRUMENT: 
COLLISIONENERGY: 10
Comment: registered in MassBank
Num Peaks: 15
61.54502	46
61.82648	74
62.82321	653
67.44986	74
293.06009	41
312.93439	64
327.12509	44
392.38089	292
392.99789	1000
394.995	45
408.8692	46
413.07239	373
419.05911	31
433.09961	140
477.0177	554

NAME: 82FTA; LC-ESI-QQ; MS2; CE20; [M-H]-
PRECURSORMZ: 476.978882
PRECURSORTYPE: [M-H]-
FORMULA: C10H3F17O2
Ontology: Medium-chain fatty acids
INCHIKEY: XTBXSCIWOVSSGB-UHFFFAOYSA-N
SMILES: OC(=O)CC(F)(F)C(F)(F)C(F)(F)C(F)(F)C(F)(F)C(F)(F)C(F)(F)C(F)(F)F
RETENTIONTIME: 
CCS: -1
IONMODE: Negative
INSTRUMENTTYPE: LC-ESI-QQ
INSTRUMENT: 
COLLISIONENERGY: 20
Comment: registered in MassBank
Num Peaks: 16
62.99171	378
130.9054	38
147.0121	71
168.8331	81
180.7182	31
192.9176	206
243.0096	348
283.24451	31
296.96011	50
313.03961	63
317.00729	78
321.10309	35
323.87079	111
343.09161	77
393.0148	1000
394.78421	35

NAME: 82FTA; LC-ESI-QQ; MS2; CE30; [M-H]-
PRECURSORMZ: 476.978882
PRECURSORTYPE: [M-H]-
FORMULA: C10H3F17O2
Ontology: Medium-chain fatty acids
INCHIKEY: XTBXSCIWOVSSGB-UHFFFAOYSA-N
SMILES: OC(=O)CC(F)(F)C(F)(F)C(F)(F)C(F)(F)C(F)(F)C(F)(F)C(F)(F)C(F)(F)F
RETENTIONTIME: 
CCS: -1
IONMODE: Negative
INSTRUMENTTYPE: LC-ESI-QQ
INSTRUMENT: 
COLLISIONENERGY: 30
Comment: registered in MassBank
Num Peaks: 23
62.296	32
62.97507	403
68.79694	57
89.14687	92
92.83491	41
102.8138	44
118.7947	137
153.0882	39
169.0545	126
170.7218	38
181.0235	100
192.814	179
200.92751	32
216.86	31
223.1665	41
239.18961	38
243.0733	491
254.96001	106
324.25189	281
324.67221	48
343.1351	180
393.17929	1000
429.07211	37

NAME: 82FTA; LC-ESI-QQ; MS2; CE40; [M-H]-
PRECURSORMZ: 476.978882
PRECURSORTYPE: [M-H]-
FORMULA: C10H3F17O2
Ontology: Medium-chain fatty acids
INCHIKEY: XTBXSCIWOVSSGB-UHFFFAOYSA-N
SMILES: OC(=O)CC(F)(F)C(F)(F)C(F)(F)C(F)(F)C(F)(F)C(F)(F)C(F)(F)C(F)(F)F
RETENTIONTIME: 
CCS: -1
IONMODE: Negative
INSTRUMENTTYPE: LC-ESI-QQ
INSTRUMENT: 
COLLISIONENERGY: 40
Comment: registered in MassBank
Num Peaks: 24
63.00485	430
68.78893	133
89.12248	119
92.89522	289
118.9294	607
126.7092	83
130.82359	252
142.8031	102
168.8985	192
170.7312	231
192.9379	505
201.254	66
204.8748	73
210.8251	142
211.1147	74
242.9538	713
247.1086	89
254.9559	558
259.04031	56
274.10641	96
292.86871	68
331.16211	63
342.95309	444
393.0686	1000

NAME: 82FTA; LC-ESI-QQ; MS2; CE50; [M-H]-
PRECURSORMZ: 476.978882
PRECURSORTYPE: [M-H]-
FORMULA: C10H3F17O2
Ontology: Medium-chain fatty acids
INCHIKEY: XTBXSCIWOVSSGB-UHFFFAOYSA-N
SMILES: OC(=O)CC(F)(F)C(F)(F)C(F)(F)C(F)(F)C(F)(F)C(F)(F)C(F)(F)C(F)(F)F
RETENTIONTIME: 
CCS: -1
IONMODE: Negative
INSTRUMENTTYPE: LC-ESI-QQ
INSTRUMENT: 
COLLISIONENERGY: 50
Comment: registered in MassBank
Num Peaks: 22
63.03778	299
69.10832	619
92.31037	301
92.96045	1000
94.7973	309
102.7594	137
118.7406	872
131.2415	219
142.8941	288
160.9986	128
168.8896	442
179.0672	268
188.088	134
193.1633	518
215.15331	102
243.4202	216
247.0128	140
254.94501	768
293.17761	600
329.68729	119
343.2778	418
393.0773	819

NAME: 82FTA; LC-ESI-QQ; MS2; CE60; [M-H]-
PRECURSORMZ: 476.978882
PRECURSORTYPE: [M-H]-
FORMULA: C10H3F17O2
Ontology: Medium-chain fatty acids
INCHIKEY: XTBXSCIWOVSSGB-UHFFFAOYSA-N
SMILES: OC(=O)CC(F)(F)C(F)(F)C(F)(F)C(F)(F)C(F)(F)C(F)(F)C(F)(F)C(F)(F)F
RETENTIONTIME: 
CCS: -1
IONMODE: Negative
INSTRUMENTTYPE: LC-ESI-QQ
INSTRUMENT: 
COLLISIONENERGY: 60
Comment: registered in MassBank
Num Peaks: 25
63.03017	307
69.0215	305
73.81596	451
88.94379	257
92.93669	1000
94.69463	182
104.8311	109
118.7921	714
124.1824	549
124.4519	182
130.7556	114
137.0988	371
142.978	360
154.9576	139
156.8271	166
158.6925	171
168.7963	135
193.1044	201
243.235	346
244.8894	111
251.0668	119
293.1059	673
303.89429	232
343.04489	158
393.18549	158

NAME: 102FTA; LC-ESI-QQ; MS2; CE10; [M-H]-
PRECURSORMZ: 576.972495
PRECURSORTYPE: [M-H]-
FORMULA: C12H3F21O2
Ontology: Medium-chain fatty acids
INCHIKEY: IKHNVATUHWDNGI-UHFFFAOYSA-N
SMILES: OC(=O)CC(F)(F)C(F)(F)C(F)(F)C(F)(F)C(F)(F)C(F)(F)C(F)(F)C(F)(F)C(F)(F)C(F)(F)F
RETENTIONTIME: 
CCS: -1
IONMODE: Negative
INSTRUMENTTYPE: LC-ESI-QQ
INSTRUMENT: 
COLLISIONENERGY: 10
Comment: registered in MassBank
Num Peaks: 12
62.8424	596
169.0132	79
342.85101	56
392.93311	56
464.8038	52
465.08499	82
492.36389	360
492.8869	1000
512.88702	752
530.66022	56
532.8736	203
577.15253	531

NAME: 102FTA; LC-ESI-QQ; MS2; CE20; [M-H]-
PRECURSORMZ: 576.972495
PRECURSORTYPE: [M-H]-
FORMULA: C12H3F21O2
Ontology: Medium-chain fatty acids
INCHIKEY: IKHNVATUHWDNGI-UHFFFAOYSA-N
SMILES: OC(=O)CC(F)(F)C(F)(F)C(F)(F)C(F)(F)C(F)(F)C(F)(F)C(F)(F)C(F)(F)C(F)(F)C(F)(F)F
RETENTIONTIME: 
CCS: -1
IONMODE: Negative
INSTRUMENTTYPE: LC-ESI-QQ
INSTRUMENT: 
COLLISIONENERGY: 20
Comment: registered in MassBank
Num Peaks: 13
62.3565	171
62.8623	540
168.3999	127
168.8813	304
180.72951	58
218.7438	77
231.26131	145
242.98779	101
277.09079	60
292.91809	458
343.10849	527
374.2117	56
492.96631	1000

NAME: 102FTA; LC-ESI-QQ; MS2; CE30; [M-H]-
PRECURSORMZ: 576.972495
PRECURSORTYPE: [M-H]-
FORMULA: C12H3F21O2
Ontology: Medium-chain fatty acids
INCHIKEY: IKHNVATUHWDNGI-UHFFFAOYSA-N
SMILES: OC(=O)CC(F)(F)C(F)(F)C(F)(F)C(F)(F)C(F)(F)C(F)(F)C(F)(F)C(F)(F)C(F)(F)C(F)(F)F
RETENTIONTIME: 
CCS: -1
IONMODE: Negative
INSTRUMENTTYPE: LC-ESI-QQ
INSTRUMENT: 
COLLISIONENERGY: 30
Comment: registered in MassBank
Num Peaks: 16
62.80259	456
150.54021	123
169.1563	58
192.8806	60
231.24071	91
234.69991	54
235.29761	62
242.4176	143
242.92281	377
292.87079	583
305.21091	61
343.21271	273
373.96671	191
392.78079	127
393.05521	144
492.96741	1000

NAME: 102FTA; LC-ESI-QQ; MS2; CE40; [M-H]-
PRECURSORMZ: 576.972495
PRECURSORTYPE: [M-H]-
FORMULA: C12H3F21O2
Ontology: Medium-chain fatty acids
INCHIKEY: IKHNVATUHWDNGI-UHFFFAOYSA-N
SMILES: OC(=O)CC(F)(F)C(F)(F)C(F)(F)C(F)(F)C(F)(F)C(F)(F)C(F)(F)C(F)(F)C(F)(F)C(F)(F)F
RETENTIONTIME: 
CCS: -1
IONMODE: Negative
INSTRUMENTTYPE: LC-ESI-QQ
INSTRUMENT: 
COLLISIONENERGY: 40
Comment: registered in MassBank
Num Peaks: 21
63.02803	628
92.74593	57
119.207	121
154.09801	53
169.27541	93
181.0295	271
192.9697	209
204.8306	123
211.09731	87
218.79919	85
224.0047	57
242.98891	552
255.0573	68
259.84491	51
293.02441	642
304.78641	70
323.61661	158
342.82932	161
443.16391	120
493.05151	1000
493.811	178

NAME: 102FTA; LC-ESI-QQ; MS2; CE50; [M-H]-
PRECURSORMZ: 576.972495
PRECURSORTYPE: [M-H]-
FORMULA: C12H3F21O2
Ontology: Medium-chain fatty acids
INCHIKEY: IKHNVATUHWDNGI-UHFFFAOYSA-N
SMILES: OC(=O)CC(F)(F)C(F)(F)C(F)(F)C(F)(F)C(F)(F)C(F)(F)C(F)(F)C(F)(F)C(F)(F)C(F)(F)F
RETENTIONTIME: 
CCS: -1
IONMODE: Negative
INSTRUMENTTYPE: LC-ESI-QQ
INSTRUMENT: 
COLLISIONENERGY: 50
Comment: registered in MassBank
Num Peaks: 31
62.84626	454
68.96032	175
92.98238	277
118.9698	465
141.0504	251
143.1321	237
147.1311	208
147.3985	82
168.7756	182
170.67081	208
180.6884	109
192.86011	485
205.02499	135
218.7971	92
243.01669	1000
245.1143	299
246.8132	240
292.71121	417
305.06091	231
305.39319	361
337.63019	80
342.72461	221
355.1189	157
442.85849	337
457.83691	85
488.1806	88
492.56531	111
493.06281	362
506.44241	81
533.49188	80
564.54169	73

NAME: 102FTA; LC-ESI-QQ; MS2; CE60; [M-H]-
PRECURSORMZ: 576.972495
PRECURSORTYPE: [M-H]-
FORMULA: C12H3F21O2
Ontology: Medium-chain fatty acids
INCHIKEY: IKHNVATUHWDNGI-UHFFFAOYSA-N
SMILES: OC(=O)CC(F)(F)C(F)(F)C(F)(F)C(F)(F)C(F)(F)C(F)(F)C(F)(F)C(F)(F)C(F)(F)C(F)(F)F
RETENTIONTIME: 
CCS: -1
IONMODE: Negative
INSTRUMENTTYPE: LC-ESI-QQ
INSTRUMENT: 
COLLISIONENERGY: 60
Comment: registered in MassBank
Num Peaks: 20
62.96971	437
63.24256	144
92.72081	831
94.96824	114
98.97224	153
119.1392	298
131.0674	533
131.3609	191
168.8743	87
170.56081	82
184.9895	135
192.9794	1000
204.7773	301
205.00349	289
242.7533	598
246.7999	88
255.12379	175
308.004	172
492.55161	87
519.37042	93

NAME: Gibberellin A1; LC-ESI-QQ; MS2; CE
PRECURSORMZ: 347.150012
PRECURSORTYPE: [M-H]-
FORMULA: C19H24O6
Ontology: C19-gibberellin 6-carboxylic acids
INCHIKEY: JLJLRLWOEMWYQK-OBDJNFEBSA-N
SMILES: C[C@]12[C@H]3[C@H](C(O)=O)[C@@]45CC(=C)[C@@](O)(C4)CC[C@H]5[C@@]3(CC[C@@H]1O)OC2=O
RETENTIONTIME: 
CCS: 184.6827817
IONMODE: Negative
INSTRUMENTTYPE: LC-ESI-QQ
INSTRUMENT: 
COLLISIONENERGY: 10.0
Comment: registered in MassBank
Num Peaks: 3
241.006	21
346.478	44
347.039	1000

NAME: Gibberellin A1; LC-ESI-QQ; MS2; CE
PRECURSORMZ: 347.150012
PRECURSORTYPE: [M-H]-
FORMULA: C19H24O6
Ontology: C19-gibberellin 6-carboxylic acids
INCHIKEY: JLJLRLWOEMWYQK-OBDJNFEBSA-N
SMILES: C[C@]12[C@H]3[C@H](C(O)=O)[C@@]45CC(=C)[C@@](O)(C4)CC[C@H]5[C@@]3(CC[C@@H]1O)OC2=O
RETENTIONTIME: 
CCS: 184.6827817
IONMODE: Negative
INSTRUMENTTYPE: LC-ESI-QQ
INSTRUMENT: 
COLLISIONENERGY: 20.0
Comment: registered in MassBank
Num Peaks: 32
73.072	18
144.95599	87
172.929	44
184.647	10
185.601	15
198.752	49
201.395	11
202.836	25
215.16499	18
228.789	103
229.619	51
238.86	12
240.517	10
241.062	180
241.69701	25
256.95099	27
258.435	20
259.09698	238
259.66101	14
267.07999	12
272.44699	27
273.03299	308
284.51401	15
285.13101	192
300.664	32
301.53201	10
303.03601	163
303.62701	17
328.466	52
329.125	150
346.327	61
347.052	1000

NAME: Gibberellin A1; LC-ESI-QQ; MS2; CE
PRECURSORMZ: 347.150012
PRECURSORTYPE: [M-H]-
FORMULA: C19H24O6
Ontology: C19-gibberellin 6-carboxylic acids
INCHIKEY: JLJLRLWOEMWYQK-OBDJNFEBSA-N
SMILES: C[C@]12[C@H]3[C@H](C(O)=O)[C@@]45CC(=C)[C@@](O)(C4)CC[C@H]5[C@@]3(CC[C@@H]1O)OC2=O
RETENTIONTIME: 
CCS: 184.6827817
IONMODE: Negative
INSTRUMENTTYPE: LC-ESI-QQ
INSTRUMENT: 
COLLISIONENERGY: 30.0
Comment: registered in MassBank
Num Peaks: 80
52.957	14
68.727	44
70.908	53
72.632	88
73.227	35
82.799	138
92.908	13
94.359	30
98.884	20
105.172	34
106.887	12
108.436	26
109.139	10
118.664	20
127.601	17
132.452	56
136.179	11
137.287	26
143.38901	13
144.49699	107
145.035	460
148.812	16
156.923	213
157.485	42
160.35899	17
161.11099	48
162.651	72
169.02699	61
170.952	91
172.418	56
173.05299	213
177.369	32
180.95	28
184.573	20
185.09399	250
188.51601	78
189.367	35
191.42999	19
197.38699	45
198.76601	138
199.72	212
200.754	92
201.521	61
203.033	76
203.62199	10
210.961	73
212.825	150
217.541	14
220.853	45
223.252	20
225.103	17
228.563	484
229.23801	1000
232.91701	11
236.776	20
239.19	30
240.285	22
241.437	197
244.75301	41
247.69	29
255.13499	21
256.60101	87
257.535	27
258.603	14
259.24301	117
260.41699	10
267.517	28
272.48001	19
273.19699	483
284.45901	26
285.173	401
289.46899	11
297.48901	14
298.41501	11
299.436	11
302.28799	36
303.34201	70
329.55899	61
346.34399	23
347.155	38

NAME: Gibberellin A3; LC-ESI-QQ; MS2; CE
PRECURSORMZ: 345.134362
PRECURSORTYPE: [M-H]-
FORMULA: C19H22O6
Ontology: C19-gibberellin 6-carboxylic acids
INCHIKEY: IXORZMNAPKEEDV-OBDJNFEBSA-N
SMILES: C[C@@]12[C@H]3[C@H](C(O)=O)[C@@]45CC(=C)[C@@](O)(C4)CC[C@H]5[C@]3(OC1=O)C=C[C@@H]2O
RETENTIONTIME: 
CCS: 183.8102282
IONMODE: Negative
INSTRUMENTTYPE: LC-ESI-QQ
INSTRUMENT: 
COLLISIONENERGY: 10.0
Comment: registered in MassBank
Num Peaks: 12
82.87	21
142.966	101
221.15401	56
226.81	18
238.381	30
239.12801	433
239.686	14
276.21301	12
283.237	30
301.33899	14
344.62299	692
345.38199	1000

NAME: Gibberellin A3; LC-ESI-QQ; MS2; CE
PRECURSORMZ: 345.134362
PRECURSORTYPE: [M-H]-
FORMULA: C19H22O6
Ontology: C19-gibberellin 6-carboxylic acids
INCHIKEY: IXORZMNAPKEEDV-OBDJNFEBSA-N
SMILES: C[C@@]12[C@H]3[C@H](C(O)=O)[C@@]45CC(=C)[C@@](O)(C4)CC[C@H]5[C@]3(OC1=O)C=C[C@@H]2O
RETENTIONTIME: 
CCS: 183.8102282
IONMODE: Negative
INSTRUMENTTYPE: LC-ESI-QQ
INSTRUMENT: 
COLLISIONENERGY: 20.0
Comment: registered in MassBank
Num Peaks: 63
54.626	13
64.328	23
65.235	17
70.469	66
71.199	18
73.619	10
74.45	13
80.375	16
82.65	92
93.991	10
103.508	22
104.489	13
113.146	18
119.296	13
122.646	15
142.879	1000
145.41901	26
151.08501	10
152.07899	10
154.76601	39
160.51601	25
161.31	55
169.287	13
170.282	12
172.54401	13
180.78999	23
182.48199	75
183.543	26
185.618	12
199.56	16
200.55	30
201.157	69
208.16299	11
209.09599	14
211.601	25
213.091	68
218.194	10
219.151	32
220.616	195
221.20799	484
226.491	20
227.02699	328
227.69099	17
230.674	13
237.241	21
238.42101	43
239.20799	538
257.32901	124
258.76901	11
267.87399	10
270.44101	64
273.35599	19
283.207	116
296.19199	13
300.64099	130
301.37799	31
315.33701	21
318.78601	52
326.95099	12
327.52499	15
335.02701	12
344.62799	54
345.21701	193

NAME: Gibberellin A3; LC-ESI-QQ; MS2; CE
PRECURSORMZ: 345.134362
PRECURSORTYPE: [M-H]-
FORMULA: C19H22O6
Ontology: C19-gibberellin 6-carboxylic acids
INCHIKEY: IXORZMNAPKEEDV-OBDJNFEBSA-N
SMILES: C[C@@]12[C@H]3[C@H](C(O)=O)[C@@]45CC(=C)[C@@](O)(C4)CC[C@H]5[C@]3(OC1=O)C=C[C@@H]2O
RETENTIONTIME: 
CCS: 183.8102282
IONMODE: Negative
INSTRUMENTTYPE: LC-ESI-QQ
INSTRUMENT: 
COLLISIONENERGY: 30.0
Comment: registered in MassBank
Num Peaks: 65
50.478	10
65.725	27
66.637	10
74.827	18
75.66	11
82.701	155
84.329	22
104.348	69
105.238	10
106.795	12
113.861	21
122.098	12
123.139	23
124.213	15
142.748	1000
147.186	22
153.827	12
154.86	12
161.08099	132
162.51199	15
163.52499	13
166.798	25
170.798	16
173.703	11
178.679	11
179.403	23
181.15199	17
183.12601	30
197.09801	12
200.48599	54
202.22501	18
203.173	11
206.401	77
208.795	14
209.442	14
210.69	15
219.032	14
219.735	19
221.158	516
226.996	252
229.474	15
234.905	15
238.80499	57
239.625	11
242.586	43
249.508	11
250.563	11
258.66	28
259.56201	15
267.63	17
268.50699	13
277.625	50
281.25201	11
286.285	10
287.42999	11
296.298	11
306.797	24
315.05701	10
315.832	33
316.34601	12
317.16199	12
325.09399	18
325.811	13
334.38101	13
345.521	50

NAME: Gibberellin A4; LC-ESI-QQ; MS2; CE
PRECURSORMZ: 331.155097
PRECURSORTYPE: [M-H]-
FORMULA: C19H24O5
Ontology: C19-gibberellin 6-carboxylic acids
INCHIKEY: RSQSQJNRHICNNH-NFMPGMCNSA-N
SMILES: C[C@]12[C@H]3[C@H](C(O)=O)[C@@]45C[C@@H](CC[C@H]4[C@@]3(CC[C@@H]1O)OC2=O)C(=C)C5
RETENTIONTIME: 
CCS: 182.5753534
IONMODE: Negative
INSTRUMENTTYPE: LC-ESI-QQ
INSTRUMENT: 
COLLISIONENERGY: 10.0
Comment: registered in MassBank
Num Peaks: 6
225.226	25
242.979	18
269.22101	12
286.88501	16
287.61301	10
330.94	1000

NAME: Gibberellin A4; LC-ESI-QQ; MS2; CE
PRECURSORMZ: 331.155097
PRECURSORTYPE: [M-H]-
FORMULA: C19H24O5
Ontology: C19-gibberellin 6-carboxylic acids
INCHIKEY: RSQSQJNRHICNNH-NFMPGMCNSA-N
SMILES: C[C@]12[C@H]3[C@H](C(O)=O)[C@@]45C[C@@H](CC[C@H]4[C@@]3(CC[C@@H]1O)OC2=O)C(=C)C5
RETENTIONTIME: 
CCS: 182.5753534
IONMODE: Negative
INSTRUMENTTYPE: LC-ESI-QQ
INSTRUMENT: 
COLLISIONENERGY: 20.0
Comment: registered in MassBank
Num Peaks: 55
57.761	10
58.912	12
60.958	30
72.374	22
96.746	11
97.585	14
116.62	12
136.51199	16
137.371	10
144.99001	14
154.48	16
155.27901	12
169.04401	47
174.189	14
175.062	16
182.468	46
187.40401	17
193.021	10
193.702	10
202.242	14
203.183	10
212.161	11
213.15199	277
214.491	11
224.55299	110
225.342	375
232.748	11
240.782	11
242.743	349
243.528	124
250.438	11
251.06	57
251.976	12
254.088	19
256.573	97
257.405	190
260.99799	13
266.69901	52
268.91699	518
269.62701	55
271.431	13
285.08899	16
286.98999	202
287.668	53
289.35901	12
291.035	10
299.19299	12
309.47601	16
310.40302	11
312.483	32
313.07901	244
327.69901	10
328.89801	13
330.51501	362
331.12299	1000

NAME: Gibberellin A4; LC-ESI-QQ; MS2; CE
PRECURSORMZ: 331.155097
PRECURSORTYPE: [M-H]-
FORMULA: C19H24O5
Ontology: C19-gibberellin 6-carboxylic acids
INCHIKEY: RSQSQJNRHICNNH-NFMPGMCNSA-N
SMILES: C[C@]12[C@H]3[C@H](C(O)=O)[C@@]45C[C@@H](CC[C@H]4[C@@]3(CC[C@@H]1O)OC2=O)C(=C)C5
RETENTIONTIME: 
CCS: 182.5753534
IONMODE: Negative
INSTRUMENTTYPE: LC-ESI-QQ
INSTRUMENT: 
COLLISIONENERGY: 30.0
Comment: registered in MassBank
Num Peaks: 121
50.627	11
57.081	48
58.716	14
59.794	45
60.765	63
68.874	28
70.12	58
70.968	24
73.227	57
78.01	20
78.653	82
79.367	52
85.742	11
86.956	16
88.088	59
88.851	17
94.151	12
97.854	46
98.742	42
99.661	17
102.891	11
107.09	26
107.849	27
109.041	20
109.941	11
116.712	50
117.581	57
118.766	28
126.429	76
127.278	55
136.063	68
136.979	44
137.77901	14
145.972	53
146.67	30
150.532	11
153.588	13
154.74899	33
155.62399	43
156.535	173
165.14	22
166.04201	27
173.89	25
174.75101	72
175.46001	18
178.399	15
179.87	13
183.02901	16
184.004	44
185.909	10
191.606	16
193.451	30
194.22099	24
195.214	434
196.04401	11
197.097	18
200.95399	10
202.02	21
202.80099	10
203.80901	25
210.72501	12
213.092	1000
213.937	17
214.94901	41
215.877	12
222.703	34
223.47	16
225.237	38
230.01601	15
231.12601	12
232.077	37
232.864	10
234.11099	13
234.655	41
235.522	13
238.92999	461
239.80499	23
241.87	10
242.95799	20
243.892	31
244.7	25
251.04401	346
251.94701	20
252.911	25
253.8	21
257.121	324
257.918	10
258.923	19
262.896	24
267.23001	13
269.358	116
270.43301	23
271.58499	33
272.41101	39
274.452	13
279.98599	13
282.40701	25
286.92801	69
287.73001	20
290.44101	30
291.43399	44
292.155	14
292.871	10
296.215	12
300.241	26
305.09399	15
306.34201	11
309.85999	34
310.89899	28
311.69	21
312.487	156
313.32999	126
314.56601	12
319.535	39
320.20401	16
324.996	15
327.116	11
328.53299	28
329.138	10
329.905	21
330.759	230

NAME: Gibberellin A5; LC-ESI-QQ; MS2; CE
PRECURSORMZ: 329.139447
PRECURSORTYPE: [M-H]-
FORMULA: C19H22O5
Ontology: C19-gibberellin 6-carboxylic acids
INCHIKEY: ZOWHLBOPCIHIHW-KQBHUUJHSA-N
SMILES: C[C@]12C=CC[C@@]3(OC1=O)[C@@H]1CC[C@]4(O)C[C@]1(CC4=C)[C@H]([C@H]23)C(O)=O
RETENTIONTIME: 
CCS: 182.0711579
IONMODE: Negative
INSTRUMENTTYPE: LC-ESI-QQ
INSTRUMENT: 
COLLISIONENERGY: 10.0
Comment: registered in MassBank
Num Peaks: 4
144.85899	24
241.123	58
284.996	46
329.06201	1000

NAME: Gibberellin A5; LC-ESI-QQ; MS2; CE
PRECURSORMZ: 329.139447
PRECURSORTYPE: [M-H]-
FORMULA: C19H22O5
Ontology: C19-gibberellin 6-carboxylic acids
INCHIKEY: ZOWHLBOPCIHIHW-KQBHUUJHSA-N
SMILES: C[C@]12C=CC[C@@]3(OC1=O)[C@@H]1CC[C@]4(O)C[C@]1(CC4=C)[C@H]([C@H]23)C(O)=O
RETENTIONTIME: 
CCS: 182.0711579
IONMODE: Negative
INSTRUMENTTYPE: LC-ESI-QQ
INSTRUMENT: 
COLLISIONENERGY: 20.0
Comment: registered in MassBank
Num Peaks: 25
70.803	65
82.529	20
84.698	21
104.924	235
122.918	92
142.715	25
144.33701	36
144.929	1000
145.48199	48
148.62	31
156.748	12
160.987	12
171.162	10
222.533	25
223.146	208
238.89301	75
239.564	10
241.076	243
266.46201	23
267.09601	81
267.65799	24
285.00101	321
285.60501	14
328.508	84
329.082	487

NAME: Gibberellin A7; LC-ESI-QQ; MS2; CE
PRECURSORMZ: 329.139447
PRECURSORTYPE: [M-H]-
FORMULA: C19H22O5
Ontology: C19-gibberellin 6-carboxylic acids
INCHIKEY: SEEGHKWOBVVBTQ-NFMPGMCNSA-N
SMILES: C[C@@]12[C@H]3[C@H](C(O)=O)[C@@]45C[C@@H](CC[C@H]4[C@]3(OC1=O)C=C[C@@H]2O)C(=C)C5
RETENTIONTIME: 
CCS: 181.818773
IONMODE: Negative
INSTRUMENTTYPE: LC-ESI-QQ
INSTRUMENT: 
COLLISIONENERGY: 10.0
Comment: registered in MassBank
Num Peaks: 8
211.349	14
223.164	535
240.989	13
255.032	40
267.38599	17
284.68201	18
328.427	60
329.103	1000

NAME: Gibberellin A7; LC-ESI-QQ; MS2; CE
PRECURSORMZ: 329.139447
PRECURSORTYPE: [M-H]-
FORMULA: C19H22O5
Ontology: C19-gibberellin 6-carboxylic acids
INCHIKEY: SEEGHKWOBVVBTQ-NFMPGMCNSA-N
SMILES: C[C@@]12[C@H]3[C@H](C(O)=O)[C@@]45C[C@@H](CC[C@H]4[C@]3(OC1=O)C=C[C@@H]2O)C(=C)C5
RETENTIONTIME: 
CCS: 181.818773
IONMODE: Negative
INSTRUMENTTYPE: LC-ESI-QQ
INSTRUMENT: 
COLLISIONENERGY: 20.0
Comment: registered in MassBank
Num Peaks: 25
72.944	10
171.366	13
184.767	54
185.38	16
196.265	11
197.222	12
210.439	17
211.07899	196
211.605	15
222.43201	21
223.05299	1000
223.589	26
239.5	21
240.729	36
241.43201	17
248.82401	16
254.44099	10
255.37199	53
257.46399	11
266.55899	34
267.36801	32
284.95801	28
311.32101	13
328.67001	38
329.30301	64

NAME: Gibberellin A8; LC-ESI-QQ; MS2; CE
PRECURSORMZ: 363.144927
PRECURSORTYPE: [M-H]-
FORMULA: C19H24O7
Ontology: C19-gibberellin 6-carboxylic acids
INCHIKEY: WZRRJZYYGOOHRC-UQJCXHNCSA-N
SMILES: C[C@]12[C@H]3[C@H](C(O)=O)[C@@]45CC(=C)[C@@](O)(C4)CC[C@H]5[C@@]3(C[C@H](O)[C@@H]1O)OC2=O
RETENTIONTIME: 
CCS: 186.6115597
IONMODE: Negative
INSTRUMENTTYPE: LC-ESI-QQ
INSTRUMENT: 
COLLISIONENERGY: 10.0
Comment: registered in MassBank
Num Peaks: 9
160.67799	12
256.633	12
257.32901	48
274.93301	157
275.63599	10
318.633	35
319.43701	34
362.341	80
362.98401	1000

NAME: Gibberellin A8; LC-ESI-QQ; MS2; CE
PRECURSORMZ: 363.144927
PRECURSORTYPE: [M-H]-
FORMULA: C19H24O7
Ontology: C19-gibberellin 6-carboxylic acids
INCHIKEY: WZRRJZYYGOOHRC-UQJCXHNCSA-N
SMILES: C[C@]12[C@H]3[C@H](C(O)=O)[C@@]45CC(=C)[C@@](O)(C4)CC[C@H]5[C@@]3(C[C@H](O)[C@@H]1O)OC2=O
RETENTIONTIME: 
CCS: 186.6115597
IONMODE: Negative
INSTRUMENTTYPE: LC-ESI-QQ
INSTRUMENT: 
COLLISIONENERGY: 20.0
Comment: registered in MassBank
Num Peaks: 21
57.929	102
72.608	38
109.419	18
118.602	183
119.303	47
158.98	11
160.67	165
168.688	11
171.11301	10
183.459	19
190.459	33
201.586	12
239.319	42
246.61	10
256.44601	79
257.487	107
274.39401	30
275.03201	1000
300.74899	28
318.90799	58
362.84698	13

NAME: Gibberellin A9; LC-ESI-QQ; MS2; CE
PRECURSORMZ: 315.160183
PRECURSORTYPE: [M-H]-
FORMULA: C19H24O4
Ontology: C19-gibberellin 6-carboxylic acids
INCHIKEY: MHVYWTXXZIFXDT-YGNOGLJPSA-N
SMILES: C[C@]12CCC[C@@]3(OC1=O)[C@@H]1CC[C@@H]4C[C@]1(CC4=C)[C@H]([C@H]23)C(O)=O
RETENTIONTIME: 
CCS: 180.8358264
IONMODE: Negative
INSTRUMENTTYPE: LC-ESI-QQ
INSTRUMENT: 
COLLISIONENERGY: 10.0
Comment: registered in MassBank
Num Peaks: 4
270.798	12
271.54599	24
314.45599	87
315.172	1000

NAME: Gibberellin A9; LC-ESI-QQ; MS2; CE
PRECURSORMZ: 315.160183
PRECURSORTYPE: [M-H]-
FORMULA: C19H24O4
Ontology: C19-gibberellin 6-carboxylic acids
INCHIKEY: MHVYWTXXZIFXDT-YGNOGLJPSA-N
SMILES: C[C@]12CCC[C@@]3(OC1=O)[C@@H]1CC[C@@H]4C[C@]1(CC4=C)[C@H]([C@H]23)C(O)=O
RETENTIONTIME: 
CCS: 180.8358264
IONMODE: Negative
INSTRUMENTTYPE: LC-ESI-QQ
INSTRUMENT: 
COLLISIONENERGY: 20.0
Comment: registered in MassBank
Num Peaks: 36
53.104	13
62.656	10
72.229	13
73.684	14
82.874	10
91.644	13
111.648	13
119.809	11
121.017	13
128.11099	13
129.076	12
130.64799	15
139.888	12
148.713	13
156.987	14
167.02901	14
168.09599	12
169.039	13
176.991	11
178.50301	12
179.63699	11
188.05701	11
205.037	10
224.661	15
234.14799	10
252.513	19
253.325	56
263.66199	10
265.38101	10
271.08401	551
271.67999	31
284.76099	15
294.354	11
302.46301	14
303.526	20
314.94299	1000

NAME: Gibberellin A19; LC-ESI-QQ; MS2; CE
PRECURSORMZ: 361.165662
PRECURSORTYPE: [M-H]-
FORMULA: C20H26O6
Ontology: C20-gibberellin 6-carboxylic acids
INCHIKEY: VNCQCPQAMDQEBY-YTJHIPEWSA-N
SMILES: C[C@]1(CCC[C@@]2(C=O)[C@@H]3CC[C@]4(O)C[C@]3(CC4=C)[C@H]([C@H]12)C(O)=O)C(O)=O
RETENTIONTIME: 
CCS: 187.1414216
IONMODE: Negative
INSTRUMENTTYPE: LC-ESI-QQ
INSTRUMENT: 
COLLISIONENERGY: 10.0
Comment: registered in MassBank
Num Peaks: 2
360.29401	18
361.05399	1000

NAME: Gibberellin A19; LC-ESI-QQ; MS2; CE
PRECURSORMZ: 361.165662
PRECURSORTYPE: [M-H]-
FORMULA: C20H26O6
Ontology: C20-gibberellin 6-carboxylic acids
INCHIKEY: VNCQCPQAMDQEBY-YTJHIPEWSA-N
SMILES: C[C@]1(CCC[C@@]2(C=O)[C@@H]3CC[C@]4(O)C[C@]3(CC4=C)[C@H]([C@H]12)C(O)=O)C(O)=O
RETENTIONTIME: 
CCS: 187.1414216
IONMODE: Negative
INSTRUMENTTYPE: LC-ESI-QQ
INSTRUMENT: 
COLLISIONENERGY: 20.0
Comment: registered in MassBank
Num Peaks: 5
228.867	13
273.20499	35
317.13101	69
360.47699	106
361.08301	1000

NAME: Gibberellin A19; LC-ESI-QQ; MS2; CE
PRECURSORMZ: 361.165662
PRECURSORTYPE: [M-H]-
FORMULA: C20H26O6
Ontology: C20-gibberellin 6-carboxylic acids
INCHIKEY: VNCQCPQAMDQEBY-YTJHIPEWSA-N
SMILES: C[C@]1(CCC[C@@]2(C=O)[C@@H]3CC[C@]4(O)C[C@]3(CC4=C)[C@H]([C@H]12)C(O)=O)C(O)=O
RETENTIONTIME: 
CCS: 187.1414216
IONMODE: Negative
INSTRUMENTTYPE: LC-ESI-QQ
INSTRUMENT: 
COLLISIONENERGY: 30.0
Comment: registered in MassBank
Num Peaks: 99
56.818	12
80.171	20
81.468	12
82.757	114
89.739	11
94.747	26
96.654	26
99.202	16
106.819	26
109.128	39
110.607	28
116.635	17
118.953	43
122.635	10
128.653	13
130.69099	14
132.711	134
133.252	55
135.731	55
138.06599	17
138.96899	10
145.437	64
146.24699	75
147.093	11
148.446	59
149.16701	15
150.408	18
158.46201	25
159.87601	23
161.105	68
162.729	89
165.06799	10
171.065	56
173.26801	19
174.839	157
176.98801	172
178.487	13
184.871	90
187.37801	27
189.24001	19
190.57201	16
194.41299	11
195.668	12
196.651	11
198.27499	58
200.826	88
201.586	16
202.494	18
203.105	567
210.94501	18
212.55901	23
213.414	69
215.27901	13
224.26601	10
226.345	10
229.129	267
229.645	26
231.237	61
234.59	23
237.73	15
241.44099	42
243.78999	13
244.722	10
250.694	17
253.257	61
254.83099	94
255.717	46
256.91	21
258.55499	11
263.173	12
271.457	18
272.491	54
273.01199	544
273.72601	110
274.73499	10
282.146	13
282.88901	16
288.487	82
291.82101	14
292.76501	16
296.76501	28
298.621	47
299.44601	83
301.95499	10
302.86099	12
311.15399	13
313.16599	11
317.01001	344
317.547	60
321.57501	15
322.50699	12
330.53201	19
338.996	11
340.194	12
342.56699	64
343.311	89
350.258	15
359.44601	13
360.828	1000

NAME: Gibberellin A20; LC-ESI-QQ; MS2; CE
PRECURSORMZ: 331.155097
PRECURSORTYPE: [M-H]-
FORMULA: C19H24O5
Ontology: C19-gibberellin 6-carboxylic acids
INCHIKEY: OXFPYCSNYOFUCH-KQBHUUJHSA-N
SMILES: C[C@]12CCC[C@@]3(OC1=O)[C@@H]1CC[C@]4(O)C[C@]1(CC4=C)[C@H]([C@H]23)C(O)=O
RETENTIONTIME: 
CCS: 182.788564
IONMODE: Negative
INSTRUMENTTYPE: LC-ESI-QQ
INSTRUMENT: 
COLLISIONENERGY: 10.0
Comment: registered in MassBank
Num Peaks: 2
287.01501	19
331.052	1000

NAME: Gibberellin A20; LC-ESI-QQ; MS2; CE
PRECURSORMZ: 331.155097
PRECURSORTYPE: [M-H]-
FORMULA: C19H24O5
Ontology: C19-gibberellin 6-carboxylic acids
INCHIKEY: OXFPYCSNYOFUCH-KQBHUUJHSA-N
SMILES: C[C@]12CCC[C@@]3(OC1=O)[C@@H]1CC[C@]4(O)C[C@]1(CC4=C)[C@H]([C@H]23)C(O)=O
RETENTIONTIME: 
CCS: 182.788564
IONMODE: Negative
INSTRUMENTTYPE: LC-ESI-QQ
INSTRUMENT: 
COLLISIONENERGY: 20.0
Comment: registered in MassBank
Num Peaks: 17
83.033	18
144.72701	12
146.7	21
170.959	23
172.524	11
173.224	25
224.994	82
225.618	11
242.547	32
243.328	76
269.36301	53
286.57501	25
287.14099	506
287.69199	64
313.01401	26
330.42099	37
331.022	1000

NAME: Gibberellin A20; LC-ESI-QQ; MS2; CE
PRECURSORMZ: 331.155097
PRECURSORTYPE: [M-H]-
FORMULA: C19H24O5
Ontology: C19-gibberellin 6-carboxylic acids
INCHIKEY: OXFPYCSNYOFUCH-KQBHUUJHSA-N
SMILES: C[C@]12CCC[C@@]3(OC1=O)[C@@H]1CC[C@]4(O)C[C@]1(CC4=C)[C@H]([C@H]23)C(O)=O
RETENTIONTIME: 
CCS: 182.788564
IONMODE: Negative
INSTRUMENTTYPE: LC-ESI-QQ
INSTRUMENT: 
COLLISIONENERGY: 30.0
Comment: registered in MassBank
Num Peaks: 113
52.472	55
53.916	10
54.975	36
56.168	21
61.801	71
62.627	38
63.403	24
70.559	47
71.541	69
72.244	11
75.752	10
77.245	25
83.4	528
86.073	43
89.503	15
93.712	54
94.273	33
95.243	35
96.027	22
98.619	671
100.516	14
103.46	19
110.12	47
110.681	11
111.242	25
112.662	36
114.734	14
117.989	22
119.093	299
123.065	35
126.872	26
127.433	100
131.91701	16
132.618	17
133.52901	17
137.278	13
142.496	76
143.19701	13
147.189	1000
151.10201	58
151.86501	120
155.69701	31
157.13499	12
161.617	22
166.814	22
167.56799	11
171.55901	62
173.16901	194
174.35899	25
175.187	19
176.054	33
176.80701	14
184.24899	55
190.196	39
191.158	105
192.698	25
200.472	63
201.446	11
207.451	11
208.933	14
209.694	13
211.013	15
211.871	41
216.698	12
219.31	26
220.145	26
220.976	15
222.14301	23
222.994	17
223.76401	13
224.67799	440
228.00101	11
228.66	33
230.332	33
231.31799	59
232.01801	13
232.577	26
239.222	22
239.991	101
240.91299	40
241.87199	10
247.858	64
248.94299	34
249.85201	20
256	19
257.05499	43
258.47	24
259.96799	67
267.75201	14
268.591	143
269.42999	11
275.965	52
276.841	33
278.04199	21
279.259	16
286.54901	551
287.77802	120
288.79599	20
296.01199	54
296.625	106
297.521	49
300.43201	11
306.061	93
306.854	51
307.72699	56
315.21701	17
315.797	142
316.47601	65
321.228	16
324.45901	36
325.28201	130
326.38501	41
330.80301	238

NAME: Gibberellin A24; LC-ESI-QQ; MS2; CE
PRECURSORMZ: 345.170747
PRECURSORTYPE: [M-H]-
FORMULA: C20H26O5
Ontology: C20-gibberellin 6-carboxylic acids
INCHIKEY: QQRSSHFHXYSOMF-CXXOJBQZSA-N
SMILES: C[C@]1(CCC[C@@]2(C=O)[C@@H]3CC[C@@H]4C[C@]3(CC4=C)[C@H]([C@H]12)C(O)=O)C(O)=O
RETENTIONTIME: 
CCS: 184.8981196
IONMODE: Negative
INSTRUMENTTYPE: LC-ESI-QQ
INSTRUMENT: 
COLLISIONENERGY: 10.0
Comment: registered in MassBank
Num Peaks: 2
344.39099	14
345.01599	1000

NAME: Gibberellin A24; LC-ESI-QQ; MS2; CE
PRECURSORMZ: 345.170747
PRECURSORTYPE: [M-H]-
FORMULA: C20H26O5
Ontology: C20-gibberellin 6-carboxylic acids
INCHIKEY: QQRSSHFHXYSOMF-CXXOJBQZSA-N
SMILES: C[C@]1(CCC[C@@]2(C=O)[C@@H]3CC[C@@H]4C[C@]3(CC4=C)[C@H]([C@H]12)C(O)=O)C(O)=O
RETENTIONTIME: 
CCS: 184.8981196
IONMODE: Negative
INSTRUMENTTYPE: LC-ESI-QQ
INSTRUMENT: 
COLLISIONENERGY: 20.0
Comment: registered in MassBank
Num Peaks: 7
213.147	28
257.17899	80
300.521	18
301.27701	46
327.00201	23
344.41699	113
345.10699	1000

NAME: Gibberellin A24; LC-ESI-QQ; MS2; CE
PRECURSORMZ: 345.170747
PRECURSORTYPE: [M-H]-
FORMULA: C20H26O5
Ontology: C20-gibberellin 6-carboxylic acids
INCHIKEY: QQRSSHFHXYSOMF-CXXOJBQZSA-N
SMILES: C[C@]1(CCC[C@@]2(C=O)[C@@H]3CC[C@@H]4C[C@]3(CC4=C)[C@H]([C@H]12)C(O)=O)C(O)=O
RETENTIONTIME: 
CCS: 184.8981196
IONMODE: Negative
INSTRUMENTTYPE: LC-ESI-QQ
INSTRUMENT: 
COLLISIONENERGY: 30.0
Comment: registered in MassBank
Num Peaks: 57
50.593	13
60.198	10
80.914	14
98.732	12
100.211	15
109.115	19
119.698	76
120.304	39
120.867	68
121.479	12
135.256	49
136.58	17
139.94	10
142.713	20
145.56599	11
147.04201	26
156.66701	14
158.918	16
161.22501	17
171.299	15
177.638	12
184.51401	20
186.634	157
195.681	10
196.451	12
199.265	13
210.396	17
212.545	37
213.243	429
226.996	29
236.41499	10
237.43201	37
242.367	32
244.485	16
252.87601	98
253.53799	29
255.07001	251
256.422	23
257.08701	730
257.61899	20
264.668	54
268.52899	40
270.54401	10
272.82401	20
282.86801	26
283.51099	26
290.974	10
293.63199	13
295.134	12
300.98499	268
301.823	45
327.009	46
329.979	10
331.854	10
334.17999	10
341.43399	12
344.90601	1000

NAME: Gibberellin A29; LC-ESI-QQ; MS2; CE
PRECURSORMZ: 347.150012
PRECURSORTYPE: [M-H]-
FORMULA: C19H24O6
Ontology: C19-gibberellin 6-carboxylic acids
INCHIKEY: BKBYHSYZKIAJDA-WWSAFQOPSA-N
SMILES: C[C@]12C[C@@H](O)C[C@@]3(OC1=O)[C@@H]1CC[C@]4(O)C[C@]1(CC4=C)[C@H]([C@H]23)C(O)=O
RETENTIONTIME: 
CCS: 184.647257
IONMODE: Negative
INSTRUMENTTYPE: LC-ESI-QQ
INSTRUMENT: 
COLLISIONENERGY: 10.0
Comment: registered in MassBank
Num Peaks: 6
258.522	13
259.20499	77
302.737	20
303.457	27
346.483	17
347.052	1000

NAME: Gibberellin A29; LC-ESI-QQ; MS2; CE
PRECURSORMZ: 347.150012
PRECURSORTYPE: [M-H]-
FORMULA: C19H24O6
Ontology: C19-gibberellin 6-carboxylic acids
INCHIKEY: BKBYHSYZKIAJDA-WWSAFQOPSA-N
SMILES: C[C@]12C[C@@H](O)C[C@@]3(OC1=O)[C@@H]1CC[C@]4(O)C[C@]1(CC4=C)[C@H]([C@H]23)C(O)=O
RETENTIONTIME: 
CCS: 184.647257
IONMODE: Negative
INSTRUMENTTYPE: LC-ESI-QQ
INSTRUMENT: 
COLLISIONENERGY: 20.0
Comment: registered in MassBank
Num Peaks: 42
56.798	18
70.8	26
71.746	11
80.048	11
82.737	114
89.542	17
92.692	23
96.373	21
112.706	11
118.943	15
128.244	11
129.217	12
144.655	88
146.69901	19
160.425	43
162.72099	184
163.25999	64
172.71899	116
175.47301	19
186.983	10
196.745	92
197.317	34
205.27	11
214.308	17
215.26199	24
225.571	45
238.73199	24
239.293	27
240.321	41
240.972	137
241.72501	16
256.772	53
257.436	160
258.763	152
259.37799	324
266.60599	24
285.064	85
302.55499	21
303.08899	263
303.625	17
321.909	10
347.07999	1000

NAME: Gibberellin A44; LC-ESI-QQ; MS2; CE
PRECURSORMZ: 345.170747
PRECURSORTYPE: [M-H]-
FORMULA: C20H26O5
Ontology: C19-gibberellin 6-carboxylic acids
INCHIKEY: KSBJAONOPKRVRR-YTJHIPEWSA-N
SMILES: C[C@]12CCC[C@@]3(COC1=O)[C@@H]1CC[C@]4(O)C[C@]1(CC4=C)[C@H]([C@H]23)C(O)=O
RETENTIONTIME: 
CCS: 185.7769405
IONMODE: Negative
INSTRUMENTTYPE: LC-ESI-QQ
INSTRUMENT: 
COLLISIONENERGY: 20.0
Comment: registered in MassBank
Num Peaks: 9
203.08299	10
254.968	14
273.375	31
282.57101	11
299.371	30
300.513	25
301.284	69
344.45801	142
345.099	1000

NAME: Gibberellin A44; LC-ESI-QQ; MS2; CE
PRECURSORMZ: 345.170747
PRECURSORTYPE: [M-H]-
FORMULA: C20H26O5
Ontology: C19-gibberellin 6-carboxylic acids
INCHIKEY: KSBJAONOPKRVRR-YTJHIPEWSA-N
SMILES: C[C@]12CCC[C@@]3(COC1=O)[C@@H]1CC[C@]4(O)C[C@]1(CC4=C)[C@H]([C@H]23)C(O)=O
RETENTIONTIME: 
CCS: 185.7769405
IONMODE: Negative
INSTRUMENTTYPE: LC-ESI-QQ
INSTRUMENT: 
COLLISIONENERGY: 30.0
Comment: registered in MassBank
Num Peaks: 93
54.485	10
58.623	12
59.978	14
68.22	11
69.019	14
70.477	83
71.196	33
78.215	20
79.085	22
82.48	168
83.174	10
84.944	48
87.556	12
92.454	19
97.133	10
104.259	18
105.068	41
106.76	56
108.805	32
116.976	12
117.857	13
118.869	15
125.464	10
126.354	19
128.862	13
132.981	12
134	36
135.118	54
136.23599	17
146.01199	28
148.89799	33
153.076	13
155.67599	10
157.55499	10
166.05299	10
168.265	21
173.948	11
174.797	71
175.714	14
176.771	11
182.797	55
184.05499	17
188.88699	46
189.575	10
193.717	16
196.683	37
201.41	15
202.86	144
204.866	144
205.53	31
211.74001	27
212.834	30
213.745	17
214.927	20
223.35001	19
224.196	10
228.74001	104
229.549	21
231.702	10
232.577	25
233.40601	12
235.16901	13
236.57899	12
237.604	28
241.67101	12
242.57201	21
252.323	21
253.15401	117
254.91499	89
256.50201	66
258.504	18
262.38	11
271.01999	214
272.42599	43
272.98499	90
273.591	222
279.79599	10
280.591	36
283.013	14
288.70901	10
289.73001	16
298.45401	71
299.13199	233
301.017	266
301.76199	73
309.99701	12
318.95599	17
327.716	11
328.64499	15
329.38699	26
338.48499	16
344.45999	168
345.164	1000

NAME: Gibberellin A44; LC-ESI-QQ; MS2; CE
PRECURSORMZ: 345.170747
PRECURSORTYPE: [M-H]-
FORMULA: C20H26O5
Ontology: C19-gibberellin 6-carboxylic acids
INCHIKEY: KSBJAONOPKRVRR-YTJHIPEWSA-N
SMILES: C[C@]12CCC[C@@]3(COC1=O)[C@@H]1CC[C@]4(O)C[C@]1(CC4=C)[C@H]([C@H]23)C(O)=O
RETENTIONTIME: 
CCS: 185.7769405
IONMODE: Negative
INSTRUMENTTYPE: LC-ESI-QQ
INSTRUMENT: 
COLLISIONENERGY: 40.0
Comment: registered in MassBank
Num Peaks: 108
50.763	16
51.463	11
58.836	45
59.538	124
60.98	29
66.699	29
67.611	20
68.875	234
70.77	305
75.202	48
75.752	10
76.506	61
77.998	13
84.891	56
91.678	15
96.868	573
98.109	39
99.266	91
100.024	14
107.666	48
108.858	1000
113.643	13
114.425	30
116.493	39
117.27	34
117.997	33
122.877	15
123.788	40
124.7	22
132.20799	25
133.108	39
136.65401	11
137.427	12
138.95599	27
140.114	12
147.433	45
148.68201	23
155.244	17
156.224	49
157.188	48
157.813	10
165.37601	23
170.655	34
171.513	14
172.46899	17
174.664	21
179.509	21
180.38	21
185.209	621
188.364	33
189.19901	56
189.993	39
194.448	24
195.358	21
200.536	12
203.83	46
204.59399	68
205.36301	35
208.438	15
214.04401	104
223.888	15
227.321	27
228.795	12
229.646	11
233.487	23
236.354	12
236.98399	32
242.299	13
243.20799	38
243.957	17
245.37601	20
246.495	19
251.849	36
252.5	67
253.34801	326
254.257	17
261.47299	22
262.36899	37
267.802	12
268.75	12
271.13501	13
272.017	13
273.474	17
282.92401	14
283.577	196
284.56601	35
292.29099	55
293.34	57
294.11401	23
300.26001	10
300.91699	12
301.867	78
303.056	21
308.29501	27
309.556	12
310.832	20
311.98901	21
312.70099	13
316.52399	12
318.28299	12
320.599	15
321.36801	14
330.45401	36
331.255	23
339.39899	29
340.517	46
341.216	17
344.92001	881

NAME: Gibberellin A53; LC-ESI-QQ; MS2; CE
PRECURSORMZ: 347.186398
PRECURSORTYPE: [M-H]-
FORMULA: C20H28O5
Ontology: C20-gibberellin 6-carboxylic acids
INCHIKEY: CZEMYYICWZPENF-VOLTXKGXSA-N
SMILES: C[C@@]12CCC[C@](C)([C@H]1[C@H](C(O)=O)[C@@]13CC(=C)[C@@](O)(C1)CC[C@@H]23)C(O)=O
RETENTIONTIME: 
CCS: 186.3489982
IONMODE: Negative
INSTRUMENTTYPE: LC-ESI-QQ
INSTRUMENT: 
COLLISIONENERGY: 10.0
Comment: registered in MassBank
Num Peaks: 2
346.457	22
347.07599	1000

NAME: Gibberellin A53; LC-ESI-QQ; MS2; CE
PRECURSORMZ: 347.186398
PRECURSORTYPE: [M-H]-
FORMULA: C20H28O5
Ontology: C20-gibberellin 6-carboxylic acids
INCHIKEY: CZEMYYICWZPENF-VOLTXKGXSA-N
SMILES: C[C@@]12CCC[C@](C)([C@H]1[C@H](C(O)=O)[C@@]13CC(=C)[C@@](O)(C1)CC[C@@H]23)C(O)=O
RETENTIONTIME: 
CCS: 186.3489982
IONMODE: Negative
INSTRUMENTTYPE: LC-ESI-QQ
INSTRUMENT: 
COLLISIONENERGY: 20.0
Comment: registered in MassBank
Num Peaks: 5
303.202	41
328.75699	49
329.487	22
346.48499	155
347.078	1000

NAME: Gibberellin A53; LC-ESI-QQ; MS2; CE
PRECURSORMZ: 347.186398
PRECURSORTYPE: [M-H]-
FORMULA: C20H28O5
Ontology: C20-gibberellin 6-carboxylic acids
INCHIKEY: CZEMYYICWZPENF-VOLTXKGXSA-N
SMILES: C[C@@]12CCC[C@](C)([C@H]1[C@H](C(O)=O)[C@@]13CC(=C)[C@@](O)(C1)CC[C@@H]23)C(O)=O
RETENTIONTIME: 
CCS: 186.3489982
IONMODE: Negative
INSTRUMENTTYPE: LC-ESI-QQ
INSTRUMENT: 
COLLISIONENERGY: 30.0
Comment: registered in MassBank
Num Peaks: 22
71.084	12
121.263	32
144.664	33
172.569	25
188.474	100
189.037	407
189.62	20
215.532	10
216.834	16
233.05099	149
239.29201	20
266.82101	19
284.76199	56
285.569	16
302.47699	63
303.33401	351
311.32599	28
328.28699	11
329.073	509
329.758	38
346.51099	289
347.228	1000

NAME: Gibberellin A53; LC-ESI-QQ; MS2; CE
PRECURSORMZ: 347.186398
PRECURSORTYPE: [M-H]-
FORMULA: C20H28O5
Ontology: C20-gibberellin 6-carboxylic acids
INCHIKEY: CZEMYYICWZPENF-VOLTXKGXSA-N
SMILES: C[C@@]12CCC[C@](C)([C@H]1[C@H](C(O)=O)[C@@]13CC(=C)[C@@](O)(C1)CC[C@@H]23)C(O)=O
RETENTIONTIME: 
CCS: 186.3489982
IONMODE: Negative
INSTRUMENTTYPE: LC-ESI-QQ
INSTRUMENT: 
COLLISIONENERGY: 40.0
Comment: registered in MassBank
Num Peaks: 22
71.084	12
121.263	32
144.664	33
172.569	25
188.474	100
189.037	407
189.62	20
215.532	10
216.834	16
233.05099	149
239.29201	20
266.82101	19
284.76199	56
285.569	16
302.47699	63
303.33401	351
311.32599	28
328.28699	11
329.073	509
329.758	38
346.51099	289
347.228	1000

NAME: (+/-)-cis,trans-abscisic acid; LC-ESI-QQ; MS2; CE
PRECURSORMZ: 263.128883
PRECURSORTYPE: [M-H]-
FORMULA: C15H20O4
Ontology: Abscisic acids and derivatives
INCHIKEY: JLIDBLDQVAYHNE-YKALOCIXSA-N
SMILES: C\C(\C=C\[C@@]1(O)C(C)=CC(=O)CC1(C)C)=C\C(O)=O
RETENTIONTIME: 
CCS: 165.8573521
IONMODE: Negative
INSTRUMENTTYPE: LC-ESI-QQ
INSTRUMENT: 
COLLISIONENERGY: 5.0
Comment: registered in MassBank
Num Peaks: 8
110.65	10
152.061	14
152.858	558
200.933	16
204.02499	20
218.931	104
262.45901	28
263.01999	1000

NAME: (+/-)-cis,trans-abscisic acid; LC-ESI-QQ; MS2; CE
PRECURSORMZ: 263.128883
PRECURSORTYPE: [M-H]-
FORMULA: C15H20O4
Ontology: Abscisic acids and derivatives
INCHIKEY: JLIDBLDQVAYHNE-YKALOCIXSA-N
SMILES: C\C(\C=C\[C@@]1(O)C(C)=CC(=O)CC1(C)C)=C\C(O)=O
RETENTIONTIME: 
CCS: 165.8573521
IONMODE: Negative
INSTRUMENTTYPE: LC-ESI-QQ
INSTRUMENT: 
COLLISIONENERGY: 10.0
Comment: registered in MassBank
Num Peaks: 13
110.734	24
151.455	34
152.84599	1000
153.423	26
160.83299	22
162.767	15
201.07001	74
201.586	11
203.82899	148
218.44	19
219.05701	289
219.601	15
263.021	99

NAME: Apigenin; LC-ESI-QTOF; MS2; CE
PRECURSORMZ: 269.045547
PRECURSORTYPE: [M-H]-
FORMULA: C15H10O5
Ontology: Flavones
INCHIKEY: KZNIFHPLKGYRTM-UHFFFAOYSA-N
SMILES: OC1=CC=C(C=C1)C1=CC(=O)C2=C(O)C=C(O)C=C2O1
RETENTIONTIME: 
CCS: 160.6521993
IONMODE: Negative
INSTRUMENTTYPE: LC-ESI-QTOF
INSTRUMENT: 
COLLISIONENERGY: 
Comment: registered in MassBank
Num Peaks: 10
107.0134	57
117.0344	353
149.02451	81
151.00391	102
159.0452	22
201.05611	21
225.0562	44
227.035	22
269.04501	1000
269.29501	30

NAME: Apigenin; LC-ESI-QTOF; MS2; CE
PRECURSORMZ: 269.045547
PRECURSORTYPE: [M-H]-
FORMULA: C15H10O5
Ontology: Flavones
INCHIKEY: KZNIFHPLKGYRTM-UHFFFAOYSA-N
SMILES: OC1=CC=C(C=C1)C1=CC(=O)C2=C(O)C=C(O)C=C2O1
RETENTIONTIME: 
CCS: 160.6521993
IONMODE: Negative
INSTRUMENTTYPE: LC-ESI-QTOF
INSTRUMENT: 
COLLISIONENERGY: 30
Comment: registered in MassBank
Num Peaks: 17
63.0579	21
65.0447	56
83.0508	55
105.0589	39
107.0476	173
108.3034	21
116.2101	30
117.067	1000
117.9082	112
118.7827	33
121.0637	79
149.05901	97
151.0323	120
159.07111	49
183.06171	29
227.05141	32
269.05801	27

NAME: Daidzein; LC-ESI-QTOF; MS2; CE
PRECURSORMZ: 253.050632
PRECURSORTYPE: [M-H]-
FORMULA: C15H10O4
Ontology: Isoflavones
INCHIKEY: ZQSIJRDFPHDXIC-UHFFFAOYSA-N
SMILES: OC1=CC=C(C=C1)C1=COC2=C(C=CC(O)=C2)C1=O
RETENTIONTIME: 
CCS: 158.7776973
IONMODE: Negative
INSTRUMENTTYPE: LC-ESI-QTOF
INSTRUMENT: 
COLLISIONENERGY: 
Comment: registered in MassBank
Num Peaks: 14
91.018	62
132.02139	53
133.0294	47
135.00861	35
180.0582	23
195.045	40
196.0528	21
208.0528	55
209.06059	29
223.0403	52
224.04781	56
225.0554	24
253.05009	1000
253.2921	24

NAME: Daidzein; LC-ESI-QTOF; MS2; CE
PRECURSORMZ: 253.050632
PRECURSORTYPE: [M-H]-
FORMULA: C15H10O4
Ontology: Isoflavones
INCHIKEY: ZQSIJRDFPHDXIC-UHFFFAOYSA-N
SMILES: OC1=CC=C(C=C1)C1=COC2=C(C=CC(O)=C2)C1=O
RETENTIONTIME: 
CCS: 158.7776973
IONMODE: Negative
INSTRUMENTTYPE: LC-ESI-QTOF
INSTRUMENT: 
COLLISIONENERGY: 30
Comment: registered in MassBank
Num Peaks: 75
62.7565	26
65.0151	25
77.0722	38
89.0752	80
90.2187	25
91.0558	769
91.9125	95
92.9029	42
104.0592	62
105.0474	38
106.989	22
114.7521	21
116.0826	40
117.0687	115
117.9439	20
118.8909	21
127.076	26
129.0623	24
131.0936	38
132.0513	699
133.0414	780
133.88229	116
135.03259	388
135.88741	56
136.83681	24
141.0919	40
143.076	37
151.07739	29
152.0607	38
153.04849	34
154.05811	44
155.06709	65
155.9915	24
157.01849	25
159.0578	34
160.0085	40
167.09061	108
168.07069	75
169.0874	169
169.9429	34
170.94521	30
178.0943	24
179.0972	72
180.08749	394
181.0255	113
182.06129	113
183.04761	93
183.976	37
185.0175	29
186.41479	26
189.8226	20
194.0992	28
195.0712	485
196.0538	349
197.0313	185
197.9339	55
198.88229	25
206.173	34
207.08929	65
208.07719	872
209.0291	341
209.97231	115
210.9529	68
212.5217	23
221.1788	30
222.1178	40
223.0614	1000
224.037	654
225.00661	254
225.91811	75
226.8116	32
227.75439	20
251.0387	87
252.06039	117
253.06329	553

NAME: Eriodictyol; LC-ESI-QTOF; MS2; CE
PRECURSORMZ: 287.056112
PRECURSORTYPE: [M-H]-
FORMULA: C15H12O6
Ontology: Flavanones
INCHIKEY: SBHXYTNGIZCORC-ZDUSSCGKSA-N
SMILES: OC1=CC(O)=C2C(=O)C[C@H](OC2=C1)C1=CC(O)=C(O)C=C1
RETENTIONTIME: 
CCS: 165.7733981
IONMODE: Negative
INSTRUMENTTYPE: LC-ESI-QTOF
INSTRUMENT: 
COLLISIONENERGY: 
Comment: registered in MassBank
Num Peaks: 10
65.0012	32
83.0128	37
107.0133	118
125.0241	31
134.0372	85
135.04491	1000
136.0486	44
151.0034	736
152.0072	27
287.0556	277

NAME: Eriodictyol; LC-ESI-QTOF; MS2; CE
PRECURSORMZ: 575.1195
PRECURSORTYPE: [2M-H]-
FORMULA: C15H12O6
Ontology: Flavanones
INCHIKEY: SBHXYTNGIZCORC-ZDUSSCGKSA-N
SMILES: OC1=CC(O)=C2C(=O)C[C@H](OC2=C1)C1=CC(O)=C(O)C=C1
RETENTIONTIME: 
CCS: -1
IONMODE: Negative
INSTRUMENTTYPE: LC-ESI-QTOF
INSTRUMENT: 
COLLISIONENERGY: 
Comment: registered in MassBank
Num Peaks: 11
83.0127	14
107.0128	67
125.0238	24
135.04469	432
136.0484	17
151.0033	702
152.0072	21
287.05511	1000
288.05881	43
460.97791	11
575.11902	81

NAME: Eriodictyol; LC-ESI-QTOF; MS2; CE
PRECURSORMZ: 287.056112
PRECURSORTYPE: [M-H]-
FORMULA: C15H12O6
Ontology: Flavanones
INCHIKEY: SBHXYTNGIZCORC-ZDUSSCGKSA-N
SMILES: OC1=CC(O)=C2C(=O)C[C@H](OC2=C1)C1=CC(O)=C(O)C=C1
RETENTIONTIME: 
CCS: 165.7733981
IONMODE: Negative
INSTRUMENTTYPE: LC-ESI-QTOF
INSTRUMENT: 
COLLISIONENERGY: 30
Comment: registered in MassBank
Num Peaks: 14
63.0598	11
65.0339	45
83.0511	47
107.0517	113
107.9567	19
109.0258	20
116.934	12
133.1609	14
134.0992	106
135.0757	1000
135.9585	144
136.8591	40
137.75459	16
151.0403	47

NAME: Eriodictyol; LC-ESI-QTOF; MS2; CE
PRECURSORMZ: 575.1195
PRECURSORTYPE: [2M-H]-
FORMULA: C15H12O6
Ontology: Flavanones
INCHIKEY: SBHXYTNGIZCORC-ZDUSSCGKSA-N
SMILES: OC1=CC(O)=C2C(=O)C[C@H](OC2=C1)C1=CC(O)=C(O)C=C1
RETENTIONTIME: 
CCS: -1
IONMODE: Negative
INSTRUMENTTYPE: LC-ESI-QTOF
INSTRUMENT: 
COLLISIONENERGY: 30
Comment: registered in MassBank
Num Peaks: 11
107.0454	22
125.0627	33
135.0764	257
135.9263	38
150.07961	30
151.035	1000
151.87849	123
152.7494	35
287.0719	289
287.9888	53
392.9957	20

NAME: Genistein; LC-ESI-QTOF; MS2; CE
PRECURSORMZ: 269.045547
PRECURSORTYPE: [M-H]-
FORMULA: C15H10O5
Ontology: Isoflavones
INCHIKEY: TZBJGXHYKVUXJN-UHFFFAOYSA-N
SMILES: OC1=CC=C(C=C1)C1=COC2=CC(O)=CC(O)=C2C1=O
RETENTIONTIME: 
CCS: 161.5037462
IONMODE: Negative
INSTRUMENTTYPE: LC-ESI-QTOF
INSTRUMENT: 
COLLISIONENERGY: 30
Comment: registered in MassBank
Num Peaks: 68
63.0702	123
65.0276	83
77.0768	25
83.0211	37
89.0595	63
91.0549	176
91.9634	31
105.0659	86
105.9782	23
107.0497	232
107.8089	27
114.9693	20
117.0889	73
119.0844	23
123.0513	39
128.98599	25
130.02139	45
131.0755	84
132.06641	291
133.05569	1000
133.9624	227
135.058	414
135.9138	67
136.82021	28
141.04671	43
143.0737	50
145.05721	26
151.026	70
152.0056	26
154.07201	41
155.07719	122
156.0519	75
157.0531	164
158	80
159.0722	345
159.8858	46
161.08389	31
167.0948	51
168.0993	39
169.1026	81
170.03169	25
171.0786	61
171.9733	23
173.0701	44
178.9771	23
180.0948	194
181.0542	134
182.0383	96
183.0535	159
183.9426	34
184.9512	29
195.0648	71
196.0605	100
197.0564	55
198.05701	37
199.03841	49
201.07179	82
211.0919	28
213.0498	52
223.04041	93
224.043	138
225.03371	60
225.978	23
227.07269	29
239.0484	51
240.0233	40
241.04111	31
269.06711	260

NAME: Isorhamnetin; LC-ESI-QTOF; MS2; CE
PRECURSORMZ: 315.051026
PRECURSORTYPE: [M-H]-
FORMULA: C16H12O7
Ontology: Flavonols
INCHIKEY: IZQSVPBOUDKVDZ-UHFFFAOYSA-N
SMILES: COC1=C(O)C=CC(=C1)C1=C(O)C(=O)C2=C(O)C=C(O)C=C2O1
RETENTIONTIME: 
CCS: 171.1481859
IONMODE: Negative
INSTRUMENTTYPE: LC-ESI-QTOF
INSTRUMENT: 
COLLISIONENERGY: 
Comment: registered in MassBank
Num Peaks: 19
63.0217	24
65.0011	20
83.0127	42
107.0134	94
108.0212	70
120.0215	20
136.0164	28
148.0168	59
151.0038	166
163.00369	52
164.0116	52
227.0351	38
243.03	35
255.0298	44
271.02509	63
283.02481	34
300.02719	715
301.03131	25
315.05042	1000

NAME: Isorhamnetin; LC-ESI-QTOF; MS2; CE
PRECURSORMZ: 315.051026
PRECURSORTYPE: [M-H]-
FORMULA: C16H12O7
Ontology: Flavonols
INCHIKEY: IZQSVPBOUDKVDZ-UHFFFAOYSA-N
SMILES: COC1=C(O)C=CC(=C1)C1=C(O)C(=O)C2=C(O)C=C(O)C=C2O1
RETENTIONTIME: 
CCS: 171.1481859
IONMODE: Negative
INSTRUMENTTYPE: LC-ESI-QTOF
INSTRUMENT: 
COLLISIONENERGY: 30
Comment: registered in MassBank
Num Peaks: 93
63.0529	115
65.038	83
79.7369	22
83.0554	275
83.8599	28
84.7016	20
91.0555	26
94.028	49
94.9534	30
95.9927	22
106.1862	25
107.0509	695
108.0239	385
108.8914	74
109.7594	24
120.0509	103
122.0359	75
122.9466	23
124.0326	78
124.9927	24
132.854	20
135.0343	94
136.0186	195
136.94299	45
137.84219	22
146.1147	23
147.0764	23
148.0417	380
148.9639	73
150.0206	125
151.02831	1000
151.9361	183
152.8028	46
153.692	25
154.9722	29
158.9859	34
159.9397	24
161.084	29
162.0321	29
163.02789	267
164.01289	373
164.85741	55
165.87621	23
166.9852	22
171.07491	28
171.9882	42
172.9472	30
173.9756	39
174.9574	34
176.0901	21
182.02901	20
183.073	88
184.01801	29
184.9444	22
185.9277	23
187.0533	39
188.0361	45
189.0253	59
189.98489	21
192.03169	26
198.0311	20
199.0451	86
200.02409	55
201.01331	41
201.98421	50
202.9915	43
211.0605	64
212.01109	26
215.0473	109
216.04201	106
216.9417	42
226.06371	48
227.0591	232
227.9763	70
228.9938	40
229.9407	20
243.0498	248
244.0015	70
252.8763	20
253.9675	25
255.0495	304
255.9985	50
256.8985	22
271.0412	439
271.95779	106
272.78171	31
283.03909	285
283.89471	46
297.20209	23
299.04419	101
300.0419	572
300.94119	105
301.8309	33

NAME: Kaempferol; LC-ESI-QTOF; MS2; CE
PRECURSORMZ: 285.040462
PRECURSORTYPE: [M-H]-
FORMULA: C15H10O6
Ontology: Flavonols
INCHIKEY: IYRMWMYZSQPJKC-UHFFFAOYSA-N
SMILES: OC1=CC=C(C=C1)C1=C(O)C(=O)C2=C(O)C=C(O)C=C2O1
RETENTIONTIME: 
CCS: 163.4159869
IONMODE: Negative
INSTRUMENTTYPE: LC-ESI-QTOF
INSTRUMENT: 
COLLISIONENERGY: 
Comment: registered in MassBank
Num Peaks: 27
93.0338	33
107.0136	15
108.0212	12
117.0346	25
143.05051	19
145.03011	15
151.0043	18
154.04311	12
155.05	11
159.04559	22
161.0246	12
163.0045	10
169.06599	12
171.04559	15
183.04601	12
185.06149	23
187.0406	22
211.0405	20
213.0562	11
214.02769	10
227.03529	17
229.0511	20
239.03551	22
255.0304	10
257.04611	12
285.03989	1000
285.26431	15

NAME: Kaempferol; LC-ESI-QTOF; MS2; CE
PRECURSORMZ: 285.040462
PRECURSORTYPE: [M-H]-
FORMULA: C15H10O6
Ontology: Flavonols
INCHIKEY: IYRMWMYZSQPJKC-UHFFFAOYSA-N
SMILES: OC1=CC=C(C=C1)C1=C(O)C(=O)C2=C(O)C=C(O)C=C2O1
RETENTIONTIME: 
CCS: 163.4159869
IONMODE: Negative
INSTRUMENTTYPE: LC-ESI-QTOF
INSTRUMENT: 
COLLISIONENERGY: 30
Comment: registered in MassBank
Num Peaks: 177
50.5644	26
51.4676	24
52.4136	30
53.2875	29
54.2127	23
55.2823	28
58.9573	28
59.8702	22
60.8869	26
63.0446	96
64.0747	29
65.0786	127
66.0003	30
67.0539	54
69.0104	40
69.9423	22
70.8238	21
72.0766	20
74.6172	27
75.474	22
77.0471	41
78.0449	20
79.05	74
80.0285	65
81.0017	47
82.0036	29
83.05	197
83.8994	40
84.9541	24
86.0858	24
89.0492	58
91.0593	158
92.0873	177
93.0676	1000
93.9854	150
95.0551	180
96.002	53
97.0403	30
103.1898	26
104.1064	22
105.0908	158
106.0276	60
107.0513	395
108.0639	490
109.0376	317
109.9277	54
111.2568	35
112.7401	20
114.1555	20
115.1314	62
116.1727	37
117.0751	658
117.9098	100
119.0742	219
120.0183	155
120.9995	143
121.9386	46
123.046	153
123.9722	65
125.2215	32
126.8559	37
127.9269	47
129.0273	110
130.05721	163
131.0816	308
132.0248	120
133.0744	246
133.9427	58
135.0515	310
136.039	206
137.0343	227
137.85629	55
139.0526	55
140.0088	34
141.0439	119
142.0636	112
143.0891	712
143.9902	149
145.0621	577
145.9295	144
147.03191	112
147.9552	58
148.97839	45
150.04829	33
151.02209	230
151.94099	66
152.9693	47
154.06709	281
155.058	362
156.076	351
157.0755	560
158.02831	333
159.0665	734
159.95599	172
161.0433	483
161.8954	99
163.01151	213
164.0143	217
165.01089	101
165.9855	47
167.0799	300
168.02879	160
169.0761	222
170.04919	122
171.0715	411
171.9852	103
173.061	263
174.00661	118
175.011	88
175.9731	35
176.9536	39
177.8132	21
179.06081	41
180.01781	39
181.05099	28
182.0578	141
183.0829	399
184.04691	327
185.05431	544
185.9664	172
187.05901	614
187.97211	150
188.9734	78
189.9567	47
190.9975	94
191.9998	66
192.9169	34
193.7756	24
195.0768	171
196.00771	74
196.9886	84
198.02721	94
199.0491	101
200.0546	67
201.05659	158
201.95911	54
209.0081	32
210.06281	134
211.0589	577
211.99719	175
213.01711	185
214.01311	260
215.00031	179
215.9017	64
216.8992	35
218.1631	25
219.0885	58
220.8813	20
223.03551	61
223.9845	31
224.83749	27
225.80299	47
227.049	522
228.0157	127
229.0383	269
229.9445	62
231.4677	26
235.8513	22
238.0285	70
239.05431	471
240.0088	205
240.96181	88
241.9942	35
243.0377	112
243.9095	29
252.5667	20
255.0522	363
255.9836	102
257.00519	74
257.92169	25
266.04639	29
267.07019	147
268.05151	147
268.9888	38
282.72269	32
284.0126	82
285.0527	810

NAME: Kaempferide; LC-ESI-QTOF; MS2; CE
PRECURSORMZ: 299.056112
PRECURSORTYPE: [M-H]-
FORMULA: C16H12O6
Ontology: Flavonols
INCHIKEY: SQFSKOYWJBQGKQ-UHFFFAOYSA-N
SMILES: COC1=CC=C(C=C1)C1=C(O)C(=O)C2=C(O)C=C(O)C=C2O1
RETENTIONTIME: 
CCS: 168.79172
IONMODE: Negative
INSTRUMENTTYPE: LC-ESI-QTOF
INSTRUMENT: 
COLLISIONENERGY: 
Comment: registered in MassBank
Num Peaks: 22
63.0219	32
65.0011	26
83.0127	55
92.0257	17
104.0261	15
107.0134	124
108.0211	40
120.0214	26
132.02161	66
149.9959	18
151.00369	225
163.00391	69
164.0114	75
211.0403	15
227.0351	39
228.0426	16
255.0303	38
283.02539	22
284.03229	862
284.2869	17
285.03619	41
299.05551	1000

NAME: Kaempferide; LC-ESI-QTOF; MS2; CE
PRECURSORMZ: 299.056112
PRECURSORTYPE: [M-H]-
FORMULA: C16H12O6
Ontology: Flavonols
INCHIKEY: SQFSKOYWJBQGKQ-UHFFFAOYSA-N
SMILES: COC1=CC=C(C=C1)C1=C(O)C(=O)C2=C(O)C=C(O)C=C2O1
RETENTIONTIME: 
CCS: 168.79172
IONMODE: Negative
INSTRUMENTTYPE: LC-ESI-QTOF
INSTRUMENT: 
COLLISIONENERGY: 30
Comment: registered in MassBank
Num Peaks: 47
63.0549	125
65.0387	76
83.0377	268
84.0306	31
92.0581	47
94.0301	47
104.0685	35
106.1794	27
107.0493	724
107.9647	214
108.8666	38
120.084	152
120.9344	23
122.052	93
131.08031	23
132.054	312
132.9288	44
133.8488	20
135.02499	46
136.0365	92
150.0013	99
151.0345	1000
151.8788	144
152.778	51
153.8869	31
156.11011	44
163.0318	291
164.03059	407
164.899	67
167.0508	24
183.0544	37
184.00301	30
199.0757	55
200.043	69
211.0397	70
211.9818	40
212.9485	24
227.05659	196
228.034	69
239.01759	51
240.0901	29
255.0424	202
255.9846	58
283.05609	119
284.04681	598
284.93481	109
285.9317	30

NAME: Luteolin; LC-ESI-QTOF; MS2; CE
PRECURSORMZ: 285.040462
PRECURSORTYPE: [M-H]-
FORMULA: C15H10O6
Ontology: Flavones
INCHIKEY: IQPNAANSBPBGFQ-UHFFFAOYSA-N
SMILES: OC1=CC(O)=C2C(=O)C=C(OC2=C1)C1=CC(O)=C(O)C=C1
RETENTIONTIME: 
CCS: 163.4002984
IONMODE: Negative
INSTRUMENTTYPE: LC-ESI-QTOF
INSTRUMENT: 
COLLISIONENERGY: 
Comment: registered in MassBank
Num Peaks: 17
65.0013	12
83.0129	11
105.0341	12
107.0137	38
121.0296	12
132.02161	46
133.0294	327
134.03329	13
149.0244	30
151.0038	75
175.0403	44
199.0405	37
201.0195	17
217.0508	22
241.0504	14
243.0303	11
285.03989	1000

NAME: Myricetin; LC-ESI-QTOF; MS2; CE
PRECURSORMZ: 317.030291
PRECURSORTYPE: [M-H]-
FORMULA: C15H10O8
Ontology: Flavonols
INCHIKEY: IKMDFBPHZNJCSN-UHFFFAOYSA-N
SMILES: OC1=CC(O)=C2C(OC(=C(O)C2=O)C2=CC(O)=C(O)C(O)=C2)=C1
RETENTIONTIME: 
CCS: 168.5663874
IONMODE: Negative
INSTRUMENTTYPE: LC-ESI-QTOF
INSTRUMENT: 
COLLISIONENERGY: 
Comment: registered in MassBank
Num Peaks: 18
63.0217	14
65.001	29
81.0332	14
83.0126	39
107.0133	109
109.029	153
125.0244	14
137.02431	283
151.00349	389
152.0087	12
163.00391	12
165.0193	30
178.9984	254
192.00639	19
193.01421	16
227.0356	10
271.02509	26
317.02979	1000

NAME: Myricetin; LC-ESI-QTOF; MS2; CE
PRECURSORMZ: 317.030291
PRECURSORTYPE: [M-H]-
FORMULA: C15H10O8
Ontology: Flavonols
INCHIKEY: IKMDFBPHZNJCSN-UHFFFAOYSA-N
SMILES: OC1=CC(O)=C2C(OC(=C(O)C2=O)C2=CC(O)=C(O)C(O)=C2)=C1
RETENTIONTIME: 
CCS: 168.5663874
IONMODE: Negative
INSTRUMENTTYPE: LC-ESI-QTOF
INSTRUMENT: 
COLLISIONENERGY: 30
Comment: registered in MassBank
Num Peaks: 37
63.0476	76
65.016	128
81.0829	50
83.0485	177
96.0001	28
107.0459	577
107.9812	91
109.0522	657
109.8396	73
110.7127	27
119.0094	25
120.7409	21
124.0613	37
125.0505	48
135.06911	22
136.0947	47
137.0549	959
137.8844	130
138.8201	34
149.1037	35
150.0721	39
151.03011	1000
151.9063	136
152.7854	35
155.01289	33
160.97659	20
163.0161	32
164.0027	53
165.04961	104
179.0262	101
183.0177	26
191.0847	24
193.033	22
199.0629	23
227.0459	32
243.06531	23
271.0282	79

NAME: Naringenin; LC-ESI-QTOF; MS2; CE
PRECURSORMZ: 271.061197
PRECURSORTYPE: [M-H]-
FORMULA: C15H12O5
Ontology: Flavanones
INCHIKEY: FTVWIRXFELQLPI-ZDUSSCGKSA-N
SMILES: OC1=CC=C(C=C1)[C@@H]1CC(=O)C2=C(O)C=C(O)C=C2O1
RETENTIONTIME: 
CCS: 163.1992494
IONMODE: Negative
INSTRUMENTTYPE: LC-ESI-QTOF
INSTRUMENT: 
COLLISIONENERGY: 
Comment: registered in MassBank
Num Peaks: 17
63.0218	22
65.0013	50
83.0129	70
93.0339	77
107.0135	183
117.0348	16
119.0501	608
120.0534	18
145.02991	19
151.0038	601
152.0069	15
161.0612	15
165.0199	32
177.01961	88
187.0401	28
271.06061	1000
271.2796	17

NAME: Naringenin; LC-ESI-QTOF; MS2; CE
PRECURSORMZ: 271.061197
PRECURSORTYPE: [M-H]-
FORMULA: C15H12O5
Ontology: Flavanones
INCHIKEY: FTVWIRXFELQLPI-ZDUSSCGKSA-N
SMILES: OC1=CC=C(C=C1)[C@@H]1CC(=O)C2=C(O)C=C(O)C=C2O1
RETENTIONTIME: 
CCS: 163.1992494
IONMODE: Negative
INSTRUMENTTYPE: LC-ESI-QTOF
INSTRUMENT: 
COLLISIONENERGY: 30
Comment: registered in MassBank
Num Peaks: 18
63.0573	64
65.0526	126
83.0549	154
93.0858	70
107.0455	245
107.9775	43
108.9926	23
117.0615	32
118.1575	35
119.0815	1000
119.9467	138
120.8579	43
143.0963	39
145.0768	33
151.0331	127
151.9353	21
161.075	35
187.07179	60

NAME: Pelargonin; LC-ESI-QTOF; MS2; CE
PRECURSORMZ: 611.16121
PRECURSORTYPE: [M-H+OH]-
FORMULA: C27H31O15
Ontology: Anthocyanidin-5-O-glycosides
INCHIKEY: SLCKJKWFULXZBD-ZOTFFYTFSA-O
SMILES: OC[C@H]1O[C@@H](OC2=CC(O)=CC3=C2C=C(O[C@@H]2O[C@H](CO)[C@@H](O)[C@H](O)[C@H]2O)C(=[O+]3)C2=CC=C(O)C=C2)[C@H](O)[C@@H](O)[C@@H]1O
RETENTIONTIME: 
CCS: -1
IONMODE: Negative
INSTRUMENTTYPE: LC-ESI-QTOF
INSTRUMENT: 
COLLISIONENERGY: 
Comment: registered in MassBank
Num Peaks: 13
93.0334	52
137.0237	61
149.02361	151
165.01871	237
192.00549	50
193.01331	362
201.0549	63
269.04449	302
287.05499	324
355.06589	190
449.10779	1000
450.11139	69
611.16119	451

NAME: Pelargonin; LC-ESI-QTOF; MS2; CE
PRECURSORMZ: 611.16121
PRECURSORTYPE: [M-H+OH]-
FORMULA: C27H31O15
Ontology: Anthocyanidin-5-O-glycosides
INCHIKEY: SLCKJKWFULXZBD-ZOTFFYTFSA-O
SMILES: OC[C@H]1O[C@@H](OC2=CC(O)=CC3=C2C=C(O[C@@H]2O[C@H](CO)[C@@H](O)[C@H](O)[C@H]2O)C(=[O+]3)C2=CC=C(O)C=C2)[C@H](O)[C@@H](O)[C@@H]1O
RETENTIONTIME: 
CCS: -1
IONMODE: Negative
INSTRUMENTTYPE: LC-ESI-QTOF
INSTRUMENT: 
COLLISIONENERGY: 30
Comment: registered in MassBank
Num Peaks: 47
93.088	45
120.0111	51
121.0426	43
137.0052	31
149.0368	195
149.97861	33
162.8624	27
164.0144	35
165.05769	326
165.95219	52
167.0741	87
167.96761	27
176.95599	24
189.0343	39
191.0415	72
191.996	97
193.0361	1000
193.8484	140
194.7722	58
195.7278	26
201.0735	92
202.05769	20
207.06509	25
217.0471	36
219.0334	23
243.1017	52
259.08029	33
266.71979	23
267.98941	42
269.06421	667
269.9733	125
270.99261	57
271.96109	22
284.88	29
286.10101	54
287.06931	998
287.96951	177
288.9263	65
290.16241	31
311.07419	125
312.0058	22
329.10999	41
354.05151	44
355.0806	212
356.05099	44
449.12189	204
450.0271	41

NAME: Quercetin; LC-ESI-QTOF; MS2; CE
PRECURSORMZ: 301.035376
PRECURSORTYPE: [M-H]-
FORMULA: C15H10O7
Ontology: Flavonols
INCHIKEY: REFJWTPEDVJJIY-UHFFFAOYSA-N
SMILES: OC1=CC(O)=C2C(OC(=C(O)C2=O)C2=CC(O)=C(O)C=C2)=C1
RETENTIONTIME: 
CCS: 166.0397546
IONMODE: Negative
INSTRUMENTTYPE: LC-ESI-QTOF
INSTRUMENT: 
COLLISIONENERGY: 
Comment: registered in MassBank
Num Peaks: 18
63.022	17
65.0014	43
83.0128	55
93.0339	45
107.0135	150
108.0202	15
109.0291	18
121.0292	168
149.0246	31
151.00369	538
152.0085	19
161.02431	16
164.0116	18
178.9987	223
229.05009	19
245.0455	18
273.04099	36
301.03479	1000

NAME: Quercetin; LC-ESI-QTOF; MS2; CE
PRECURSORMZ: 603.078029
PRECURSORTYPE: [2M-H]-
FORMULA: C15H10O7
Ontology: Flavonols
INCHIKEY: REFJWTPEDVJJIY-UHFFFAOYSA-N
SMILES: OC1=CC(O)=C2C(OC(=C(O)C2=O)C2=CC(O)=C(O)C=C2)=C1
RETENTIONTIME: 
CCS: -1
IONMODE: Negative
INSTRUMENTTYPE: LC-ESI-QTOF
INSTRUMENT: 
COLLISIONENERGY: 
Comment: registered in MassBank
Num Peaks: 8
107.0124	32
121.0281	38
151.0024	206
178.9971	98
273.03799	18
301.0325	1000
302.0365	45
603.07751	17

NAME: Quercetin; LC-ESI-QTOF; MS2; CE
PRECURSORMZ: 301.035376
PRECURSORTYPE: [M-H]-
FORMULA: C15H10O7
Ontology: Flavonols
INCHIKEY: REFJWTPEDVJJIY-UHFFFAOYSA-N
SMILES: OC1=CC(O)=C2C(OC(=C(O)C2=O)C2=CC(O)=C(O)C=C2)=C1
RETENTIONTIME: 
CCS: 166.0397546
IONMODE: Negative
INSTRUMENTTYPE: LC-ESI-QTOF
INSTRUMENT: 
COLLISIONENERGY: 30
Comment: registered in MassBank
Num Peaks: 74
63.0565	110
65.0388	212
65.8457	25
83.0529	321
83.8655	28
93.0713	228
93.9228	31
95.0122	39
96.035	49
106.2407	21
107.0446	864
107.9581	175
109.009	176
109.8356	28
110.8587	22
117.1232	21
118.9831	26
120.0683	49
121.0643	774
121.9168	99
122.8908	41
124.0176	44
124.9845	35
128.9623	20
131.9021	24
133.0248	33
135.075	43
136.03	37
137.04041	35
139.0623	66
143.0321	26
145.0173	37
145.9622	23
147.04581	40
148.0376	40
149.08	152
150.0403	57
151.0352	1000
151.90601	168
152.7914	45
153.7569	25
155.04829	27
157.08009	27
158.0831	34
159.0621	74
159.97369	22
161.06931	94
161.9962	36
163.0228	87
164.0166	93
164.9389	33
167.0715	25
171.0791	23
173.0276	27
175.07471	37
177.0737	27
178.99899	62
183.054	44
184.99049	31
187.0271	40
193.04829	30
199.0578	38
201.0829	43
203.06911	27
211.0376	39
213.06551	24
227.0285	62
229.043	25
230.0183	22
243.0412	46
245.0582	35
255.0025	24
256.07321	25
271.0311	20

NAME: Quercetin; LC-ESI-QTOF; MS2; CE
PRECURSORMZ: 603.078029
PRECURSORTYPE: [2M-H]-
FORMULA: C15H10O7
Ontology: Flavonols
INCHIKEY: REFJWTPEDVJJIY-UHFFFAOYSA-N
SMILES: OC1=CC(O)=C2C(OC(=C(O)C2=O)C2=CC(O)=C(O)C=C2)=C1
RETENTIONTIME: 
CCS: -1
IONMODE: Negative
INSTRUMENTTYPE: LC-ESI-QTOF
INSTRUMENT: 
COLLISIONENERGY: 30
Comment: registered in MassBank
Num Peaks: 8
151.03661	178
151.85139	35
179.028	153
300.10901	23
301.05011	1000
301.95941	156
302.81039	52
303.689	24

NAME: Rhamnetin; LC-ESI-QTOF; MS2; CE
PRECURSORMZ: 315.051026
PRECURSORTYPE: [M-H]-
FORMULA: C16H12O7
Ontology: Flavonols
INCHIKEY: JGUZGNYPMHHYRK-UHFFFAOYSA-N
SMILES: COC1=CC(O)=C2C(=O)C(O)=C(OC2=C1)C1=CC(O)=C(O)C=C1
RETENTIONTIME: 
CCS: 171.307299
IONMODE: Negative
INSTRUMENTTYPE: LC-ESI-QTOF
INSTRUMENT: 
COLLISIONENERGY: 
Comment: registered in MassBank
Num Peaks: 21
65.0013	38
89.0024	41
91.0179	20
93.0339	52
97.0287	72
109.0289	22
121.0294	266
149.02451	28
149.9957	47
151.0041	35
163.0042	28
165.01939	605
193.0141	78
227.0351	20
228.043	21
255.0298	21
271.0246	24
272.0322	21
287.0564	33
300.02789	143
315.05051	1000

NAME: Rhamnetin; LC-ESI-QTOF; MS2; CE
PRECURSORMZ: 631.109329
PRECURSORTYPE: [2M-H]-
FORMULA: C16H12O7
Ontology: Flavonols
INCHIKEY: JGUZGNYPMHHYRK-UHFFFAOYSA-N
SMILES: COC1=CC(O)=C2C(=O)C(O)=C(OC2=C1)C1=CC(O)=C(O)C=C1
RETENTIONTIME: 
CCS: -1
IONMODE: Negative
INSTRUMENTTYPE: LC-ESI-QTOF
INSTRUMENT: 
COLLISIONENERGY: 
Comment: registered in MassBank
Num Peaks: 18
97.0281	10
121.0285	66
151.0025	8
165.0183	241
193.013	42
228.04111	8
272.03021	8
287.05511	16
300.0253	58
315.04901	1000
315.3219	9
315.63599	9
315.68829	9
315.77261	9
315.8165	11
315.85699	9
316.05261	38
631.10883	14

NAME: Rhamnetin; LC-ESI-QTOF; MS2; CE
PRECURSORMZ: 315.051026
PRECURSORTYPE: [M-H]-
FORMULA: C16H12O7
Ontology: Flavonols
INCHIKEY: JGUZGNYPMHHYRK-UHFFFAOYSA-N
SMILES: COC1=CC(O)=C2C(=O)C(O)=C(OC2=C1)C1=CC(O)=C(O)C=C1
RETENTIONTIME: 
CCS: 171.307299
IONMODE: Negative
INSTRUMENTTYPE: LC-ESI-QTOF
INSTRUMENT: 
COLLISIONENERGY: 30
Comment: registered in MassBank
Num Peaks: 74
63.008	29
65.0525	189
65.9114	23
83.0794	56
89.0374	153
89.8712	21
91.0408	87
91.9987	20
93.0664	220
93.9713	59
94.9987	31
96.1479	23
97.0765	428
97.8732	32
107.0552	108
108.0179	64
109.0633	94
120.2319	42
121.0687	987
121.9558	183
122.839	77
123.9694	52
124.9605	21
133.0544	22
134.9436	26
136.0885	49
136.9729	33
137.9267	21
139.0793	63
140.05791	22
146.9823	35
148.0284	74
149.013	109
150.03551	283
151.0007	228
151.92931	69
159.1022	21
161.01401	39
163.0459	157
164.0168	117
165.0441	1000
165.9108	143
166.7597	41
167.78951	22
172.05991	32
173.9722	36
183.10201	43
192.0386	57
198.0274	24
199.0224	38
200.02521	44
201.02769	22
202.0146	26
211.0526	41
215.02049	35
216.04111	59
226.0647	37
227.0365	90
228.00591	51
228.9698	31
242.06129	33
243.0786	110
244.05859	84
244.8912	22
253.96719	22
255.0499	105
256.05899	28
259.04919	31
271.0444	137
272.02411	59
283.01901	52
299.0321	36
300.03809	99
300.9364	21

NAME: Rhamnetin; LC-ESI-QTOF; MS2; CE
PRECURSORMZ: 631.109329
PRECURSORTYPE: [2M-H]-
FORMULA: C16H12O7
Ontology: Flavonols
INCHIKEY: JGUZGNYPMHHYRK-UHFFFAOYSA-N
SMILES: COC1=CC(O)=C2C(=O)C(O)=C(OC2=C1)C1=CC(O)=C(O)C=C1
RETENTIONTIME: 
CCS: -1
IONMODE: Negative
INSTRUMENTTYPE: LC-ESI-QTOF
INSTRUMENT: 
COLLISIONENERGY: 30
Comment: registered in MassBank
Num Peaks: 18
88.7135	12
121.0597	35
165.04559	163
165.90491	25
193.049	70
193.9379	12
258.87451	17
262.4465	11
287.0744	22
300.05179	45
311.88419	13
312.7132	23
314.00131	23
315.06311	1000
315.97089	147
316.84329	45
317.7612	23
318.68188	15

NAME: Sinigrin; LC-ESI-QTOF; MS2; CE
PRECURSORMZ: 358.027196
PRECURSORTYPE: [M-H]-
FORMULA: C10H17NO9S2
Ontology: Alkylglucosinolates
INCHIKEY: PHZOWSSBXJXFOR-PTGZALFTSA-N
SMILES: OC[C@H]1O[C@@H](SC(CC=C)=NOS(O)(=O)=O)[C@H](O)[C@@H](O)[C@@H]1O
RETENTIONTIME: 
CCS: 170.1700775
IONMODE: Negative
INSTRUMENTTYPE: LC-ESI-QTOF
INSTRUMENT: 
COLLISIONENERGY: 30
Comment: registered in MassBank
Num Peaks: 15
71.0658	41
75.022	961
75.8668	84
76.7073	20
79.9814	131
80.9672	69
85.0837	21
95.2115	23
95.9843	983
96.9758	1000
97.8002	100
98.7125	31
101.0444	48
116.0333	52
138.9958	26

NAME: Cosmosiin; LC-ESI-QTOF; MS2; CE
PRECURSORMZ: 431.09837
PRECURSORTYPE: [M-H]-
FORMULA: C21H20O10
Ontology: Flavonoid-7-O-glycosides
INCHIKEY: KMOUJOKENFFTPU-QNDFHXLGSA-N
SMILES: OC[C@H]1O[C@@H](OC2=CC(O)=C3C(=O)C=C(OC3=C2)C2=CC=C(O)C=C2)[C@H](O)[C@@H](O)[C@@H]1O
RETENTIONTIME: 
CCS: 197.0643546
IONMODE: Negative
INSTRUMENTTYPE: LC-ESI-QTOF
INSTRUMENT: 
COLLISIONENERGY: 
Comment: registered in MassBank
Num Peaks: 11
107.0135	35
117.0343	26
151.00369	46
211.0397	55
239.03439	57
240.04269	58
267.0296	33
268.03711	883
269.04449	333
270.04919	21
431.09781	1000

NAME: Cosmosiin; LC-ESI-QTOF; MS2; CE
PRECURSORMZ: 863.204017
PRECURSORTYPE: [2M-H]-
FORMULA: C21H20O10
Ontology: Flavonoid-7-O-glycosides
INCHIKEY: KMOUJOKENFFTPU-QNDFHXLGSA-N
SMILES: OC[C@H]1O[C@@H](OC2=CC(O)=C3C(=O)C=C(OC3=C2)C2=CC=C(O)C=C2)[C@H](O)[C@@H](O)[C@@H]1O
RETENTIONTIME: 
CCS: -1
IONMODE: Negative
INSTRUMENTTYPE: LC-ESI-QTOF
INSTRUMENT: 
COLLISIONENERGY: 
Comment: registered in MassBank
Num Peaks: 7
268.03711	139
269.04489	112
431.09811	1000
431.77481	11
431.92261	10
432.1012	45
863.20349	117

NAME: Cosmosiin; LC-ESI-QTOF; MS2; CE
PRECURSORMZ: 431.09837
PRECURSORTYPE: [M-H]-
FORMULA: C21H20O10
Ontology: Flavonoid-7-O-glycosides
INCHIKEY: KMOUJOKENFFTPU-QNDFHXLGSA-N
SMILES: OC[C@H]1O[C@@H](OC2=CC(O)=C3C(=O)C=C(OC3=C2)C2=CC=C(O)C=C2)[C@H](O)[C@@H](O)[C@@H]1O
RETENTIONTIME: 
CCS: 197.0643546
IONMODE: Negative
INSTRUMENTTYPE: LC-ESI-QTOF
INSTRUMENT: 
COLLISIONENERGY: 30
Comment: registered in MassBank
Num Peaks: 8
240.06261	22
266.0033	25
267.0036	37
268.05969	1000
269.0195	357
269.92181	81
270.83511	33
431.10999	30

NAME: Cosmosiin; LC-ESI-QTOF; MS2; CE
PRECURSORMZ: 863.204017
PRECURSORTYPE: [2M-H]-
FORMULA: C21H20O10
Ontology: Flavonoid-7-O-glycosides
INCHIKEY: KMOUJOKENFFTPU-QNDFHXLGSA-N
SMILES: OC[C@H]1O[C@@H](OC2=CC(O)=C3C(=O)C=C(OC3=C2)C2=CC=C(O)C=C2)[C@H](O)[C@@H](O)[C@@H]1O
RETENTIONTIME: 
CCS: -1
IONMODE: Negative
INSTRUMENTTYPE: LC-ESI-QTOF
INSTRUMENT: 
COLLISIONENERGY: 30
Comment: registered in MassBank
Num Peaks: 5
269.05051	32
431.10971	1000
432.0495	140
432.93079	47
433.81812	24

NAME: Rhoifolin; LC-ESI-QTOF; MS2; CE
PRECURSORMZ: 577.156279
PRECURSORTYPE: [M-H]-
FORMULA: C27H30O14
Ontology: Flavonoid-7-O-glycosides
INCHIKEY: RPMNUQRUHXIGHK-PYXJVEIZSA-N
SMILES: C[C@@H]1O[C@@H](O[C@@H]2[C@@H](O)[C@H](O)[C@@H](CO)O[C@H]2OC2=CC(O)=C3C(=O)C=C(OC3=C2)C2=CC=C(O)C=C2)[C@H](O)[C@H](O)[C@H]1O
RETENTIONTIME: 
CCS: 222.168329
IONMODE: Negative
INSTRUMENTTYPE: LC-ESI-QTOF
INSTRUMENT: 
COLLISIONENERGY: 
Comment: registered in MassBank
Num Peaks: 14
117.034	13
151.0034	12
225.0551	11
239.03439	12
240.0419	14
268.0372	252
269.04459	974
269.2937	20
269.47891	11
269.73001	11
269.75851	11
270.0491	75
413.0878	14
577.1557	1000

NAME: Rhoifolin; LC-ESI-QTOF; MS2; CE
PRECURSORMZ: 577.156279
PRECURSORTYPE: [M-H]-
FORMULA: C27H30O14
Ontology: Flavonoid-7-O-glycosides
INCHIKEY: RPMNUQRUHXIGHK-PYXJVEIZSA-N
SMILES: C[C@@H]1O[C@@H](O[C@@H]2[C@@H](O)[C@H](O)[C@@H](CO)O[C@H]2OC2=CC(O)=C3C(=O)C=C(OC3=C2)C2=CC=C(O)C=C2)[C@H](O)[C@H](O)[C@H]1O
RETENTIONTIME: 
CCS: 222.168329
IONMODE: Negative
INSTRUMENTTYPE: LC-ESI-QTOF
INSTRUMENT: 
COLLISIONENERGY: 30
Comment: registered in MassBank
Num Peaks: 11
75.113	13
222.7845	12
266.86292	25
268.05869	104
269.06851	1000
269.97699	155
270.87259	43
271.78922	23
272.71021	14
413.09659	21
577.16217	83

NAME: Baicalin; LC-ESI-QTOF; MS2; CE
PRECURSORMZ: 445.077635
PRECURSORTYPE: [M-H]-
FORMULA: C21H18O11
Ontology: Flavonoid-7-O-glucuronides
INCHIKEY: IKIIZLYTISPENI-ZFORQUDYSA-N
SMILES: O[C@@H]1[C@@H](O)[C@H](OC2=C(O)C(O)=C3C(=O)C=C(OC3=C2)C2=CC=CC=C2)O[C@@H]([C@H]1O)C(O)=O
RETENTIONTIME: 
CCS: 198.5176695
IONMODE: Negative
INSTRUMENTTYPE: LC-ESI-QTOF
INSTRUMENT: 
COLLISIONENERGY: 
Comment: registered in MassBank
Num Peaks: 12
85.0278	31
113.0238	88
136.9879	26
169.06551	26
175.0244	45
195.045	32
223.0399	37
241.0504	31
251.0354	27
269.04501	1000
270.04889	84
445.07709	184

NAME: Baicalin; LC-ESI-QTOF; MS2; CE
PRECURSORMZ: 891.162546
PRECURSORTYPE: [2M-H]-
FORMULA: C21H18O11
Ontology: Flavonoid-7-O-glucuronides
INCHIKEY: IKIIZLYTISPENI-ZFORQUDYSA-N
SMILES: O[C@@H]1[C@@H](O)[C@H](OC2=C(O)C(O)=C3C(=O)C=C(OC3=C2)C2=CC=CC=C2)O[C@@H]([C@H]1O)C(O)=O
RETENTIONTIME: 
CCS: -1
IONMODE: Negative
INSTRUMENTTYPE: LC-ESI-QTOF
INSTRUMENT: 
COLLISIONENERGY: 
Comment: registered in MassBank
Num Peaks: 8
85.0281	22
113.0237	121
175.0242	83
269.04459	1000
270.04749	32
445.0773	706
446.07889	23
891.16199	503

NAME: Baicalin; LC-ESI-QTOF; MS2; CE
PRECURSORMZ: 445.077635
PRECURSORTYPE: [M-H]-
FORMULA: C21H18O11
Ontology: Flavonoid-7-O-glucuronides
INCHIKEY: IKIIZLYTISPENI-ZFORQUDYSA-N
SMILES: O[C@@H]1[C@@H](O)[C@H](OC2=C(O)C(O)=C3C(=O)C=C(OC3=C2)C2=CC=CC=C2)O[C@@H]([C@H]1O)C(O)=O
RETENTIONTIME: 
CCS: 198.5176695
IONMODE: Negative
INSTRUMENTTYPE: LC-ESI-QTOF
INSTRUMENT: 
COLLISIONENERGY: 30
Comment: registered in MassBank
Num Peaks: 26
75.0384	16
85.0534	35
95.0264	13
99.0193	18
113.0337	15
137.0318	15
169.08771	27
171.0218	10
179.0661	13
195.0746	20
196.0025	10
197.0746	23
223.0562	50
223.9552	15
225.0347	20
225.9895	14
241.08279	44
251.05949	49
252.0706	12
266.88861	26
267.89771	30
269.06329	1000
269.9917	202
270.87869	53
271.7395	22
272.65359	14

NAME: Baicalin; LC-ESI-QTOF; MS2; CE
PRECURSORMZ: 891.162546
PRECURSORTYPE: [2M-H]-
FORMULA: C21H18O11
Ontology: Flavonoid-7-O-glucuronides
INCHIKEY: IKIIZLYTISPENI-ZFORQUDYSA-N
SMILES: O[C@@H]1[C@@H](O)[C@H](OC2=C(O)C(O)=C3C(=O)C=C(OC3=C2)C2=CC=CC=C2)O[C@@H]([C@H]1O)C(O)=O
RETENTIONTIME: 
CCS: -1
IONMODE: Negative
INSTRUMENTTYPE: LC-ESI-QTOF
INSTRUMENT: 
COLLISIONENERGY: 30
Comment: registered in MassBank
Num Peaks: 13
113.0581	215
114.0329	35
175.04739	167
175.888	21
267.02609	25
268.07269	24
269.06131	1000
269.9501	136
270.81839	37
271.81259	22
445.0856	335
446.06149	49
446.98511	21

NAME: Keracyanin; LC-ESI-QTOF; MS2; CE
PRECURSORMZ: 593.150645
PRECURSORTYPE: [M-2H]-
FORMULA: C27H31O15
Ontology: Anthocyanidin-3-O-glycosides
INCHIKEY: USNPULRDBDVJAO-FXCAAIILSA-O
SMILES: C[C@@H]1O[C@@H](OC[C@H]2O[C@@H](OC3=C([O+]=C4C=C(O)C=C(O)C4=C3)C3=CC(O)=C(O)C=C3)[C@H](O)[C@@H](O)[C@@H]2O)[C@H](O)[C@H](O)[C@H]1O
RETENTIONTIME: 
CCS: -1
IONMODE: Negative
INSTRUMENTTYPE: LC-ESI-QTOF
INSTRUMENT: 
COLLISIONENERGY: 
Comment: registered in MassBank
Num Peaks: 14
125.0239	26
147.00841	42
211.0401	24
227.0336	24
239.0332	32
240.041	25
255.0293	78
256.0368	42
257.04449	32
283.0239	67
284.03149	512
285.03909	333
299.05539	40
593.15057	1000

NAME: Keracyanin; LC-ESI-QTOF; MS2; CE
PRECURSORMZ: 611.16121
PRECURSORTYPE: [M-2H+H2O]-
FORMULA: C27H31O15
Ontology: Anthocyanidin-3-O-glycosides
INCHIKEY: USNPULRDBDVJAO-FXCAAIILSA-O
SMILES: C[C@@H]1O[C@@H](OC[C@H]2O[C@@H](OC3=C([O+]=C4C=C(O)C=C(O)C4=C3)C3=CC(O)=C(O)C=C3)[C@H](O)[C@@H](O)[C@@H]2O)[C@H](O)[C@H](O)[C@H]1O
RETENTIONTIME: 
CCS: -1
IONMODE: Negative
INSTRUMENTTYPE: LC-ESI-QTOF
INSTRUMENT: 
COLLISIONENERGY: 
Comment: registered in MassBank
Num Peaks: 14
125.0239	23
147.0049	23
227.0351	22
239.035	26
255.0296	65
256.03271	20
256.04129	27
257.04529	22
283.02441	48
284.03149	495
285.03909	329
299.05579	34
593.15057	1000
594.15771	62

NAME: Keracyanin; LC-ESI-QTOF; MS2; CE
PRECURSORMZ: 593.150645
PRECURSORTYPE: [M-2H]-
FORMULA: C27H31O15
Ontology: Anthocyanidin-3-O-glycosides
INCHIKEY: USNPULRDBDVJAO-FXCAAIILSA-O
SMILES: C[C@@H]1O[C@@H](OC[C@H]2O[C@@H](OC3=C([O+]=C4C=C(O)C=C(O)C4=C3)C3=CC(O)=C(O)C=C3)[C@H](O)[C@@H](O)[C@@H]2O)[C@H](O)[C@H](O)[C@H]1O
RETENTIONTIME: 
CCS: -1
IONMODE: Negative
INSTRUMENTTYPE: LC-ESI-QTOF
INSTRUMENT: 
COLLISIONENERGY: 30
Comment: registered in MassBank
Num Peaks: 29
101.021	43
125.0548	118
143.09979	34
149.0587	413
149.92841	55
161.0542	33
163.0882	57
165.0708	40
166.03329	79
167.0625	177
175.0728	41
176.0087	40
177.0139	31
192.0403	121
193.0303	98
199.07249	111
205.07069	70
217.08369	119
219.01109	32
241.07111	471
241.9547	92
243.0056	83
285.05261	1000
285.97131	180
286.86111	49
475.15601	483
476.0972	79
485.1355	49
501.1351	66

NAME: Keracyanin; LC-ESI-QTOF; MS2; CE
PRECURSORMZ: 611.16121
PRECURSORTYPE: [M-2H+H2O]-
FORMULA: C27H31O15
Ontology: Anthocyanidin-3-O-glycosides
INCHIKEY: USNPULRDBDVJAO-FXCAAIILSA-O
SMILES: C[C@@H]1O[C@@H](OC[C@H]2O[C@@H](OC3=C([O+]=C4C=C(O)C=C(O)C4=C3)C3=CC(O)=C(O)C=C3)[C@H](O)[C@@H](O)[C@@H]2O)[C@H](O)[C@H](O)[C@H]1O
RETENTIONTIME: 
CCS: -1
IONMODE: Negative
INSTRUMENTTYPE: LC-ESI-QTOF
INSTRUMENT: 
COLLISIONENERGY: 30
Comment: registered in MassBank
Num Peaks: 9
125.0667	53
282.1102	30
283.0322	67
284.0462	1000
285.03409	727
285.94351	143
286.87631	51
299.07559	73
593.15698	37

NAME: Eriodictyol-7-O-glucoside; LC-ESI-QTOF; MS2; CE
PRECURSORMZ: 449.108935
PRECURSORTYPE: [M-H]-
FORMULA: C21H22O11
Ontology: Flavonoid-7-O-glycosides
INCHIKEY: RAFHNDRXYHOLSH-SFTVRKLSSA-N
SMILES: OC[C@H]1O[C@@H](OC2=CC(O)=C3C(=O)C[C@H](OC3=C2)C2=CC(O)=C(O)C=C2)[C@H](O)[C@@H](O)[C@@H]1O
RETENTIONTIME: 
CCS: 227.4137512
IONMODE: Negative
INSTRUMENTTYPE: LC-ESI-QTOF
INSTRUMENT: 
COLLISIONENERGY: 
Comment: registered in MassBank
Num Peaks: 11
83.0124	21
107.0132	96
125.0237	25
135.0446	549
136.0481	25
151.00301	676
152.00661	28
175.0029	58
287.05511	1000
288.0585	78
449.1084	254

NAME: Eriodictyol-7-O-glucoside; LC-ESI-QTOF; MS2; CE
PRECURSORMZ: 899.225147
PRECURSORTYPE: [2M-H]-
FORMULA: C21H22O11
Ontology: Flavonoid-7-O-glycosides
INCHIKEY: RAFHNDRXYHOLSH-SFTVRKLSSA-N
SMILES: OC[C@H]1O[C@@H](OC2=CC(O)=C3C(=O)C[C@H](OC3=C2)C2=CC(O)=C(O)C=C2)[C@H](O)[C@@H](O)[C@@H]1O
RETENTIONTIME: 
CCS: -1
IONMODE: Negative
INSTRUMENTTYPE: LC-ESI-QTOF
INSTRUMENT: 
COLLISIONENERGY: 
Comment: registered in MassBank
Num Peaks: 8
135.0446	51
151.00301	247
175.0031	25
287.05511	1000
288.0582	26
449.1088	717
450.11169	21
899.22461	228

NAME: Eriodictyol-7-O-glucoside; LC-ESI-QTOF; MS2; CE
PRECURSORMZ: 449.108935
PRECURSORTYPE: [M-H]-
FORMULA: C21H22O11
Ontology: Flavonoid-7-O-glycosides
INCHIKEY: RAFHNDRXYHOLSH-SFTVRKLSSA-N
SMILES: OC[C@H]1O[C@@H](OC2=CC(O)=C3C(=O)C[C@H](OC3=C2)C2=CC(O)=C(O)C=C2)[C@H](O)[C@@H](O)[C@@H]1O
RETENTIONTIME: 
CCS: 227.4137512
IONMODE: Negative
INSTRUMENTTYPE: LC-ESI-QTOF
INSTRUMENT: 
COLLISIONENERGY: 30
Comment: registered in MassBank
Num Peaks: 14
107.0487	69
125.0564	32
134.1181	23
135.0721	544
135.96001	90
136.87781	28
149.58949	27
151.03081	1000
151.905	139
152.78709	35
165.04919	20
175.04359	73
193.0274	25
287.07239	80

NAME: Eriodictyol-7-O-glucoside; LC-ESI-QTOF; MS2; CE
PRECURSORMZ: 899.225147
PRECURSORTYPE: [2M-H]-
FORMULA: C21H22O11
Ontology: Flavonoid-7-O-glycosides
INCHIKEY: RAFHNDRXYHOLSH-SFTVRKLSSA-N
SMILES: OC[C@H]1O[C@@H](OC2=CC(O)=C3C(=O)C[C@H](OC3=C2)C2=CC(O)=C(O)C=C2)[C@H](O)[C@@H](O)[C@@H]1O
RETENTIONTIME: 
CCS: -1
IONMODE: Negative
INSTRUMENTTYPE: LC-ESI-QTOF
INSTRUMENT: 
COLLISIONENERGY: 30
Comment: registered in MassBank
Num Peaks: 8
151.0047	34
285.93451	25
287.07181	1000
287.94919	136
288.8374	49
289.78922	25
449.11951	165
450.0484	24

NAME: Isorhamnetin-3-O-glucoside; LC-ESI-QTOF; MS2; CE
PRECURSORMZ: 477.10385
PRECURSORTYPE: [M-H]-
FORMULA: C22H22O12
Ontology: Flavonoid-3-O-glycosides
INCHIKEY: CQLRUIIRRZYHHS-LFXZADKFSA-N
SMILES: COC1=C(O)C=CC(=C1)C1=C(O[C@@H]2O[C@H](CO)[C@@H](O)[C@H](O)[C@H]2O)C(=O)C2=C(O)C=C(O)C=C2O1
RETENTIONTIME: 
CCS: 216.8963493
IONMODE: Negative
INSTRUMENTTYPE: LC-ESI-QTOF
INSTRUMENT: 
COLLISIONENERGY: 
Comment: registered in MassBank
Num Peaks: 19
151.0033	22
199.03979	54
201.0188	23
215.0345	47
227.0347	38
242.02161	128
243.0291	299
244.033	29
257.0451	84
270.01682	99
271.0239	309
272.0275	34
285.0401	167
286.0473	61
299.0192	63
300.02621	36
314.04251	416
315.04889	98
477.1033	1000

NAME: Isorhamnetin-3-O-glucoside; LC-ESI-QTOF; MS2; CE
PRECURSORMZ: 955.214976
PRECURSORTYPE: [2M-H]-
FORMULA: C22H22O12
Ontology: Flavonoid-3-O-glycosides
INCHIKEY: CQLRUIIRRZYHHS-LFXZADKFSA-N
SMILES: COC1=C(O)C=CC(=C1)C1=C(O[C@@H]2O[C@H](CO)[C@@H](O)[C@H](O)[C@H]2O)C(=O)C2=C(O)C=C(O)C=C2O1
RETENTIONTIME: 
CCS: -1
IONMODE: Negative
INSTRUMENTTYPE: LC-ESI-QTOF
INSTRUMENT: 
COLLISIONENERGY: 
Comment: registered in MassBank
Num Peaks: 7
271.02328	12
314.04221	150
315.0495	45
477.10291	1000
477.79309	11
478.10779	33
955.21442	153

NAME: Isorhamnetin-3-O-glucoside; LC-ESI-QTOF; MS2; CE
PRECURSORMZ: 477.10385
PRECURSORTYPE: [M-H]-
FORMULA: C22H22O12
Ontology: Flavonoid-3-O-glycosides
INCHIKEY: CQLRUIIRRZYHHS-LFXZADKFSA-N
SMILES: COC1=C(O)C=CC(=C1)C1=C(O[C@@H]2O[C@H](CO)[C@@H](O)[C@H](O)[C@H]2O)C(=O)C2=C(O)C=C(O)C=C2O1
RETENTIONTIME: 
CCS: 216.8963493
IONMODE: Negative
INSTRUMENTTYPE: LC-ESI-QTOF
INSTRUMENT: 
COLLISIONENERGY: 30
Comment: registered in MassBank
Num Peaks: 28
151.008	27
242.00101	34
243.04739	455
243.9745	91
245.4574	27
254.834	21
257.0687	186
257.98761	53
258.87469	20
270.03989	55
271.03641	557
271.9761	119
272.83609	35
285.0546	491
286.0321	263
286.9469	68
287.8844	27
299.03409	151
300.0231	123
301.00259	33
311.1774	23
312.10089	21
313.05719	30
314.05511	1000
315.01901	307
315.9342	79
316.86011	28
477.10599	32

NAME: Isorhamnetin-3-O-glucoside; LC-ESI-QTOF; MS2; CE
PRECURSORMZ: 955.214976
PRECURSORTYPE: [2M-H]-
FORMULA: C22H22O12
Ontology: Flavonoid-3-O-glycosides
INCHIKEY: CQLRUIIRRZYHHS-LFXZADKFSA-N
SMILES: COC1=C(O)C=CC(=C1)C1=C(O[C@@H]2O[C@H](CO)[C@@H](O)[C@H](O)[C@H]2O)C(=O)C2=C(O)C=C(O)C=C2O1
RETENTIONTIME: 
CCS: -1
IONMODE: Negative
INSTRUMENTTYPE: LC-ESI-QTOF
INSTRUMENT: 
COLLISIONENERGY: 30
Comment: registered in MassBank
Num Peaks: 4
477.112	1000
478.05801	132
478.94781	45
479.83099	27

NAME: Isorhamnetin-3-O-rutinoside; LC-ESI-QTOF; MS2; CE
PRECURSORMZ: 623.161759
PRECURSORTYPE: [M-H]-
FORMULA: C28H32O16
Ontology: Flavonoid-3-O-glycosides
INCHIKEY: UIDGLYUNOUKLBM-GEBJFKNCSA-N
SMILES: COC1=C(O)C=CC(=C1)C1=C(O[C@@H]2O[C@H](CO[C@@H]3O[C@@H](C)[C@H](O)[C@@H](O)[C@H]3O)[C@@H](O)[C@H](O)[C@H]2O)C(=O)C2=C(O)C=C(O)C=C2O1
RETENTIONTIME: 
CCS: 223.4724829
IONMODE: Negative
INSTRUMENTTYPE: LC-ESI-QTOF
INSTRUMENT: 
COLLISIONENERGY: 
Comment: registered in MassBank
Num Peaks: 15
151.0034	13
227.035	13
243.02901	75
255.02879	47
257.0444	14
271.02399	130
272.03101	22
285.04031	30
299.0188	177
300.02631	157
301.03119	10
314.04211	193
315.04999	493
316.05289	22
623.16119	1000

NAME: Isorhamnetin-3-O-rutinoside; LC-ESI-QTOF; MS2; CE
PRECURSORMZ: 623.161759
PRECURSORTYPE: [M-H]-
FORMULA: C28H32O16
Ontology: Flavonoid-3-O-glycosides
INCHIKEY: UIDGLYUNOUKLBM-GEBJFKNCSA-N
SMILES: COC1=C(O)C=CC(=C1)C1=C(O[C@@H]2O[C@H](CO[C@@H]3O[C@@H](C)[C@H](O)[C@@H](O)[C@H]3O)[C@@H](O)[C@H](O)[C@H]2O)C(=O)C2=C(O)C=C(O)C=C2O1
RETENTIONTIME: 
CCS: 223.4724829
IONMODE: Negative
INSTRUMENTTYPE: LC-ESI-QTOF
INSTRUMENT: 
COLLISIONENERGY: 30
Comment: registered in MassBank
Num Peaks: 10
299.03619	57
300.0311	76
312.1127	22
313.0495	34
314.05399	391
315.0596	1000
315.9794	155
316.88739	53
317.8197	28
623.16809	117

NAME: Robinin; LC-ESI-QTOF; MS2; CE
PRECURSORMZ: 739.209103
PRECURSORTYPE: [M-H]-
FORMULA: C33H40O19
Ontology: Flavonoid-7-O-glycosides
INCHIKEY: PEFASEPMJYRQBW-HKWQTAEVSA-N
SMILES: C[C@@H]1O[C@@H](OC[C@H]2O[C@@H](OC3=C(OC4=CC(O[C@@H]5O[C@@H](C)[C@H](O)[C@@H](O)[C@H]5O)=CC(O)=C4C3=O)C3=CC=C(O)C=C3)[C@H](O)[C@@H](O)[C@H]2O)[C@H](O)[C@H](O)[C@H]1O
RETENTIONTIME: 
CCS: 247.3258482
IONMODE: Negative
INSTRUMENTTYPE: LC-ESI-QTOF
INSTRUMENT: 
COLLISIONENERGY: 
Comment: registered in MassBank
Num Peaks: 12
151.0033	11
227.03391	18
255.02901	67
283.02371	270
284.03159	292
285.03949	237
327.05042	15
430.09039	83
431.09851	16
593.15112	901
594.15662	59
739.20862	1000

NAME: Robinin; LC-ESI-QTOF; MS2; CE
PRECURSORMZ: 739.209103
PRECURSORTYPE: [M-H]-
FORMULA: C33H40O19
Ontology: Flavonoid-7-O-glycosides
INCHIKEY: PEFASEPMJYRQBW-HKWQTAEVSA-N
SMILES: C[C@@H]1O[C@@H](OC[C@H]2O[C@@H](OC3=C(OC4=CC(O[C@@H]5O[C@@H](C)[C@H](O)[C@@H](O)[C@H]5O)=CC(O)=C4C3=O)C3=CC=C(O)C=C3)[C@H](O)[C@@H](O)[C@H]2O)[C@H](O)[C@H](O)[C@H]1O
RETENTIONTIME: 
CCS: 247.3258482
IONMODE: Negative
INSTRUMENTTYPE: LC-ESI-QTOF
INSTRUMENT: 
COLLISIONENERGY: 30
Comment: registered in MassBank
Num Peaks: 8
284.04141	41
285.03851	60
430.10529	42
593.15771	1000
594.14001	132
595.08569	47
596.03113	24
739.2196	28

NAME: Kaempferol-3-O-glucoside; LC-ESI-QTOF; MS2; CE
PRECURSORMZ: 447.093285
PRECURSORTYPE: [M-H]-
FORMULA: C21H20O11
Ontology: Flavonoid-3-O-glycosides
INCHIKEY: JPUKWEQWGBDDQB-QSOFNFLRSA-N
SMILES: OC[C@H]1O[C@@H](OC2=C(OC3=CC(O)=CC(O)=C3C2=O)C2=CC=C(O)C=C2)[C@H](O)[C@@H](O)[C@@H]1O
RETENTIONTIME: 
CCS: 199.6625881
IONMODE: Negative
INSTRUMENTTYPE: LC-ESI-QTOF
INSTRUMENT: 
COLLISIONENERGY: 
Comment: registered in MassBank
Num Peaks: 17
151.0036	18
182.0368	20
183.0448	64
185.024	15
187.0403	11
211.0394	35
227.0343	557
228.03841	65
229.05029	22
255.0293	612
256.03461	113
257.04431	17
284.03201	552
285.03909	303
286.04401	28
327.05109	14
447.09271	1000

NAME: Kaempferol-3-O-glucoside; LC-ESI-QTOF; MS2; CE
PRECURSORMZ: 895.193847
PRECURSORTYPE: [2M-H]-
FORMULA: C21H20O11
Ontology: Flavonoid-3-O-glycosides
INCHIKEY: JPUKWEQWGBDDQB-QSOFNFLRSA-N
SMILES: OC[C@H]1O[C@@H](OC2=C(OC3=CC(O)=CC(O)=C3C2=O)C2=CC=C(O)C=C2)[C@H](O)[C@@H](O)[C@@H]1O
RETENTIONTIME: 
CCS: -1
IONMODE: Negative
INSTRUMENTTYPE: LC-ESI-QTOF
INSTRUMENT: 
COLLISIONENERGY: 
Comment: registered in MassBank
Num Peaks: 7
227.0361	13
255.02969	33
284.03189	177
285.0397	73
447.09341	1000
448.09631	37
895.1933	143

NAME: Kaempferol-3-O-glucoside; LC-ESI-QTOF; MS2; CE
PRECURSORMZ: 447.093285
PRECURSORTYPE: [M-H]-
FORMULA: C21H20O11
Ontology: Flavonoid-3-O-glycosides
INCHIKEY: JPUKWEQWGBDDQB-QSOFNFLRSA-N
SMILES: OC[C@H]1O[C@@H](OC2=C(OC3=CC(O)=CC(O)=C3C2=O)C2=CC=C(O)C=C2)[C@H](O)[C@@H](O)[C@@H]1O
RETENTIONTIME: 
CCS: 199.6625881
IONMODE: Negative
INSTRUMENTTYPE: LC-ESI-QTOF
INSTRUMENT: 
COLLISIONENERGY: 30
Comment: registered in MassBank
Num Peaks: 20
151.02991	21
211.285	26
227.0551	510
227.966	127
228.9608	68
229.9619	27
238.93469	22
252.7765	29
253.9418	41
255.045	1000
256.00189	339
256.96381	107
257.87451	42
281.33289	21
282.98581	41
284.04581	887
285.02371	442
285.9473	114
286.86081	42
287.7623	21

NAME: Kaempferol-3-O-glucoside; LC-ESI-QTOF; MS2; CE
PRECURSORMZ: 895.193847
PRECURSORTYPE: [2M-H]-
FORMULA: C21H20O11
Ontology: Flavonoid-3-O-glycosides
INCHIKEY: JPUKWEQWGBDDQB-QSOFNFLRSA-N
SMILES: OC[C@H]1O[C@@H](OC2=C(OC3=CC(O)=CC(O)=C3C2=O)C2=CC=C(O)C=C2)[C@H](O)[C@@H](O)[C@@H]1O
RETENTIONTIME: 
CCS: -1
IONMODE: Negative
INSTRUMENTTYPE: LC-ESI-QTOF
INSTRUMENT: 
COLLISIONENERGY: 30
Comment: registered in MassBank
Num Peaks: 6
284.0419	26
285.03448	39
447.09769	1000
448.04849	133
448.9422	54
449.8728	31

NAME: Kaempferol-3-O-rutinoside; LC-ESI-QTOF; MS2; CE
PRECURSORMZ: 593.151194
PRECURSORTYPE: [M-H]-
FORMULA: C27H30O15
Ontology: Flavonoid-3-O-glycosides
INCHIKEY: RTATXGUCZHCSNG-QHWHWDPRSA-N
SMILES: C[C@@H]1O[C@@H](OC[C@H]2O[C@@H](OC3=C(OC4=CC(O)=CC(O)=C4C3=O)C3=CC=C(O)C=C3)[C@H](O)[C@@H](O)[C@@H]2O)[C@H](O)[C@H](O)[C@H]1O
RETENTIONTIME: 
CCS: 224.998807
IONMODE: Negative
INSTRUMENTTYPE: LC-ESI-QTOF
INSTRUMENT: 
COLLISIONENERGY: 
Comment: registered in MassBank
Num Peaks: 11
151.0025	10
211.03909	11
227.0341	109
229.0497	45
255.0291	219
256.0351	29
257.04419	30
284.03149	335
285.03931	480
286.04361	26
593.15057	1000

NAME: Kaempferol-3-O-rutinoside; LC-ESI-QTOF; MS2; CE
PRECURSORMZ: 593.151194
PRECURSORTYPE: [M-H]-
FORMULA: C27H30O15
Ontology: Flavonoid-3-O-glycosides
INCHIKEY: RTATXGUCZHCSNG-QHWHWDPRSA-N
SMILES: C[C@@H]1O[C@@H](OC[C@H]2O[C@@H](OC3=C(OC4=CC(O)=CC(O)=C4C3=O)C3=CC=C(O)C=C3)[C@H](O)[C@@H](O)[C@@H]2O)[C@H](O)[C@H](O)[C@H]1O
RETENTIONTIME: 
CCS: 224.998807
IONMODE: Negative
INSTRUMENTTYPE: LC-ESI-QTOF
INSTRUMENT: 
COLLISIONENERGY: 30
Comment: registered in MassBank
Num Peaks: 7
282.4166	27
284.0582	116
285.0524	1000
285.96069	154
286.83459	48
287.737	24
593.15118	20

NAME: Kaempferol-7-O-neohesperidoside; LC-ESI-QTOF; MS2; CE
PRECURSORMZ: 593.151194
PRECURSORTYPE: [M-H]-
FORMULA: C27H30O15
Ontology: Flavonoid-7-O-glycosides
INCHIKEY: ZEJXENDZTYVXDP-CSJHBIPPSA-N
SMILES: C[C@@H]1O[C@@H](O[C@@H]2[C@@H](O)[C@H](O)[C@@H](CO)O[C@H]2OC2=CC(O)=C3C(=O)C(O)=C(OC3=C2)C2=CC=C(O)C=C2)[C@H](O)[C@H](O)[C@H]1O
RETENTIONTIME: 
CCS: 239.0670965
IONMODE: Negative
INSTRUMENTTYPE: LC-ESI-QTOF
INSTRUMENT: 
COLLISIONENERGY: 
Comment: registered in MassBank
Num Peaks: 10
107.0128	16
151.0027	59
227.0338	10
257.04709	15
284.03119	110
285.039	1000
285.84149	11
286.04349	48
327.0498	13
593.15057	767

NAME: Kaempferol-7-O-neohesperidoside; LC-ESI-QTOF; MS2; CE
PRECURSORMZ: 593.151194
PRECURSORTYPE: [M-H]-
FORMULA: C27H30O15
Ontology: Flavonoid-7-O-glycosides
INCHIKEY: ZEJXENDZTYVXDP-CSJHBIPPSA-N
SMILES: C[C@@H]1O[C@@H](O[C@@H]2[C@@H](O)[C@H](O)[C@@H](CO)O[C@H]2OC2=CC(O)=C3C(=O)C(O)=C(OC3=C2)C2=CC=C(O)C=C2)[C@H](O)[C@H](O)[C@H]1O
RETENTIONTIME: 
CCS: 239.0670965
IONMODE: Negative
INSTRUMENTTYPE: LC-ESI-QTOF
INSTRUMENT: 
COLLISIONENERGY: 30
Comment: registered in MassBank
Num Peaks: 7
282.4166	27
284.0582	116
285.0524	1000
285.96069	154
286.83459	48
287.737	24
593.15118	20

NAME: Homoorientin; LC-ESI-QTOF; MS2; CE
PRECURSORMZ: 447.093285
PRECURSORTYPE: [M-H]-
FORMULA: C21H20O11
Ontology: Flavonoid C-glycosides
INCHIKEY: ODBRNZZJSYPIDI-VJXVFPJBSA-N
SMILES: OC[C@H]1O[C@H]([C@H](O)[C@@H](O)[C@@H]1O)C1=C(O)C2=C(OC(=CC2=O)C2=CC(O)=C(O)C=C2)C=C1O
RETENTIONTIME: 
CCS: 203.8924295
IONMODE: Negative
INSTRUMENTTYPE: LC-ESI-QTOF
INSTRUMENT: 
COLLISIONENERGY: 
Comment: registered in MassBank
Num Peaks: 29
121.0283	20
133.02859	190
134.03529	28
161.024	31
163.0025	41
163.03999	22
165.0186	25
175.0396	40
199.03841	22
201.0193	23
225.0547	20
241.0506	23
253.04919	26
269.0448	32
284.03131	81
285.03931	166
297.03979	278
298.04761	234
299.0546	185
311.05499	75
325.03448	21
327.0502	719
328.05389	98
339.0513	83
357.06091	578
358.06519	74
369.0607	31
429.08331	80
447.09271	1000

NAME: Homoorientin; LC-ESI-QTOF; MS2; CE
PRECURSORMZ: 895.193847
PRECURSORTYPE: [2M-H]-
FORMULA: C21H20O11
Ontology: Flavonoid C-glycosides
INCHIKEY: ODBRNZZJSYPIDI-VJXVFPJBSA-N
SMILES: OC[C@H]1O[C@H]([C@H](O)[C@@H](O)[C@@H]1O)C1=C(O)C2=C(OC(=CC2=O)C2=CC(O)=C(O)C=C2)C=C1O
RETENTIONTIME: 
CCS: -1
IONMODE: Negative
INSTRUMENTTYPE: LC-ESI-QTOF
INSTRUMENT: 
COLLISIONENERGY: 
Comment: registered in MassBank
Num Peaks: 12
285.04031	30
297.0383	34
298.04831	16
299.0563	12
327.05011	281
339.0509	22
357.06079	286
369.06149	14
429.08289	54
447.09299	1000
448.09729	32
895.1933	212

NAME: Homoorientin; LC-ESI-QTOF; MS2; CE
PRECURSORMZ: 447.093285
PRECURSORTYPE: [M-H]-
FORMULA: C21H20O11
Ontology: Flavonoid C-glycosides
INCHIKEY: ODBRNZZJSYPIDI-VJXVFPJBSA-N
SMILES: OC[C@H]1O[C@H]([C@H](O)[C@@H](O)[C@@H]1O)C1=C(O)C2=C(OC(=CC2=O)C2=CC(O)=C(O)C=C2)C=C1O
RETENTIONTIME: 
CCS: 203.8924295
IONMODE: Negative
INSTRUMENTTYPE: LC-ESI-QTOF
INSTRUMENT: 
COLLISIONENERGY: 30
Comment: registered in MassBank
Num Peaks: 40
82.8788	32
133.0593	86
150.98981	32
163.0876	44
165.0692	35
175.0498	51
241.03011	32
252.994	37
255.0853	48
269.00201	45
283.07721	35
284.04501	177
285.0488	478
285.9653	125
286.93481	41
295.22879	37
296.1333	38
297.0556	697
298.0441	666
299.04211	657
299.979	163
300.9715	62
309.03909	45
311.07639	206
312.0206	60
324.04279	70
325.0762	85
326.04089	38
327.0629	1000
328.0126	255
328.9071	69
329.8443	36
337.0564	31
339.06161	274
339.99979	78
341.01389	62
357.07169	429
358.0159	117
358.90659	31
369.07559	32

NAME: Homoorientin; LC-ESI-QTOF; MS2; CE
PRECURSORMZ: 895.193847
PRECURSORTYPE: [2M-H]-
FORMULA: C21H20O11
Ontology: Flavonoid C-glycosides
INCHIKEY: ODBRNZZJSYPIDI-VJXVFPJBSA-N
SMILES: OC[C@H]1O[C@H]([C@H](O)[C@@H](O)[C@@H]1O)C1=C(O)C2=C(OC(=CC2=O)C2=CC(O)=C(O)C=C2)C=C1O
RETENTIONTIME: 
CCS: -1
IONMODE: Negative
INSTRUMENTTYPE: LC-ESI-QTOF
INSTRUMENT: 
COLLISIONENERGY: 30
Comment: registered in MassBank
Num Peaks: 10
327.0661	144
327.9986	24
357.078	124
357.99841	22
429.10751	49
447.10141	1000
448.02011	142
448.9194	55
449.7662	27
450.6915	21

NAME: Luteolin-7-O-glucoside; LC-ESI-QTOF; MS2; CE
PRECURSORMZ: 447.093285
PRECURSORTYPE: [M-H]-
FORMULA: C21H20O11
Ontology: Flavonoid-7-O-glycosides
INCHIKEY: PEFNSGRTCBGNAN-QNDFHXLGSA-N
SMILES: OC[C@H]1O[C@@H](OC2=CC(O)=C3C(=O)C=C(OC3=C2)C2=CC(O)=C(O)C=C2)[C@H](O)[C@@H](O)[C@@H]1O
RETENTIONTIME: 
CCS: 199.1743496
IONMODE: Negative
INSTRUMENTTYPE: LC-ESI-QTOF
INSTRUMENT: 
COLLISIONENERGY: 
Comment: registered in MassBank
Num Peaks: 20
83.0126	12
107.013	36
133.0291	54
134.0365	16
149.0238	13
151.00301	56
175.0394	16
183.0455	11
199.0401	23
211.0399	21
227.0345	40
255.0287	22
256.03629	50
283.02509	15
284.03201	583
285.03909	1000
285.29749	12
286.04321	105
327.0517	16
447.09271	972

NAME: Luteolin-7-O-glucoside; LC-ESI-QTOF; MS2; CE
PRECURSORMZ: 895.193847
PRECURSORTYPE: [2M-H]-
FORMULA: C21H20O11
Ontology: Flavonoid-7-O-glycosides
INCHIKEY: PEFNSGRTCBGNAN-QNDFHXLGSA-N
SMILES: OC[C@H]1O[C@@H](OC2=CC(O)=C3C(=O)C=C(OC3=C2)C2=CC(O)=C(O)C=C2)[C@H](O)[C@@H](O)[C@@H]1O
RETENTIONTIME: 
CCS: -1
IONMODE: Negative
INSTRUMENTTYPE: LC-ESI-QTOF
INSTRUMENT: 
COLLISIONENERGY: 
Comment: registered in MassBank
Num Peaks: 6
284.0314	56
285.0401	333
447.09351	1000
447.9343	11
448.099	40
895.1933	279

NAME: Luteolin-7-O-glucoside; LC-ESI-QTOF; MS2; CE
PRECURSORMZ: 447.093285
PRECURSORTYPE: [M-H]-
FORMULA: C21H20O11
Ontology: Flavonoid-7-O-glycosides
INCHIKEY: PEFNSGRTCBGNAN-QNDFHXLGSA-N
SMILES: OC[C@H]1O[C@@H](OC2=CC(O)=C3C(=O)C=C(OC3=C2)C2=CC(O)=C(O)C=C2)[C@H](O)[C@@H](O)[C@@H]1O
RETENTIONTIME: 
CCS: 199.1743496
IONMODE: Negative
INSTRUMENTTYPE: LC-ESI-QTOF
INSTRUMENT: 
COLLISIONENERGY: 30
Comment: registered in MassBank
Num Peaks: 7
282.18961	37
283.11292	34
284.04791	680
285.0451	1000
285.98669	229
286.88019	60
287.7558	28

NAME: Luteolin-7-O-glucoside; LC-ESI-QTOF; MS2; CE
PRECURSORMZ: 895.193847
PRECURSORTYPE: [2M-H]-
FORMULA: C21H20O11
Ontology: Flavonoid-7-O-glycosides
INCHIKEY: PEFNSGRTCBGNAN-QNDFHXLGSA-N
SMILES: OC[C@H]1O[C@@H](OC2=CC(O)=C3C(=O)C=C(OC3=C2)C2=CC(O)=C(O)C=C2)[C@H](O)[C@@H](O)[C@@H]1O
RETENTIONTIME: 
CCS: -1
IONMODE: Negative
INSTRUMENTTYPE: LC-ESI-QTOF
INSTRUMENT: 
COLLISIONENERGY: 30
Comment: registered in MassBank
Num Peaks: 5
285.0567	71
447.1022	1000
448.04099	119
448.9025	48
449.82281	27

NAME: Myricitrin; LC-ESI-QTOF; MS2; CE
PRECURSORMZ: 463.0882
PRECURSORTYPE: [M-H]-
FORMULA: C21H20O12
Ontology: Flavonoid-3-O-glycosides
INCHIKEY: DCYOADKBABEMIQ-OWMUPTOHSA-N
SMILES: C[C@@H]1O[C@@H](OC2=C(OC3=CC(O)=CC(O)=C3C2=O)C2=CC(O)=C(O)C(O)=C2)[C@H](O)[C@H](O)[C@H]1O
RETENTIONTIME: 
CCS: 202.9005839
IONMODE: Negative
INSTRUMENTTYPE: LC-ESI-QTOF
INSTRUMENT: 
COLLISIONENERGY: 
Comment: registered in MassBank
Num Peaks: 19
124.016	25
137.0239	22
151.00349	57
164.0107	24
178.9984	52
214.0271	69
215.03419	28
242.02209	59
243.02991	66
259.0246	82
270.01682	67
271.02429	375
272.0274	49
287.0192	235
288.02469	45
316.02191	907
317.02841	284
318.03351	25
463.08759	1000

NAME: Myricitrin; LC-ESI-QTOF; MS2; CE
PRECURSORMZ: 927.183676
PRECURSORTYPE: [2M-H]-
FORMULA: C21H20O12
Ontology: Flavonoid-3-O-glycosides
INCHIKEY: DCYOADKBABEMIQ-OWMUPTOHSA-N
SMILES: C[C@@H]1O[C@@H](OC2=C(OC3=CC(O)=CC(O)=C3C2=O)C2=CC(O)=C(O)C(O)=C2)[C@H](O)[C@H](O)[C@H]1O
RETENTIONTIME: 
CCS: -1
IONMODE: Negative
INSTRUMENTTYPE: LC-ESI-QTOF
INSTRUMENT: 
COLLISIONENERGY: 
Comment: registered in MassBank
Num Peaks: 7
178.99921	11
271.02109	13
316.021	332
317.0278	86
463.08731	1000
464.08719	30
927.18311	258

NAME: Myricitrin; LC-ESI-QTOF; MS2; CE
PRECURSORMZ: 463.0882
PRECURSORTYPE: [M-H]-
FORMULA: C21H20O12
Ontology: Flavonoid-3-O-glycosides
INCHIKEY: DCYOADKBABEMIQ-OWMUPTOHSA-N
SMILES: C[C@@H]1O[C@@H](OC2=C(OC3=CC(O)=CC(O)=C3C2=O)C2=CC(O)=C(O)C(O)=C2)[C@H](O)[C@H](O)[C@H]1O
RETENTIONTIME: 
CCS: 202.9005839
IONMODE: Negative
INSTRUMENTTYPE: LC-ESI-QTOF
INSTRUMENT: 
COLLISIONENERGY: 30
Comment: registered in MassBank
Num Peaks: 20
137.03571	23
151.03619	61
179.0206	78
214.0517	26
242.04289	40
243.03551	24
259.07239	38
260.0195	22
270.02841	112
271.03299	367
271.97198	84
272.85309	25
287.035	179
288.00339	59
313.4826	25
314.93149	31
316.03491	1000
317.00851	334
317.91449	76
318.84781	36

NAME: Myricitrin; LC-ESI-QTOF; MS2; CE
PRECURSORMZ: 927.183676
PRECURSORTYPE: [2M-H]-
FORMULA: C21H20O12
Ontology: Flavonoid-3-O-glycosides
INCHIKEY: DCYOADKBABEMIQ-OWMUPTOHSA-N
SMILES: C[C@@H]1O[C@@H](OC2=C(OC3=CC(O)=CC(O)=C3C2=O)C2=CC(O)=C(O)C(O)=C2)[C@H](O)[C@H](O)[C@H]1O
RETENTIONTIME: 
CCS: -1
IONMODE: Negative
INSTRUMENTTYPE: LC-ESI-QTOF
INSTRUMENT: 
COLLISIONENERGY: 30
Comment: registered in MassBank
Num Peaks: 6
316.0448	59
316.99661	28
463.09341	1000
464.05231	136
464.94958	55
465.90909	30

NAME: Prunin; LC-ESI-QTOF; MS2; CE
PRECURSORMZ: 433.11402
PRECURSORTYPE: [M-H]-
FORMULA: C21H22O10
Ontology: Flavonoid-7-O-glycosides
INCHIKEY: DLIKSSGEMUFQOK-SFTVRKLSSA-N
SMILES: OC[C@H]1O[C@@H](OC2=CC(O)=C3C(=O)C[C@H](OC3=C2)C2=CC=C(O)C=C2)[C@H](O)[C@@H](O)[C@@H]1O
RETENTIONTIME: 
CCS: 197.7449222
IONMODE: Negative
INSTRUMENTTYPE: LC-ESI-QTOF
INSTRUMENT: 
COLLISIONENERGY: 
Comment: registered in MassBank
Num Peaks: 15
65.001	11
83.0124	19
93.0333	32
107.0126	67
119.0493	234
120.0533	10
151.0031	272
165.0177	12
177.019	35
271.05981	1000
271.31201	10
271.73059	10
272.06339	68
313.0705	17
433.11349	96

NAME: Prunin; LC-ESI-QTOF; MS2; CE
PRECURSORMZ: 435.121845
PRECURSORTYPE: [M-H-C6H10O5}-
FORMULA: C21H22O10
Ontology: Flavonoid-7-O-glycosides
INCHIKEY: DLIKSSGEMUFQOK-SFTVRKLSSA-N
SMILES: OC[C@H]1O[C@@H](OC2=CC(O)=C3C(=O)C[C@H](OC3=C2)C2=CC=C(O)C=C2)[C@H](O)[C@@H](O)[C@@H]1O
RETENTIONTIME: 
CCS: -1
IONMODE: Negative
INSTRUMENTTYPE: LC-ESI-QTOF
INSTRUMENT: 
COLLISIONENERGY: 
Comment: registered in MassBank
Num Peaks: 18
63.0215	19
65.0009	41
83.0128	54
93.0332	66
107.0129	153
117.033	15
119.0496	476
143.0513	10
145.0287	19
151.00301	527
152.00771	11
165.0188	26
177.01961	75
185.0593	10
187.039	17
271.06061	1000
271.6203	10
272.06479	50

NAME: Prunin; LC-ESI-QTOF; MS2; CE
PRECURSORMZ: 433.11402
PRECURSORTYPE: [M-H]-
FORMULA: C21H22O10
Ontology: Flavonoid-7-O-glycosides
INCHIKEY: DLIKSSGEMUFQOK-SFTVRKLSSA-N
SMILES: OC[C@H]1O[C@@H](OC2=CC(O)=C3C(=O)C[C@H](OC3=C2)C2=CC=C(O)C=C2)[C@H](O)[C@@H](O)[C@@H]1O
RETENTIONTIME: 
CCS: 197.7449222
IONMODE: Negative
INSTRUMENTTYPE: LC-ESI-QTOF
INSTRUMENT: 
COLLISIONENERGY: 30
Comment: registered in MassBank
Num Peaks: 21
83.0272	26
93.0822	86
107.0618	115
119.0842	412
119.9232	58
120.9223	24
149.37531	27
150.20551	29
151.0336	1000
151.8989	141
152.7511	42
164.0136	32
165.0182	48
175.03909	35
177.0464	114
177.8813	22
193.0267	20
227.0925	25
271.07959	647
271.97681	129
272.87631	39

NAME: Prunin; LC-ESI-QTOF; MS2; CE
PRECURSORMZ: 435.121845
PRECURSORTYPE: [M-H-C6H10O5}-
FORMULA: C21H22O10
Ontology: Flavonoid-7-O-glycosides
INCHIKEY: DLIKSSGEMUFQOK-SFTVRKLSSA-N
SMILES: OC[C@H]1O[C@@H](OC2=CC(O)=C3C(=O)C[C@H](OC3=C2)C2=CC=C(O)C=C2)[C@H](O)[C@@H](O)[C@@H]1O
RETENTIONTIME: 
CCS: -1
IONMODE: Negative
INSTRUMENTTYPE: LC-ESI-QTOF
INSTRUMENT: 
COLLISIONENERGY: 30
Comment: registered in MassBank
Num Peaks: 19
63.0474	73
65.0612	98
83.1016	133
93.0955	70
107.0419	223
107.8109	32
108.9254	25
117.0667	37
119.0903	1000
119.9582	136
120.9101	50
122.0719	20
143.04601	40
145.0103	30
151.02299	131
161.0966	27
164.8822	20
177.04581	22
187.0909	62

NAME: Callistephin; LC-ESI-QTOF; MS2; CE
PRECURSORMZ: 431.097822
PRECURSORTYPE: [M-2H]-
FORMULA: C21H21O10
Ontology: Anthocyanidin-3-O-glycosides
INCHIKEY: ABVCUBUIXWJYSE-GQUPQBGVSA-O
SMILES: OC[C@H]1O[C@@H](OC2=CC3=C(O)C=C(O)C=C3[O+]=C2C2=CC=C(O)C=C2)[C@H](O)[C@@H](O)[C@@H]1O
RETENTIONTIME: 
CCS: -1
IONMODE: Negative
INSTRUMENTTYPE: LC-ESI-QTOF
INSTRUMENT: 
COLLISIONENERGY: 
Comment: registered in MassBank
Num Peaks: 24
119.013	26
120.0207	25
147.00861	176
148.0155	72
167.0499	32
171.04469	30
180.05791	21
183.0443	25
195.0442	63
196.0517	42
199.03999	38
211.0396	59
213.0547	42
223.03909	44
224.04691	70
225.0545	27
239.0341	89
240.0414	59
241.0489	71
267.0282	34
268.0369	604
269.04459	1000
270.04849	79
431.09781	522

NAME: Callistephin; LC-ESI-QTOF; MS2; CE
PRECURSORMZ: 449.108386
PRECURSORTYPE: [M-2H+H2O]-
FORMULA: C21H21O10
Ontology: Anthocyanidin-3-O-glycosides
INCHIKEY: ABVCUBUIXWJYSE-GQUPQBGVSA-O
SMILES: OC[C@H]1O[C@@H](OC2=CC3=C(O)C=C(O)C=C3[O+]=C2C2=CC=C(O)C=C2)[C@H](O)[C@@H](O)[C@@H]1O
RETENTIONTIME: 
CCS: -1
IONMODE: Negative
INSTRUMENTTYPE: LC-ESI-QTOF
INSTRUMENT: 
COLLISIONENERGY: 
Comment: registered in MassBank
Num Peaks: 27
93.033	21
119.013	30
120.0208	22
147.0085	177
148.01579	83
167.0495	37
171.0441	29
183.04491	32
195.0455	68
196.05299	36
197.05991	21
199.03931	37
211.0392	63
212.0468	21
213.0542	40
223.0401	44
224.0471	73
225.05231	28
239.03481	93
240.04201	60
241.04919	70
267.02991	35
268.03699	614
269.04449	1000
270.0488	71
431.09781	537
432.10281	56

NAME: Callistephin; LC-ESI-QTOF; MS2; CE
PRECURSORMZ: 431.097822
PRECURSORTYPE: [M-2H]-
FORMULA: C21H21O10
Ontology: Anthocyanidin-3-O-glycosides
INCHIKEY: ABVCUBUIXWJYSE-GQUPQBGVSA-O
SMILES: OC[C@H]1O[C@@H](OC2=CC3=C(O)C=C(O)C=C3[O+]=C2C2=CC=C(O)C=C2)[C@H](O)[C@@H](O)[C@@H]1O
RETENTIONTIME: 
CCS: -1
IONMODE: Negative
INSTRUMENTTYPE: LC-ESI-QTOF
INSTRUMENT: 
COLLISIONENERGY: 30
Comment: registered in MassBank
Num Peaks: 30
93.0854	42
147.0255	352
148.0105	115
148.9886	58
173.07001	37
180.05811	34
195.08121	34
196.0155	64
197.13029	64
199.0545	93
201.0804	33
211.0657	43
212.0015	34
213.0769	64
223.0463	75
224.0804	158
225.0457	82
226.07581	49
226.9655	37
239.05341	101
240.0555	139
241.04961	233
241.8633	51
266.08801	31
267.03629	119
268.0484	1000
269.0506	648
269.92761	161
270.79691	46
412.83139	46

NAME: Callistephin; LC-ESI-QTOF; MS2; CE
PRECURSORMZ: 449.108386
PRECURSORTYPE: [M-2H+H2O]-
FORMULA: C21H21O10
Ontology: Anthocyanidin-3-O-glycosides
INCHIKEY: ABVCUBUIXWJYSE-GQUPQBGVSA-O
SMILES: OC[C@H]1O[C@@H](OC2=CC3=C(O)C=C(O)C=C3[O+]=C2C2=CC=C(O)C=C2)[C@H](O)[C@@H](O)[C@@H]1O
RETENTIONTIME: 
CCS: -1
IONMODE: Negative
INSTRUMENTTYPE: LC-ESI-QTOF
INSTRUMENT: 
COLLISIONENERGY: 30
Comment: registered in MassBank
Num Peaks: 50
92.0462	41
93.052	157
97.0543	32
107.0407	32
117.1146	43
120.0568	134
121.0482	128
123.0038	49
125.049	42
137.06039	258
138.005	60
139.067	44
147.0517	53
148.071	62
149.0601	1000
149.9156	140
150.9223	49
159.0937	54
160.0359	42
163.0071	52
164.0285	245
165.0435	780
165.95641	205
167.0256	160
168.00281	50
168.98399	32
171.11031	30
173.09489	53
177.0089	32
183.00529	42
192.039	421
193.0152	415
193.911	79
194.8885	31
197.00459	42
199.0589	52
201.0768	146
201.9413	40
202.9503	32
219.1162	53
224.108	32
225.1132	113
226.9492	35
241.0336	45
243.0986	41
268.0354	38
269.06699	647
269.9722	137
270.8754	32
287.0907	36

NAME: Puerarin; LC-ESI-QTOF; MS2; CE
PRECURSORMZ: 415.103456
PRECURSORTYPE: [M-H]-
FORMULA: C21H20O9
Ontology: Isoflavonoid C-glycosides
INCHIKEY: HKEAFJYKMMKDOR-VPRICQMDSA-N
SMILES: OC[C@H]1O[C@H]([C@H](O)[C@@H](O)[C@@H]1O)C1=C(O)C=CC2=C1OC=C(C2=O)C1=CC=C(O)C=C1
RETENTIONTIME: 
CCS: 198.5500912
IONMODE: Negative
INSTRUMENTTYPE: LC-ESI-QTOF
INSTRUMENT: 
COLLISIONENERGY: 
Comment: registered in MassBank
Num Peaks: 18
132.0213	21
133.0295	47
209.0601	22
221.05969	23
222.0676	46
223.03951	21
223.07561	46
224.04739	31
237.05499	34
239.0703	21
253.0497	39
267.0657	876
268.0697	46
277.04959	98
295.06061	585
296.0643	29
307.06201	25
415.10291	1000

NAME: Puerarin; LC-ESI-QTOF; MS2; CE
PRECURSORMZ: 415.103456
PRECURSORTYPE: [M-H]-
FORMULA: C21H20O9
Ontology: Isoflavonoid C-glycosides
INCHIKEY: HKEAFJYKMMKDOR-VPRICQMDSA-N
SMILES: OC[C@H]1O[C@H]([C@H](O)[C@@H](O)[C@@H]1O)C1=C(O)C=CC2=C1OC=C(C2=O)C1=CC=C(O)C=C1
RETENTIONTIME: 
CCS: 198.5500912
IONMODE: Negative
INSTRUMENTTYPE: LC-ESI-QTOF
INSTRUMENT: 
COLLISIONENERGY: 30
Comment: registered in MassBank
Num Peaks: 13
223.0858	26
224.0795	21
253.0676	34
264.99841	39
266.0473	36
267.0817	1000
267.98871	158
268.87561	48
269.76181	22
277.06821	114
295.07471	193
296.02991	34
307.07281	28

NAME: Peltatoside; LC-ESI-QTOF; MS2; CE
PRECURSORMZ: 595.130458
PRECURSORTYPE: [M-H]-
FORMULA: C26H28O16
Ontology: Flavonoid-3-O-glycosides
INCHIKEY: YNMFDPCLPIMRFD-KSPKLRDJSA-N
SMILES: O[C@H]1CO[C@@H](OC[C@H]2O[C@@H](OC3=C(OC4=CC(O)=CC(O)=C4C3=O)C3=CC(O)=C(O)C=C3)[C@H](O)[C@@H](O)[C@@H]2O)[C@H](O)[C@H]1O
RETENTIONTIME: 
CCS: 241.0849696
IONMODE: Negative
INSTRUMENTTYPE: LC-ESI-QTOF
INSTRUMENT: 
COLLISIONENERGY: 
Comment: registered in MassBank
Num Peaks: 12
151.0034	39
178.99809	22
227.034	12
243.0294	39
254.02209	12
255.02901	110
271.02399	228
272.0296	23
300.02649	489
301.03409	251
302.039	13
595.12988	1000

NAME: Peltatoside; LC-ESI-QTOF; MS2; CE
PRECURSORMZ: 595.130458
PRECURSORTYPE: [M-H]-
FORMULA: C26H28O16
Ontology: Flavonoid-3-O-glycosides
INCHIKEY: YNMFDPCLPIMRFD-KSPKLRDJSA-N
SMILES: O[C@H]1CO[C@@H](OC[C@H]2O[C@@H](OC3=C(OC4=CC(O)=CC(O)=C4C3=O)C3=CC(O)=C(O)C=C3)[C@H](O)[C@@H](O)[C@@H]2O)[C@H](O)[C@H]1O
RETENTIONTIME: 
CCS: 241.0849696
IONMODE: Negative
INSTRUMENTTYPE: LC-ESI-QTOF
INSTRUMENT: 
COLLISIONENERGY: 30
Comment: registered in MassBank
Num Peaks: 13
151.0658	33
179.0249	33
255.0751	23
271.06039	34
297.14951	26
298.13708	29
299.05869	41
300.03931	1000
301.0289	687
301.9537	129
302.88229	53
303.78879	26
595.13568	184

NAME: Hyperoside; LC-ESI-QTOF; MS2; CE
PRECURSORMZ: 463.0882
PRECURSORTYPE: [M-H]-
FORMULA: C21H20O12
Ontology: Flavonoid-3-O-glycosides
INCHIKEY: OVSQVDMCBVZWGM-DTGCRPNFSA-N
SMILES: OC[C@H]1O[C@@H](OC2=C(OC3=CC(O)=CC(O)=C3C2=O)C2=CC(O)=C(O)C=C2)[C@H](O)[C@@H](O)[C@H]1O
RETENTIONTIME: 
CCS: 201.8799825
IONMODE: Negative
INSTRUMENTTYPE: LC-ESI-QTOF
INSTRUMENT: 
COLLISIONENERGY: 
Comment: registered in MassBank
Num Peaks: 17
107.0132	21
108.0213	22
151.0031	77
178.9982	37
199.0396	32
215.03461	22
227.03371	52
243.0293	138
244.0354	22
255.0293	244
256.03311	38
271.0242	563
272.0282	90
300.0267	896
301.03391	464
302.039	48
463.08759	1000

NAME: Hyperoside; LC-ESI-QTOF; MS2; CE
PRECURSORMZ: 927.183676
PRECURSORTYPE: [2M-H]-
FORMULA: C21H20O12
Ontology: Flavonoid-3-O-glycosides
INCHIKEY: OVSQVDMCBVZWGM-DTGCRPNFSA-N
SMILES: OC[C@H]1O[C@@H](OC2=C(OC3=CC(O)=CC(O)=C3C2=O)C2=CC(O)=C(O)C=C2)[C@H](O)[C@@H](O)[C@H]1O
RETENTIONTIME: 
CCS: -1
IONMODE: Negative
INSTRUMENTTYPE: LC-ESI-QTOF
INSTRUMENT: 
COLLISIONENERGY: 
Comment: registered in MassBank
Num Peaks: 6
271.0231	15
300.02661	275
301.0347	169
463.08679	1000
464.0874	19
927.18311	236

NAME: Hyperoside; LC-ESI-QTOF; MS2; CE
PRECURSORMZ: 463.0882
PRECURSORTYPE: [M-H]-
FORMULA: C21H20O12
Ontology: Flavonoid-3-O-glycosides
INCHIKEY: OVSQVDMCBVZWGM-DTGCRPNFSA-N
SMILES: OC[C@H]1O[C@@H](OC2=C(OC3=CC(O)=CC(O)=C3C2=O)C2=CC(O)=C(O)C=C2)[C@H](O)[C@@H](O)[C@H]1O
RETENTIONTIME: 
CCS: 201.8799825
IONMODE: Negative
INSTRUMENTTYPE: LC-ESI-QTOF
INSTRUMENT: 
COLLISIONENERGY: 30
Comment: registered in MassBank
Num Peaks: 17
151.03419	88
151.9305	20
179.02209	56
243.0421	54
254.0121	33
255.04539	209
255.9819	53
256.9733	21
271.04141	392
271.9841	105
272.94189	40
297.43839	26
299.01831	34
300.0415	1000
301.01239	414
301.93811	97
302.8591	40

NAME: Hyperoside; LC-ESI-QTOF; MS2; CE
PRECURSORMZ: 927.183676
PRECURSORTYPE: [2M-H]-
FORMULA: C21H20O12
Ontology: Flavonoid-3-O-glycosides
INCHIKEY: OVSQVDMCBVZWGM-DTGCRPNFSA-N
SMILES: OC[C@H]1O[C@@H](OC2=C(OC3=CC(O)=CC(O)=C3C2=O)C2=CC(O)=C(O)C=C2)[C@H](O)[C@@H](O)[C@H]1O
RETENTIONTIME: 
CCS: -1
IONMODE: Negative
INSTRUMENTTYPE: LC-ESI-QTOF
INSTRUMENT: 
COLLISIONENERGY: 30
Comment: registered in MassBank
Num Peaks: 7
300.03171	38
301.0361	72
458.50409	23
463.0983	1000
464.0499	141
464.94199	45
465.81589	25

NAME: Hirsutrin; LC-ESI-QTOF; MS2; CE
PRECURSORMZ: 463.0882
PRECURSORTYPE: [M-H]-
FORMULA: C21H20O12
Ontology: Flavonoid-3-O-glycosides
INCHIKEY: OVSQVDMCBVZWGM-QSOFNFLRSA-N
SMILES: OC[C@H]1O[C@@H](OC2=C(OC3=CC(O)=CC(O)=C3C2=O)C2=CC(O)=C(O)C=C2)[C@H](O)[C@@H](O)[C@@H]1O
RETENTIONTIME: 
CCS: 201.8799825
IONMODE: Negative
INSTRUMENTTYPE: LC-ESI-QTOF
INSTRUMENT: 
COLLISIONENERGY: 
Comment: registered in MassBank
Num Peaks: 20
108.0211	21
148.0154	21
151.0031	68
163.0033	23
178.9984	40
199.0394	30
215.0343	26
226.02699	21
227.0341	53
243.0298	149
244.0325	27
254.022	23
255.0294	256
256.03259	41
271.02411	587
272.02829	100
300.02679	892
301.03381	532
302.03851	56
463.08759	1000

NAME: Hirsutrin; LC-ESI-QTOF; MS2; CE
PRECURSORMZ: 927.183676
PRECURSORTYPE: [2M-H]-
FORMULA: C21H20O12
Ontology: Flavonoid-3-O-glycosides
INCHIKEY: OVSQVDMCBVZWGM-QSOFNFLRSA-N
SMILES: OC[C@H]1O[C@@H](OC2=C(OC3=CC(O)=CC(O)=C3C2=O)C2=CC(O)=C(O)C=C2)[C@H](O)[C@@H](O)[C@@H]1O
RETENTIONTIME: 
CCS: -1
IONMODE: Negative
INSTRUMENTTYPE: LC-ESI-QTOF
INSTRUMENT: 
COLLISIONENERGY: 
Comment: registered in MassBank
Num Peaks: 7
271.02451	16
300.02649	258
301.0347	191
463.08731	1000
463.89581	10
464.08881	24
927.18311	255

NAME: Hirsutrin; LC-ESI-QTOF; MS2; CE
PRECURSORMZ: 463.0882
PRECURSORTYPE: [M-H]-
FORMULA: C21H20O12
Ontology: Flavonoid-3-O-glycosides
INCHIKEY: OVSQVDMCBVZWGM-QSOFNFLRSA-N
SMILES: OC[C@H]1O[C@@H](OC2=C(OC3=CC(O)=CC(O)=C3C2=O)C2=CC(O)=C(O)C=C2)[C@H](O)[C@@H](O)[C@@H]1O
RETENTIONTIME: 
CCS: 201.8799825
IONMODE: Negative
INSTRUMENTTYPE: LC-ESI-QTOF
INSTRUMENT: 
COLLISIONENERGY: 30
Comment: registered in MassBank
Num Peaks: 17
151.04939	100
151.9679	22
179.0329	52
243.05499	45
254.0434	32
255.0425	210
255.9785	53
271.04529	405
272.00241	113
272.92511	41
297.33719	29
298.93619	38
300.0397	1000
301.0162	440
301.94241	104
302.81851	34
303.7666	23

NAME: Hirsutrin; LC-ESI-QTOF; MS2; CE
PRECURSORMZ: 927.183676
PRECURSORTYPE: [2M-H]-
FORMULA: C21H20O12
Ontology: Flavonoid-3-O-glycosides
INCHIKEY: OVSQVDMCBVZWGM-QSOFNFLRSA-N
SMILES: OC[C@H]1O[C@@H](OC2=C(OC3=CC(O)=CC(O)=C3C2=O)C2=CC(O)=C(O)C=C2)[C@H](O)[C@@H](O)[C@@H]1O
RETENTIONTIME: 
CCS: -1
IONMODE: Negative
INSTRUMENTTYPE: LC-ESI-QTOF
INSTRUMENT: 
COLLISIONENERGY: 30
Comment: registered in MassBank
Num Peaks: 6
300.0545	37
301.04211	75
463.09641	1000
464.043	116
464.9267	48
465.7814	25

NAME: Quercetin 3-(6-O-acetyl-beta-glucoside); LC-ESI-QTOF; MS2; CE
PRECURSORMZ: 505.098764
PRECURSORTYPE: [M-H]-
FORMULA: C23H22O13
Ontology: Flavonoid-3-O-glycosides
INCHIKEY: IGLUNMMNDNWZOA-LNNZMUSMSA-N
SMILES: CC(=O)OC[C@H]1O[C@@H](OC2=C(OC3=CC(O)=CC(O)=C3C2=O)C2=CC(O)=C(O)C=C2)[C@H](O)[C@@H](O)[C@@H]1O
RETENTIONTIME: 
CCS: 231.0965869
IONMODE: Negative
INSTRUMENTTYPE: LC-ESI-QTOF
INSTRUMENT: 
COLLISIONENERGY: 
Comment: registered in MassBank
Num Peaks: 22
107.013	11
108.0215	13
148.01669	13
151.0032	53
163.0031	16
178.9977	27
199.0396	18
211.03951	12
215.03391	12
226.0265	18
227.0343	37
243.0294	110
254.0201	19
255.0291	203
271.02399	474
272.02979	33
299.01871	12
300.02689	751
301.0343	309
302.03549	16
463.0892	21
505.09821	1000

NAME: Quercetin 3-(6-O-acetyl-beta-glucoside); LC-ESI-QTOF; MS2; CE
PRECURSORMZ: 505.098764
PRECURSORTYPE: [M-H]-
FORMULA: C23H22O13
Ontology: Flavonoid-3-O-glycosides
INCHIKEY: IGLUNMMNDNWZOA-LNNZMUSMSA-N
SMILES: CC(=O)OC[C@H]1O[C@@H](OC2=C(OC3=CC(O)=CC(O)=C3C2=O)C2=CC(O)=C(O)C=C2)[C@H](O)[C@@H](O)[C@@H]1O
RETENTIONTIME: 
CCS: 231.0965869
IONMODE: Negative
INSTRUMENTTYPE: LC-ESI-QTOF
INSTRUMENT: 
COLLISIONENERGY: 30
Comment: registered in MassBank
Num Peaks: 15
151.0361	59
179.0325	38
243.0332	31
254.05051	23
255.0475	125
255.9445	27
271.0415	253
271.9783	58
272.9527	27
297.82571	25
298.92331	34
300.0408	1000
301.01279	354
301.92401	74
302.85599	33

NAME: Quercitrin; LC-ESI-QTOF; MS2; CE
PRECURSORMZ: 447.093285
PRECURSORTYPE: [M-H]-
FORMULA: C21H20O11
Ontology: Flavonoid-3-O-glycosides
INCHIKEY: OXGUCUVFOIWWQJ-HQBVPOQASA-N
SMILES: C[C@@H]1O[C@@H](OC2=C(OC3=CC(O)=CC(O)=C3C2=O)C2=CC(O)=C(O)C=C2)[C@H](O)[C@H](O)[C@H]1O
RETENTIONTIME: 
CCS: 200.6827075
IONMODE: Negative
INSTRUMENTTYPE: LC-ESI-QTOF
INSTRUMENT: 
COLLISIONENERGY: 
Comment: registered in MassBank
Num Peaks: 21
107.0131	26
108.0209	23
121.0288	23
148.0157	23
151.0029	106
163.0025	29
178.99789	54
199.0392	33
211.03979	25
215.0341	24
227.034	53
243.0289	132
245.04401	24
255.02921	238
256.03351	32
271.0242	501
272.02899	68
300.0267	768
301.03391	644
302.03809	74
447.09271	1000

NAME: Quercitrin; LC-ESI-QTOF; MS2; CE
PRECURSORMZ: 895.193847
PRECURSORTYPE: [2M-H]-
FORMULA: C21H20O11
Ontology: Flavonoid-3-O-glycosides
INCHIKEY: OXGUCUVFOIWWQJ-HQBVPOQASA-N
SMILES: C[C@@H]1O[C@@H](OC2=C(OC3=CC(O)=CC(O)=C3C2=O)C2=CC(O)=C(O)C=C2)[C@H](O)[C@H](O)[C@H]1O
RETENTIONTIME: 
CCS: -1
IONMODE: Negative
INSTRUMENTTYPE: LC-ESI-QTOF
INSTRUMENT: 
COLLISIONENERGY: 
Comment: registered in MassBank
Num Peaks: 8
178.9977	11
255.0282	12
271.02301	19
300.02621	270
301.034	281
447.09219	1000
448.09531	43
895.1933	289

NAME: Quercitrin; LC-ESI-QTOF; MS2; CE
PRECURSORMZ: 447.093285
PRECURSORTYPE: [M-H]-
FORMULA: C21H20O11
Ontology: Flavonoid-3-O-glycosides
INCHIKEY: OXGUCUVFOIWWQJ-HQBVPOQASA-N
SMILES: C[C@@H]1O[C@@H](OC2=C(OC3=CC(O)=CC(O)=C3C2=O)C2=CC(O)=C(O)C=C2)[C@H](O)[C@H](O)[C@H]1O
RETENTIONTIME: 
CCS: 200.6827075
IONMODE: Negative
INSTRUMENTTYPE: LC-ESI-QTOF
INSTRUMENT: 
COLLISIONENERGY: 30
Comment: registered in MassBank
Num Peaks: 29
121.0431	30
151.0356	209
151.9167	40
163.0358	46
179.0195	120
179.87869	20
211.0659	27
227.06509	31
229.0323	26
243.0585	79
243.9649	28
245.03461	36
247.34331	21
254.0251	43
255.0475	328
255.98599	83
256.8956	29
271.0419	557
271.97531	149
272.95599	73
273.89859	26
283.03381	49
297.39249	29
299.08578	43
300.04059	1000
301.0238	591
301.961	146
302.82321	47
303.68921	25

NAME: Quercitrin; LC-ESI-QTOF; MS2; CE
PRECURSORMZ: 895.193847
PRECURSORTYPE: [2M-H]-
FORMULA: C21H20O11
Ontology: Flavonoid-3-O-glycosides
INCHIKEY: OXGUCUVFOIWWQJ-HQBVPOQASA-N
SMILES: C[C@@H]1O[C@@H](OC2=C(OC3=CC(O)=CC(O)=C3C2=O)C2=CC(O)=C(O)C=C2)[C@H](O)[C@H](O)[C@H]1O
RETENTIONTIME: 
CCS: -1
IONMODE: Negative
INSTRUMENTTYPE: LC-ESI-QTOF
INSTRUMENT: 
COLLISIONENERGY: 30
Comment: registered in MassBank
Num Peaks: 7
300.03381	67
301.03629	131
302.01929	23
447.09991	1000
448.04071	136
448.92139	49
449.77829	20

NAME: Daidzin; LC-ESI-QTOF; MS2; CE
PRECURSORMZ: 415.103456
PRECURSORTYPE: [M-H]-
FORMULA: C21H20O9
Ontology: Isoflavonoid O-glycosides
INCHIKEY: KYQZWONCHDNPDP-QNDFHXLGSA-N
SMILES: OC[C@H]1O[C@@H](OC2=CC3=C(C=C2)C(=O)C(=CO3)C2=CC=C(O)C=C2)[C@H](O)[C@@H](O)[C@@H]1O
RETENTIONTIME: 
CCS: 194.1900928
IONMODE: Negative
INSTRUMENTTYPE: LC-ESI-QTOF
INSTRUMENT: 
COLLISIONENERGY: 
Comment: registered in MassBank
Num Peaks: 13
91.0183	31
132.0211	80
135.0079	43
167.0504	24
195.04469	181
196.05099	21
208.0524	40
223.03909	280
224.0466	75
251.0347	169
252.04201	1000
253.0497	336
415.10291	753

NAME: Daidzin; LC-ESI-QTOF; MS2; CE
PRECURSORMZ: 445.11402
PRECURSORTYPE: [M+HCOO]-
FORMULA: C21H20O9
Ontology: Isoflavonoid O-glycosides
INCHIKEY: KYQZWONCHDNPDP-QNDFHXLGSA-N
SMILES: OC[C@H]1O[C@@H](OC2=CC3=C(C=C2)C(=O)C(=CO3)C2=CC=C(O)C=C2)[C@H](O)[C@@H](O)[C@@H]1O
RETENTIONTIME: 
CCS: 194.7820752
IONMODE: Negative
INSTRUMENTTYPE: LC-ESI-QTOF
INSTRUMENT: 
COLLISIONENERGY: 
Comment: registered in MassBank
Num Peaks: 11
195.0448	28
208.0526	22
223.03889	68
224.0459	41
251.0349	43
252.0424	354
253.0499	1000
254.05389	113
415.10291	417
416.10709	62
461.1084	162

NAME: Daidzin; LC-ESI-QTOF; MS2; CE
PRECURSORMZ: 831.214188
PRECURSORTYPE: [2M-H]-
FORMULA: C21H20O9
Ontology: Isoflavonoid O-glycosides
INCHIKEY: KYQZWONCHDNPDP-QNDFHXLGSA-N
SMILES: OC[C@H]1O[C@@H](OC2=CC3=C(C=C2)C(=O)C(=CO3)C2=CC=C(O)C=C2)[C@H](O)[C@@H](O)[C@@H]1O
RETENTIONTIME: 
CCS: -1
IONMODE: Negative
INSTRUMENTTYPE: LC-ESI-QTOF
INSTRUMENT: 
COLLISIONENERGY: 
Comment: registered in MassBank
Num Peaks: 6
252.0423	88
253.05	1000
254.0531	31
415.10291	143
669.16089	167
831.21362	126

NAME: Daidzin; LC-ESI-QTOF; MS2; CE
PRECURSORMZ: 415.103456
PRECURSORTYPE: [M-H]-
FORMULA: C21H20O9
Ontology: Isoflavonoid O-glycosides
INCHIKEY: KYQZWONCHDNPDP-QNDFHXLGSA-N
SMILES: OC[C@H]1O[C@@H](OC2=CC3=C(C=C2)C(=O)C(=CO3)C2=CC=C(O)C=C2)[C@H](O)[C@@H](O)[C@@H]1O
RETENTIONTIME: 
CCS: 194.1900928
IONMODE: Negative
INSTRUMENTTYPE: LC-ESI-QTOF
INSTRUMENT: 
COLLISIONENERGY: 30
Comment: registered in MassBank
Num Peaks: 13
132.0538	45
195.07359	38
208.1165	42
209.0986	22
223.0632	151
224.0282	87
224.9222	21
250.02341	32
251.054	141
252.0571	1000
253.0063	302
253.9025	72
254.8013	28

NAME: Daidzin; LC-ESI-QTOF; MS2; CE
PRECURSORMZ: 253.050632
PRECURSORTYPE: [M-H-C6H10O5]-
FORMULA: C21H20O9
Ontology: Isoflavonoid O-glycosides
INCHIKEY: KYQZWONCHDNPDP-QNDFHXLGSA-N
SMILES: OC[C@H]1O[C@@H](OC2=CC3=C(C=C2)C(=O)C(=CO3)C2=CC=C(O)C=C2)[C@H](O)[C@@H](O)[C@@H]1O
RETENTIONTIME: 
CCS: -1
IONMODE: Negative
INSTRUMENTTYPE: LC-ESI-QTOF
INSTRUMENT: 
COLLISIONENERGY: 30
Comment: registered in MassBank
Num Peaks: 56
77.053	47
89.0702	102
90.1755	30
91.0519	790
91.9284	94
92.9627	60
104.0122	59
115.9591	35
117.0544	111
118.8483	35
127.0337	31
131.06821	38
132.05791	727
133.0519	773
133.8754	121
135.0351	394
135.868	59
141.1102	43
143.1143	37
152.08501	41
154.0533	38
155.0558	58
160.0209	43
167.06799	109
168.05141	76
169.08099	185
169.8922	34
170.823	39
179.0358	64
180.0802	386
181.0141	117
182.0468	130
183.0282	106
183.91251	36
184.9803	37
189.9332	34
195.0587	447
196.0448	320
197.08211	174
198.0479	55
206.0547	37
207.0838	77
208.077	917
209.0157	324
209.9138	115
210.9216	82
211.7968	33
221.2186	34
222.0843	32
223.063	1000
224.0493	674
224.98289	205
225.8784	85
251.063	94
252.0654	121
253.0708	508

NAME: Caffeic acid; LC-ESI-QTOF; MS2; CE
PRECURSORMZ: 179.034982
PRECURSORTYPE: [M-H]-
FORMULA: C9H8O4
Ontology: Hydroxycinnamic acids
INCHIKEY: QAIPRVGONGVQAS-RQOWECAXSA-N
SMILES: OC(=O)\C=C/C1=CC(O)=C(O)C=C1
RETENTIONTIME: 
CCS: 135.5545604
IONMODE: Negative
INSTRUMENTTYPE: LC-ESI-QTOF
INSTRUMENT: 
COLLISIONENERGY: 
Comment: registered in MassBank
Num Peaks: 12
89.0394	16
107.0502	25
117.0335	12
134.037	142
135.0444	1000
135.22031	23
135.3488	11
135.3757	13
135.42081	10
135.5416	12
135.6492	11
179.03439	358

NAME: Caffeic acid; LC-ESI-QTOF; MS2; CE
PRECURSORMZ: 135.045153
PRECURSORTYPE: [M-H-CO2]-
FORMULA: C9H8O4
Ontology: Hydroxycinnamic acids
INCHIKEY: QAIPRVGONGVQAS-RQOWECAXSA-N
SMILES: OC(=O)\C=C/C1=CC(O)=C(O)C=C1
RETENTIONTIME: 
CCS: -1
IONMODE: Negative
INSTRUMENTTYPE: LC-ESI-QTOF
INSTRUMENT: 
COLLISIONENERGY: 
Comment: registered in MassBank
Num Peaks: 6
89.0395	13
107.0502	25
117.0341	11
134.0367	134
135.0446	1000
135.2218	22

NAME: Caffeic acid; LC-ESI-QTOF; MS2; CE
PRECURSORMZ: 179.034982
PRECURSORTYPE: [M-H]-
FORMULA: C9H8O4
Ontology: Hydroxycinnamic acids
INCHIKEY: QAIPRVGONGVQAS-RQOWECAXSA-N
SMILES: OC(=O)\C=C/C1=CC(O)=C(O)C=C1
RETENTIONTIME: 
CCS: 135.5545604
IONMODE: Negative
INSTRUMENTTYPE: LC-ESI-QTOF
INSTRUMENT: 
COLLISIONENERGY: 30
Comment: registered in MassBank
Num Peaks: 13
89.07	213
91.0605	44
106.0953	70
107.0746	116
108.02	85
109.0343	61
117.0726	79
132.0468	50
133.0925	86
134.07201	1000
135.06219	960
135.90781	147
136.83369	44

NAME: Rosmarinic acid; LC-ESI-QTOF; MS2; CE
PRECURSORMZ: 359.077241
PRECURSORTYPE: [M-H]-
FORMULA: C18H16O8
Ontology: Coumaric acids and derivatives
INCHIKEY: DOUMFZQKYFQNTF-WUTVXBCWSA-N
SMILES: OC(=O)[C@@H](CC1=CC(O)=C(O)C=C1)OC(=O)\C=C\C1=CC(O)=C(O)C=C1
RETENTIONTIME: 
CCS: 181.2276172
IONMODE: Negative
INSTRUMENTTYPE: LC-ESI-QTOF
INSTRUMENT: 
COLLISIONENERGY: 
Comment: registered in MassBank
Num Peaks: 12
72.9933	103
123.045	117
132.02161	42
133.0291	276
134.0354	50
135.0448	247
161.024	1000
161.21651	21
162.0276	60
179.035	179
197.04539	302
359.07669	350

NAME: Rosmarinic acid; LC-ESI-QTOF; MS2; CE
PRECURSORMZ: 719.161759
PRECURSORTYPE: [2M-H]-
FORMULA: C18H16O8
Ontology: Coumaric acids and derivatives
INCHIKEY: DOUMFZQKYFQNTF-WUTVXBCWSA-N
SMILES: OC(=O)[C@@H](CC1=CC(O)=C(O)C=C1)OC(=O)\C=C\C1=CC(O)=C(O)C=C1
RETENTIONTIME: 
CCS: -1
IONMODE: Negative
INSTRUMENTTYPE: LC-ESI-QTOF
INSTRUMENT: 
COLLISIONENERGY: 
Comment: registered in MassBank
Num Peaks: 10
72.993	31
133.0284	27
135.0443	58
161.0239	802
162.0265	23
179.0345	132
197.0448	284
359.07651	1000
360.0802	43
719.16119	235

NAME: Rosmarinic acid; LC-ESI-QTOF; MS2; CE
PRECURSORMZ: 359.077241
PRECURSORTYPE: [M-H]-
FORMULA: C18H16O8
Ontology: Coumaric acids and derivatives
INCHIKEY: DOUMFZQKYFQNTF-WUTVXBCWSA-N
SMILES: OC(=O)[C@@H](CC1=CC(O)=C(O)C=C1)OC(=O)\C=C\C1=CC(O)=C(O)C=C1
RETENTIONTIME: 
CCS: 181.2276172
IONMODE: Negative
INSTRUMENTTYPE: LC-ESI-QTOF
INSTRUMENT: 
COLLISIONENERGY: 30
Comment: registered in MassBank
Num Peaks: 18
73.0355	210
73.8643	20
123.0739	241
123.9669	40
132.1002	40
133.0601	498
134.002	121
135.07091	553
135.96201	92
136.8508	31
151.0892	21
160.049	43
161.054	1000
161.94949	178
162.8231	44
179.0649	260
179.9677	46
197.073	51

NAME: Rosmarinic acid; LC-ESI-QTOF; MS2; CE
PRECURSORMZ: 719.161759
PRECURSORTYPE: [2M-H]-
FORMULA: C18H16O8
Ontology: Coumaric acids and derivatives
INCHIKEY: DOUMFZQKYFQNTF-WUTVXBCWSA-N
SMILES: OC(=O)[C@@H](CC1=CC(O)=C(O)C=C1)OC(=O)\C=C\C1=CC(O)=C(O)C=C1
RETENTIONTIME: 
CCS: -1
IONMODE: Negative
INSTRUMENTTYPE: LC-ESI-QTOF
INSTRUMENT: 
COLLISIONENERGY: 30
Comment: registered in MassBank
Num Peaks: 10
135.0732	23
159.9673	35
161.05251	1000
161.90601	129
162.7874	36
179.0578	89
197.0721	386
197.9518	62
359.0853	355
360.02429	60

NAME: 3,4-Dimethoxycinnamic acid; LC-ESI-QTOF; MS2; CE
PRECURSORMZ: 207.066282
PRECURSORTYPE: [M-H]-
FORMULA: C11H12O4
Ontology: Coumaric acids and derivatives
INCHIKEY: HJBWJAPEBGSQPR-GQCTYLIASA-N
SMILES: COC1=C(OC)C=C(\C=C\C(O)=O)C=C1
RETENTIONTIME: 
CCS: 160.2507266
IONMODE: Negative
INSTRUMENTTYPE: LC-ESI-QTOF
INSTRUMENT: 
COLLISIONENERGY: 
Comment: registered in MassBank
Num Peaks: 12
103.055	642
105.0705	29
118.9934	44
131.0499	81
133.0654	84
148.0522	40
162.9821	72
163.07629	119
192.0432	30
206.97301	44
207.0657	1000
207.2843	23

NAME: 4-Methoxycinnamic acid; LC-ESI-QTOF; MS2; CE
PRECURSORMZ: 177.055718
PRECURSORTYPE: [M-H]-
FORMULA: C10H10O3
Ontology: Cinnamic acids
INCHIKEY: AFDXODALSZRGIH-QPJJXVBHSA-N
SMILES: COC1=CC=C(\C=C\C(O)=O)C=C1
RETENTIONTIME: 
CCS: 150.2147638
IONMODE: Negative
INSTRUMENTTYPE: LC-ESI-QTOF
INSTRUMENT: 
COLLISIONENERGY: 
Comment: registered in MassBank
Num Peaks: 7
88.9985	22
103.0551	675
105.0702	40
131.05099	42
133.0663	295
176.9785	28
177.05521	1000

NAME: 4-Methoxycinnamic acid; LC-ESI-QTOF; MS2; CE
PRECURSORMZ: 177.055718
PRECURSORTYPE: [M-H]-
FORMULA: C10H10O3
Ontology: Cinnamic acids
INCHIKEY: AFDXODALSZRGIH-QPJJXVBHSA-N
SMILES: COC1=CC=C(\C=C\C(O)=O)C=C1
RETENTIONTIME: 
CCS: 150.2147638
IONMODE: Negative
INSTRUMENTTYPE: LC-ESI-QTOF
INSTRUMENT: 
COLLISIONENERGY: 30
Comment: registered in MassBank
Num Peaks: 15
53.1413	32
60.6276	38
65.0402	26
89.1182	26
91.9373	45
95.4066	26
104.6637	35
110.7138	29
111.6245	32
116.0094	35
117.0721	1000
117.9591	151
118.831	54
121.7825	32
175.08231	22

NAME: Cyanidin-3,5-di-O-glucoside; LC-ESI-QTOF; MS2; CE
PRECURSORMZ: 609.14556
PRECURSORTYPE: [M-2H]-
FORMULA: C27H31O16
Ontology: Anthocyanidin-5-O-glycosides
INCHIKEY: RDFLLVCQYHQOBU-ZOTFFYTFSA-O
SMILES: OC[C@H]1O[C@@H](OC2=CC(O)=CC3=[O+]C(=C(O[C@@H]4O[C@H](CO)[C@@H](O)[C@H](O)[C@H]4O)C=C23)C2=CC(O)=C(O)C=C2)[C@H](O)[C@@H](O)[C@@H]1O
RETENTIONTIME: 
CCS: -1
IONMODE: Negative
INSTRUMENTTYPE: LC-ESI-QTOF
INSTRUMENT: 
COLLISIONENERGY: 
Comment: registered in MassBank
Num Peaks: 22
125.0236	121
147.0088	60
149.0235	27
163.0024	22
175.04131	20
199.03799	27
211.0423	26
227.034	86
241.0506	35
255.0289	141
256.0369	31
257.0463	29
283.0242	477
284.03171	363
285.03979	738
286.04379	39
299.0575	21
309.03839	24
446.0849	238
447.09189	1000
448.09409	44
609.14563	943

NAME: Cyanidin-3,5-di-O-glucoside; LC-ESI-QTOF; MS2; CE
PRECURSORMZ: 627.156125
PRECURSORTYPE: [M-2H+H2O]-
FORMULA: C27H31O16
Ontology: Anthocyanidin-5-O-glycosides
INCHIKEY: RDFLLVCQYHQOBU-ZOTFFYTFSA-O
SMILES: OC[C@H]1O[C@@H](OC2=CC(O)=CC3=[O+]C(=C(O[C@@H]4O[C@H](CO)[C@@H](O)[C@H](O)[C@H]4O)C=C23)C2=CC(O)=C(O)C=C2)[C@H](O)[C@@H](O)[C@@H]1O
RETENTIONTIME: 
CCS: -1
IONMODE: Negative
INSTRUMENTTYPE: LC-ESI-QTOF
INSTRUMENT: 
COLLISIONENERGY: 
Comment: registered in MassBank
Num Peaks: 31
109.0292	61
125.024	64
137.0247	29
149.02431	89
164.0116	22
165.0193	105
166.02679	57
167.03481	128
175.0399	35
176.0114	21
190.99789	46
192.0061	52
193.0141	267
199.0401	44
217.05099	43
223.0401	26
241.0507	95
243.03011	26
267.03	289
284.03299	54
285.04059	346
303.05161	122
309.0401	20
329.08841	124
339.07181	41
355.06741	182
447.0936	185
465.1041	395
466.108	29
517.12097	29
627.15613	1000

NAME: Cyanidin-3,5-di-O-glucoside; LC-ESI-QTOF; MS2; CE
PRECURSORMZ: 609.14556
PRECURSORTYPE: [M-2H]-
FORMULA: C27H31O16
Ontology: Anthocyanidin-5-O-glycosides
INCHIKEY: RDFLLVCQYHQOBU-ZOTFFYTFSA-O
SMILES: OC[C@H]1O[C@@H](OC2=CC(O)=CC3=[O+]C(=C(O[C@@H]4O[C@H](CO)[C@@H](O)[C@H](O)[C@H]4O)C=C23)C2=CC(O)=C(O)C=C2)[C@H](O)[C@@H](O)[C@@H]1O
RETENTIONTIME: 
CCS: -1
IONMODE: Negative
INSTRUMENTTYPE: LC-ESI-QTOF
INSTRUMENT: 
COLLISIONENERGY: 30
Comment: registered in MassBank
Num Peaks: 16
125.0664	123
241.09441	24
282.16721	21
283.04391	237
284.04401	403
285.04871	1000
285.95129	178
286.86359	66
287.79889	33
299.07199	36
309.0575	27
321.07019	28
327.06369	22
446.09219	316
447.09119	254
448.00821	54

NAME: Cyanidin-3,5-di-O-glucoside; LC-ESI-QTOF; MS2; CE
PRECURSORMZ: 627.156125
PRECURSORTYPE: [M-2H+H2O]-
FORMULA: C27H31O16
Ontology: Anthocyanidin-5-O-glycosides
INCHIKEY: RDFLLVCQYHQOBU-ZOTFFYTFSA-O
SMILES: OC[C@H]1O[C@@H](OC2=CC(O)=CC3=[O+]C(=C(O[C@@H]4O[C@H](CO)[C@@H](O)[C@H](O)[C@H]4O)C=C23)C2=CC(O)=C(O)C=C2)[C@H](O)[C@@H](O)[C@@H]1O
RETENTIONTIME: 
CCS: -1
IONMODE: Negative
INSTRUMENTTYPE: LC-ESI-QTOF
INSTRUMENT: 
COLLISIONENERGY: 30
Comment: registered in MassBank
Num Peaks: 40
109.0594	63
125.0676	116
149.0526	118
161.04691	38
165.05409	73
166.0034	44
167.0672	204
167.9388	34
177.01981	33
191.0601	51
192.00101	79
193.0387	696
193.8999	103
194.7905	33
199.0582	45
217.0728	53
241.0714	231
241.9727	53
243.0061	55
259.07101	39
267.0481	622
267.9599	112
268.85501	36
283.02509	35
284.05109	160
285.05441	1000
285.96841	170
286.88931	61
303.0665	416
303.97409	79
309.0463	50
329.10239	422
330.0061	74
339.08099	104
354.06241	45
355.07889	310
356.01361	59
447.10391	161
448.06989	34
465.108	116

NAME: Ideain; LC-ESI-QTOF; MS2; CE
PRECURSORMZ: 447.092736
PRECURSORTYPE: [M-2H]-
FORMULA: C21H21O11
Ontology: Anthocyanidin-3-O-glycosides
INCHIKEY: RKWHWFONKJEUEF-WVXKDWSHSA-O
SMILES: OC[C@H]1O[C@@H](OC2=C([O+]=C3C=C(O)C=C(O)C3=C2)C2=CC(O)=C(O)C=C2)[C@H](O)[C@@H](O)[C@H]1O
RETENTIONTIME: 
CCS: -1
IONMODE: Negative
INSTRUMENTTYPE: LC-ESI-QTOF
INSTRUMENT: 
COLLISIONENERGY: 
Comment: registered in MassBank
Num Peaks: 17
125.0242	57
147.00841	93
148.0163	52
183.0448	47
199.0401	40
211.03999	97
212.048	47
227.0349	82
239.035	71
240.0423	52
255.0302	157
256.0368	87
283.0249	92
284.0321	1000
285.03922	345
286.0437	31
447.09271	713

NAME: Ideain; LC-ESI-QTOF; MS2; CE
PRECURSORMZ: 465.103301
PRECURSORTYPE: [M-2H+H2O]-
FORMULA: C21H21O11
Ontology: Anthocyanidin-3-O-glycosides
INCHIKEY: RKWHWFONKJEUEF-WVXKDWSHSA-O
SMILES: OC[C@H]1O[C@@H](OC2=C([O+]=C3C=C(O)C=C(O)C3=C2)C2=CC(O)=C(O)C=C2)[C@H](O)[C@@H](O)[C@H]1O
RETENTIONTIME: 
CCS: -1
IONMODE: Negative
INSTRUMENTTYPE: LC-ESI-QTOF
INSTRUMENT: 
COLLISIONENERGY: 
Comment: registered in MassBank
Num Peaks: 31
101.0241	31
109.0297	57
121.0293	30
125.0244	196
137.0246	63
138.03191	137
148.0163	38
149.0242	283
164.0112	54
165.0191	60
166.02721	261
167.03461	96
174.032	39
175.03979	176
176.0123	52
192.0061	73
193.0141	31
198.0314	35
199.0399	187
201.01981	41
213.05521	32
217.0509	159
241.05099	381
243.0303	84
285.04059	1000
286.0441	74
303.05099	37
329.08801	360
339.07211	98
355.06689	73
465.1033	884

NAME: Ideain; LC-ESI-QTOF; MS2; CE
PRECURSORMZ: 447.092736
PRECURSORTYPE: [M-2H]-
FORMULA: C21H21O11
Ontology: Anthocyanidin-3-O-glycosides
INCHIKEY: RKWHWFONKJEUEF-WVXKDWSHSA-O
SMILES: OC[C@H]1O[C@@H](OC2=C([O+]=C3C=C(O)C=C(O)C3=C2)C2=CC(O)=C(O)C=C2)[C@H](O)[C@@H](O)[C@H]1O
RETENTIONTIME: 
CCS: -1
IONMODE: Negative
INSTRUMENTTYPE: LC-ESI-QTOF
INSTRUMENT: 
COLLISIONENERGY: 30
Comment: registered in MassBank
Num Peaks: 19
125.0585	48
147.045	108
148.01939	57
211.0533	43
212.07159	64
213.0372	30
227.03101	41
228.0201	33
239.033	80
240.0601	94
241.0175	46
255.047	133
256.0452	134
257.02911	62
283.04871	175
284.04761	1000
285.01151	351
285.93271	86
286.82501	35

NAME: Ideain; LC-ESI-QTOF; MS2; CE
PRECURSORMZ: 465.103301
PRECURSORTYPE: [M-2H+H2O]-
FORMULA: C21H21O11
Ontology: Anthocyanidin-3-O-glycosides
INCHIKEY: RKWHWFONKJEUEF-WVXKDWSHSA-O
SMILES: OC[C@H]1O[C@@H](OC2=C([O+]=C3C=C(O)C=C(O)C3=C2)C2=CC(O)=C(O)C=C2)[C@H](O)[C@@H](O)[C@H]1O
RETENTIONTIME: 
CCS: -1
IONMODE: Negative
INSTRUMENTTYPE: LC-ESI-QTOF
INSTRUMENT: 
COLLISIONENERGY: 30
Comment: registered in MassBank
Num Peaks: 68
59.0454	35
71.0523	67
89.0408	69
101.0661	101
109.045	83
113.0318	43
121.0761	45
123.1006	42
124.125	32
125.0621	510
125.9522	72
137.0406	73
138.0471	217
138.98959	48
148.05589	64
149.0562	766
149.9342	136
150.89149	52
155.0556	32
161.07339	66
162.87289	34
164.06059	143
165.0365	245
166.05611	1000
167.017	402
167.91	91
168.9288	51
169.8801	35
171.062	55
173.13229	35
174.10049	57
175.0699	375
176.0199	234
177.0154	97
177.9738	35
179.0042	51
185.0433	40
191.0257	53
192.03349	254
192.98441	104
195.0049	33
197.0708	84
198.00369	108
199.0694	549
200.0024	107
201.02921	136
201.96111	39
209.0795	39
213.0605	117
213.99339	41
215.0639	88
216.05881	61
217.0717	527
217.98911	118
219.10139	60
223.07201	47
226.0851	50
238.9987	34
240.011	57
241.07449	812
241.9994	250
243.0399	309
243.952	82
257.06189	83
285.05679	476
285.99329	105
329.10291	163
330.02371	40

NAME: Cyanidin-3-glucoside; LC-ESI-QTOF; MS2; CE
PRECURSORMZ: 447.092736
PRECURSORTYPE: [M-2H]-
FORMULA: C21H21O11
Ontology: Anthocyanidin-3-O-glycosides
INCHIKEY: RKWHWFONKJEUEF-GQUPQBGVSA-O
SMILES: OC[C@H]1O[C@@H](OC2=C([O+]=C3C=C(O)C=C(O)C3=C2)C2=CC(O)=C(O)C=C2)[C@H](O)[C@@H](O)[C@@H]1O
RETENTIONTIME: 
CCS: -1
IONMODE: Negative
INSTRUMENTTYPE: LC-ESI-QTOF
INSTRUMENT: 
COLLISIONENERGY: 
Comment: registered in MassBank
Num Peaks: 20
109.029	32
125.0243	72
147.00841	121
148.01601	54
183.0452	56
187.04041	30
199.04041	45
211.0401	115
212.04781	55
227.0345	94
239.0347	85
240.0424	54
255.02991	168
256.03699	104
257.04471	50
283.02499	94
284.03259	1000
285.04001	705
286.0441	67
447.09271	813

NAME: Cyanidin-3-glucoside; LC-ESI-QTOF; MS2; CE
PRECURSORMZ: 465.103301
PRECURSORTYPE: [M-2H+H2O]-
FORMULA: C21H21O11
Ontology: Anthocyanidin-3-O-glycosides
INCHIKEY: RKWHWFONKJEUEF-GQUPQBGVSA-O
SMILES: OC[C@H]1O[C@@H](OC2=C([O+]=C3C=C(O)C=C(O)C3=C2)C2=CC(O)=C(O)C=C2)[C@H](O)[C@@H](O)[C@@H]1O
RETENTIONTIME: 
CCS: -1
IONMODE: Negative
INSTRUMENTTYPE: LC-ESI-QTOF
INSTRUMENT: 
COLLISIONENERGY: 
Comment: registered in MassBank
Num Peaks: 32
108.0214	31
109.0291	55
121.0295	35
125.0241	210
137.02409	78
138.03191	139
148.0164	36
149.024	217
161.0242	45
164.0117	58
165.0191	83
166.0269	256
167.03481	155
174.03169	43
175.03979	194
176.0117	58
192.0061	56
193.0139	55
198.03259	42
199.03979	208
201.0197	49
213.0558	41
217.0508	162
241.0508	423
243.03	85
285.04041	1000
286.04449	74
303.05121	67
329.08801	373
339.07309	93
355.0672	71
465.1033	912

NAME: Cyanidin-3-glucoside; LC-ESI-QTOF; MS2; CE
PRECURSORMZ: 447.092736
PRECURSORTYPE: [M-2H]-
FORMULA: C21H21O11
Ontology: Anthocyanidin-3-O-glycosides
INCHIKEY: RKWHWFONKJEUEF-GQUPQBGVSA-O
SMILES: OC[C@H]1O[C@@H](OC2=C([O+]=C3C=C(O)C=C(O)C3=C2)C2=CC(O)=C(O)C=C2)[C@H](O)[C@@H](O)[C@@H]1O
RETENTIONTIME: 
CCS: -1
IONMODE: Negative
INSTRUMENTTYPE: LC-ESI-QTOF
INSTRUMENT: 
COLLISIONENERGY: 30
Comment: registered in MassBank
Num Peaks: 27
109.0474	34
125.0605	61
147.0493	156
148.0087	65
148.9823	34
175.0518	34
200.05479	30
211.06081	48
212.05009	74
213.0322	45
217.065	34
227.06461	43
228.04649	35
239.04401	89
240.041	108
241.01511	70
241.9939	32
243.03571	33
255.0551	138
256.04471	148
257.0365	107
281.84341	32
283.04779	184
284.0462	1000
285.0213	486
285.9505	121
286.84631	41

NAME: Cyanidin-3-glucoside; LC-ESI-QTOF; MS2; CE
PRECURSORMZ: 465.103301
PRECURSORTYPE: [M-2H+H2O]-
FORMULA: C21H21O11
Ontology: Anthocyanidin-3-O-glycosides
INCHIKEY: RKWHWFONKJEUEF-GQUPQBGVSA-O
SMILES: OC[C@H]1O[C@@H](OC2=C([O+]=C3C=C(O)C=C(O)C3=C2)C2=CC(O)=C(O)C=C2)[C@H](O)[C@@H](O)[C@@H]1O
RETENTIONTIME: 
CCS: -1
IONMODE: Negative
INSTRUMENTTYPE: LC-ESI-QTOF
INSTRUMENT: 
COLLISIONENERGY: 30
Comment: registered in MassBank
Num Peaks: 79
71.0257	57
81.0759	31
89.0464	55
101.0599	79
108.0822	36
109.0787	90
113.0987	43
121.064	40
123.0206	52
124.02	32
125.0618	542
125.9135	75
126.8857	30
135.99271	37
137.0809	93
138.04871	233
138.9259	52
145.12289	30
146.9734	31
148.08299	63
149.0546	639
149.94431	120
151.0536	53
161.0462	92
164.0556	139
165.04559	322
166.0466	1000
167.0327	621
167.8925	104
168.8932	63
169.87421	39
171.0267	52
172.9254	38
173.9747	57
175.07111	393
176.0331	272
177.0045	98
177.94189	37
178.9977	44
185.0524	46
187.0369	31
189.08099	39
191.0674	44
192.0153	190
193.0049	157
193.8737	32
194.7682	32
197.0753	80
198.0376	125
199.07269	603
200.01311	152
201.0293	164
201.9467	46
202.90891	31
209.08971	37
210.9637	31
211.9205	31
213.07561	128
214.0372	42
215.0321	80
216.03329	70
217.0687	567
217.9711	124
218.95351	52
223.0376	55
226.0452	55
238.9897	36
240.0119	65
241.0715	839
242.0126	250
243.0264	297
243.9312	73
244.89301	32
257.06131	75
285.0582	466
285.9874	105
286.8959	33
329.09879	191
330.0419	50

NAME: Malvidin-3-O-beta-D-galactoside; LC-ESI-QTOF; MS2; CE
PRECURSORMZ: 491.118951
PRECURSORTYPE: [M-2H]-
FORMULA: C23H25O12
Ontology: Anthocyanidin-3-O-glycosides
INCHIKEY: PXUQTDZNOHRWLI-XSEKTIEYSA-O
SMILES: COC1=CC(=CC(OC)=C1O)C1=C(O[C@@H]2O[C@H](CO)[C@H](O)[C@H](O)[C@H]2O)C=C2C(O)=CC(O)=CC2=[O+]1
RETENTIONTIME: 
CCS: -1
IONMODE: Negative
INSTRUMENTTYPE: LC-ESI-QTOF
INSTRUMENT: 
COLLISIONENERGY: 
Comment: registered in MassBank
Num Peaks: 26
186.0316	46
198.03191	42
214.0266	205
215.033	39
226.0269	124
227.03259	45
242.0213	152
243.02811	80
253.01379	57
254.0217	137
255.02901	54
270.0166	176
271.02429	111
281.0083	44
282.01721	52
285.04031	73
298.0112	78
299.01859	147
313.0347	568
314.0419	203
328.05869	832
329.0658	610
330.07169	61
331.08121	39
343.08121	34
491.1189	1000

NAME: Malvidin-3-O-beta-D-galactoside; LC-ESI-QTOF; MS2; CE
PRECURSORMZ: 509.129516
PRECURSORTYPE: [M-2H+H2O]-
FORMULA: C23H25O12
Ontology: Anthocyanidin-3-O-glycosides
INCHIKEY: PXUQTDZNOHRWLI-XSEKTIEYSA-O
SMILES: COC1=CC(=CC(OC)=C1O)C1=C(O[C@@H]2O[C@H](CO)[C@H](O)[C@H](O)[C@H]2O)C=C2C(O)=CC(O)=CC2=[O+]1
RETENTIONTIME: 
CCS: -1
IONMODE: Negative
INSTRUMENTTYPE: LC-ESI-QTOF
INSTRUMENT: 
COLLISIONENERGY: 
Comment: registered in MassBank
Num Peaks: 23
121.029	38
137.024	139
138.03169	63
149.024	350
152.0479	43
164.0117	63
165.01849	137
166.0267	37
192.0058	101
193.01379	67
199.03979	32
227.03461	47
243.0298	44
261.0766	33
271.0253	62
299.0195	256
314.043	250
329.06781	725
330.07129	31
346.06961	82
347.07639	88
355.0675	180
509.12949	1000

NAME: Malvidin-3-O-beta-D-galactoside; LC-ESI-QTOF; MS2; CE
PRECURSORMZ: 491.118951
PRECURSORTYPE: [M-2H]-
FORMULA: C23H25O12
Ontology: Anthocyanidin-3-O-glycosides
INCHIKEY: PXUQTDZNOHRWLI-XSEKTIEYSA-O
SMILES: COC1=CC(=CC(OC)=C1O)C1=C(O[C@@H]2O[C@H](CO)[C@H](O)[C@H](O)[C@H]2O)C=C2C(O)=CC(O)=CC2=[O+]1
RETENTIONTIME: 
CCS: -1
IONMODE: Negative
INSTRUMENTTYPE: LC-ESI-QTOF
INSTRUMENT: 
COLLISIONENERGY: 30
Comment: registered in MassBank
Num Peaks: 26
214.07919	42
242.0836	46
254.0123	76
255.0426	58
257.00919	40
269.05151	35
270.03259	104
271.013	69
281.01099	39
282.04849	38
285.05911	68
286.03091	33
287.04959	33
298.0499	74
299.0264	193
299.95569	48
300.92209	34
311.37521	32
313.05289	1000
314.02881	474
314.96579	121
315.8457	45
328.07529	604
329.0466	351
329.92181	72
330.86349	31

NAME: Malvidin-3-O-beta-D-galactoside; LC-ESI-QTOF; MS2; CE
PRECURSORMZ: 509.129516
PRECURSORTYPE: [M-2H+H2O]-
FORMULA: C23H25O12
Ontology: Anthocyanidin-3-O-glycosides
INCHIKEY: PXUQTDZNOHRWLI-XSEKTIEYSA-O
SMILES: COC1=CC(=CC(OC)=C1O)C1=C(O[C@@H]2O[C@H](CO)[C@H](O)[C@H](O)[C@H]2O)C=C2C(O)=CC(O)=CC2=[O+]1
RETENTIONTIME: 
CCS: -1
IONMODE: Negative
INSTRUMENTTYPE: LC-ESI-QTOF
INSTRUMENT: 
COLLISIONENERGY: 30
Comment: registered in MassBank
Num Peaks: 43
121.0396	37
125.0551	64
137.0517	202
138.0224	93
148.0807	36
149.0529	725
149.8871	111
150.8217	37
152.09641	88
153.07761	83
164.0498	113
165.0448	367
166.02	133
167.0428	83
180.0652	95
192.03	322
193.0172	190
193.96111	38
205.0359	37
220.0264	35
246.0692	35
254.98151	32
260.0527	32
261.07159	104
262.80811	30
269.9762	31
271.01859	44
288.03659	34
299.04099	529
299.95291	93
300.9111	37
301.94321	30
303.06329	38
313.0278	60
314.05679	1000
314.96341	181
315.8851	63
328.06161	49
329.08279	653
329.99039	127
330.93951	43
346.08621	70
347.06229	54

NAME: Coniferyl aldehyde; LC-ESI-QTOF; MS2; CE
PRECURSORMZ: 177.055718
PRECURSORTYPE: [M-H]-
FORMULA: C10H10O3
Ontology: Methoxyphenols
INCHIKEY: DKZBBWMURDFHNE-NSCUHMNNSA-N
SMILES: COC1=C(O)C=CC(\C=C\C=O)=C1
RETENTIONTIME: 
CCS: 137.548658
IONMODE: Negative
INSTRUMENTTYPE: LC-ESI-QTOF
INSTRUMENT: 
COLLISIONENERGY: 
Comment: registered in MassBank
Num Peaks: 3
134.03751	59
162.0311	1000
177.05521	286

NAME: Citric acid; LC-ESI-QTOF; MS2; CE
PRECURSORMZ: 191.019726
PRECURSORTYPE: [M-H]-
FORMULA: C6H8O7
Ontology: Tricarboxylic acids and derivatives
INCHIKEY: KRKNYBCHXYNGOX-UHFFFAOYSA-N
SMILES: OC(=O)CC(O)(CC(O)=O)C(O)=O
RETENTIONTIME: 
CCS: 132.8436043
IONMODE: Negative
INSTRUMENTTYPE: LC-ESI-QTOF
INSTRUMENT: 
COLLISIONENERGY: 
Comment: registered in MassBank
Num Peaks: 14
85.0298	300
86.1162	33
87.0081	400
102.948	100
111.0082	1000
129.01961	67
145.89149	133
146.8976	533
146.935	67
146.9581	33
162.892	567
173.0049	67
190.89349	67
191.0192	300

NAME: trans-4-Hydroxy-3-methoxycinnamate; LC-ESI-QTOF; MS2; CE
PRECURSORMZ: 193.050632
PRECURSORTYPE: [M-H]-
FORMULA: C10H10O4
Ontology: Hydroxycinnamic acids
INCHIKEY: KSEBMYQBYZTDHS-HWKANZROSA-N
SMILES: COC1=C(O)C=CC(\C=C\C(O)=O)=C1
RETENTIONTIME: 
CCS: 140.2856104
IONMODE: Negative
INSTRUMENTTYPE: LC-ESI-QTOF
INSTRUMENT: 
COLLISIONENERGY: 
Comment: registered in MassBank
Num Peaks: 4
134.0369	1000
149.061	121
178.0264	269
193.05009	338

NAME: L-Iditol; LC-ESI-QTOF; MS2; CE
PRECURSORMZ: 181.071762
PRECURSORTYPE: [M-H]-
FORMULA: C6H14O6
Ontology: Sugar alcohols
INCHIKEY: FBPFZTCFMRRESA-UNTFVMJOSA-N
SMILES: OC[C@H](O)[C@@H](O)[C@H](O)[C@@H](O)CO
RETENTIONTIME: 
CCS: 132.9250301
IONMODE: Negative
INSTRUMENTTYPE: LC-ESI-QTOF
INSTRUMENT: 
COLLISIONENERGY: 
Comment: registered in MassBank
Num Peaks: 6
59.0149	123
71.015	352
73.0309	167
89.0242	130
101.0249	259
181.0712	1000

NAME: Isopentenyladenosine; LC-ESI-QTOF; MS2; CE
PRECURSORMZ: 334.152078
PRECURSORTYPE: [M-H]-
FORMULA: C15H21N5O4
Ontology: Purine nucleosides
INCHIKEY: USVMJSALORZVDV-SDBHATRESA-N
SMILES: CC(C)=CCNC1=C2N=CN([C@@H]3O[C@H](CO)[C@@H](O)[C@H]3O)C2=NC=N1
RETENTIONTIME: 
CCS: 178.6400612
IONMODE: Negative
INSTRUMENTTYPE: LC-ESI-QTOF
INSTRUMENT: 
COLLISIONENERGY: 
Comment: registered in MassBank
Num Peaks: 6
107.0363	91
133.0392	314
134.047	1000
202.1096	940
266.08969	160
334.15161	174

NAME: (-)-Shikimic acid; LC-ESI-QTOF; MS2; CE
PRECURSORMZ: 173.045547
PRECURSORTYPE: [M-H]-
FORMULA: C7H10O5
Ontology: Shikimic acids and derivatves
INCHIKEY: JXOHGGNKMLTUBP-HSUXUTPPSA-N
SMILES: O[C@@H]1CC(=C[C@@H](O)[C@H]1O)C(O)=O
RETENTIONTIME: 
CCS: 132.4589604
IONMODE: Negative
INSTRUMENTTYPE: LC-ESI-QTOF
INSTRUMENT: 
COLLISIONENERGY: 
Comment: registered in MassBank
Num Peaks: 8
73.0301	284
83.05	151
93.0348	1000
99.045	124
111.0439	324
137.02361	253
155.03481	160
173.045	364

NAME: (+-)-Baclofen; LC-ESI-QTOF; MS2; CE
PRECURSORMZ: 212.04838
PRECURSORTYPE: [M-H]-
FORMULA: C10H12ClNO2
Ontology: Gamma amino acids and derivatives
INCHIKEY: KPYSYYIEGFHWSV-UHFFFAOYNA-N
SMILES: NCC(CC(O)=O)C1=CC=C(Cl)C=C1
RETENTIONTIME: 
CCS: 145.4701451
IONMODE: Negative
INSTRUMENTTYPE: LC-ESI-QTOF
INSTRUMENT: 
COLLISIONENERGY: 
Comment: registered in MassBank
Num Peaks: 8
103.0551	80
139.032	780
151.03191	360
183.022	90
195.02029	50
195.817	80
197.8098	100
212.0479	1000

NAME: 16-Hydroxyhexadecanoic acid; LC-ESI-QTOF; MS2; CE
PRECURSORMZ: 271.227868
PRECURSORTYPE: [M-H]-
FORMULA: C16H32O3
Ontology: Long-chain fatty acids
INCHIKEY: UGAGPNKCDRTDHP-UHFFFAOYSA-N
SMILES: OCCCCCCCCCCCCCCCC(O)=O
RETENTIONTIME: 
CCS: 173.0013774
IONMODE: Negative
INSTRUMENTTYPE: LC-ESI-QTOF
INSTRUMENT: 
COLLISIONENERGY: 
Comment: registered in MassBank
Num Peaks: 3
84.9378	88
128.92999	72
271.22729	1000

NAME: 1-Aminocyclopropane-1-carboxylic acid; LC-ESI-QTOF; MS2; CE
PRECURSORMZ: 100.040402
PRECURSORTYPE: [M-H]-
FORMULA: C4H7NO2
Ontology: Alpha amino acids
INCHIKEY: PAJPWUMXBYXFCZ-UHFFFAOYSA-N
SMILES: NC1(CC1)C(O)=O
RETENTIONTIME: 
CCS: 117.4746919
IONMODE: Negative
INSTRUMENTTYPE: LC-ESI-QTOF
INSTRUMENT: 
COLLISIONENERGY: 
Comment: registered in MassBank
Num Peaks: 2
99.9251	111
100.0399	1000

NAME: 4-Methylumbelliferone; LC-ESI-QTOF; MS2; CE
PRECURSORMZ: 175.040068
PRECURSORTYPE: [M-H]-
FORMULA: C10H8O3
Ontology: 7-hydroxycoumarins
INCHIKEY: HSHNITRMYYLLCV-UHFFFAOYSA-N
SMILES: CC1=CC(=O)OC2=C1C=CC(O)=C2
RETENTIONTIME: 
CCS: 134.0248643
IONMODE: Negative
INSTRUMENTTYPE: LC-ESI-QTOF
INSTRUMENT: 
COLLISIONENERGY: 
Comment: registered in MassBank
Num Peaks: 6
105.0361	53
119.0518	117
131.0519	134
133.0311	179
147.0471	113
175.03951	1000

NAME: 6-(gamma,gamma-Dimethylallylamino)purine; LC-ESI-QTOF; MS2; CE
PRECURSORMZ: 202.109819
PRECURSORTYPE: [M-H]-
FORMULA: C10H13N5
Ontology: Hydropyrimidines
INCHIKEY: XVVUABVHOSCDJP-UHFFFAOYNA-N
SMILES: CC(C)=CCN=C1N=CNC2=NC=NC12
RETENTIONTIME: 
CCS: -1
IONMODE: Negative
INSTRUMENTTYPE: LC-ESI-QTOF
INSTRUMENT: 
COLLISIONENERGY: 
Comment: registered in MassBank
Num Peaks: 10
106.0283	67
107.0365	104
117.02	76
132.03149	248
133.0388	762
134.0466	1000
164.83659	763
166.8334	255
201.80209	401
202.1093	830

NAME: Adenine; LC-ESI-QTOF; MS2; CE
PRECURSORMZ: 134.047219
PRECURSORTYPE: [M-H]-
FORMULA: C5H5N5
Ontology: 6-aminopurines
INCHIKEY: GFFGJBXGBJISGV-UHFFFAOYSA-N
SMILES: NC1=C2N=CN=C2NC=N1
RETENTIONTIME: 
CCS: 122.1769505
IONMODE: Negative
INSTRUMENTTYPE: LC-ESI-QTOF
INSTRUMENT: 
COLLISIONENERGY: 
Comment: registered in MassBank
Num Peaks: 3
92.0255	66
107.0359	268
134.04671	1000

NAME: Adenine; LC-ESI-QTOF; MS2; CE
PRECURSORMZ: 134.047219
PRECURSORTYPE: [M-H]-
FORMULA: C5H5N5
Ontology: 6-aminopurines
INCHIKEY: GFFGJBXGBJISGV-UHFFFAOYSA-N
SMILES: NC1=C2N=CN=C2NC=N1
RETENTIONTIME: 
CCS: 122.1769505
IONMODE: Negative
INSTRUMENTTYPE: LC-ESI-QTOF
INSTRUMENT: 
COLLISIONENERGY: 30
Comment: registered in MassBank
Num Peaks: 8
64.0102	40
65.0154	360
68.027	80
90.0129	80
92.0258	720
106.0312	40
107.0373	1000
134.04671	760

NAME: Adenosine; LC-ESI-QTOF; MS2; CE
PRECURSORMZ: 266.089477
PRECURSORTYPE: [M-H]-
FORMULA: C10H13N5O4
Ontology: Purine nucleosides
INCHIKEY: OIRDTQYFTABQOQ-KQYNXXCUSA-N
SMILES: NC1=C2N=CN([C@@H]3O[C@H](CO)[C@@H](O)[C@H]3O)C2=NC=N1
RETENTIONTIME: 
CCS: 159.1971274
IONMODE: Negative
INSTRUMENTTYPE: LC-ESI-QTOF
INSTRUMENT: 
COLLISIONENERGY: 
Comment: registered in MassBank
Num Peaks: 3
107.0358	125
134.04671	1000
266.08899	160

NAME: Anthranilic acid; LC-ESI-QTOF; MS2; CE
PRECURSORMZ: 136.040402
PRECURSORTYPE: [M-H]-
FORMULA: C7H7NO2
Ontology: Aminobenzoic acids
INCHIKEY: RWZYAGGXGHYGMB-UHFFFAOYSA-N
SMILES: NC1=CC=CC=C1C(O)=O
RETENTIONTIME: 
CCS: 124.4120246
IONMODE: Negative
INSTRUMENTTYPE: LC-ESI-QTOF
INSTRUMENT: 
COLLISIONENERGY: 
Comment: registered in MassBank
Num Peaks: 2
92.0509	1000
136.0399	336

NAME: L-Histidine; LC-ESI-QTOF; MS2; CE
PRECURSORMZ: 154.0622
PRECURSORTYPE: [M-H]-
FORMULA: C6H9N3O2
Ontology: Histidine and derivatives
INCHIKEY: HNDVDQJCIGZPNO-YFKPBYRVSA-N
SMILES: N[C@@H](CC1=CN=CN1)C(O)=O
RETENTIONTIME: 
CCS: 129.4644498
IONMODE: Negative
INSTRUMENTTYPE: LC-ESI-QTOF
INSTRUMENT: 
COLLISIONENERGY: 
Comment: registered in MassBank
Num Peaks: 9
72.0108	51
80.0388	78
81.0462	75
93.0461	447
108.0567	48
110.0719	119
136.05099	85
137.0352	311
154.06171	1000

NAME: L-Leucine; LC-ESI-QTOF; MS2; CE
PRECURSORMZ: 130.087352
PRECURSORTYPE: [M-H]-
FORMULA: C6H13NO2
Ontology: Leucine and derivatives
INCHIKEY: ROHFNLRQFUQHCH-YFKPBYRVSA-N
SMILES: CC(C)C[C@H](N)C(O)=O
RETENTIONTIME: 
CCS: 130.0300381
IONMODE: Negative
INSTRUMENTTYPE: LC-ESI-QTOF
INSTRUMENT: 
COLLISIONENERGY: 
Comment: registered in MassBank
Num Peaks: 2
84.083	9
130.08681	1000

NAME: L-(-)-Phenylalanine; LC-ESI-QTOF; MS2; CE
PRECURSORMZ: 164.071702
PRECURSORTYPE: [M-H]-
FORMULA: C9H11NO2
Ontology: Phenylalanine and derivatives
INCHIKEY: COLNVLDHVKWLRT-QMMMGPOBSA-N
SMILES: N[C@@H](CC1=CC=CC=C1)C(O)=O
RETENTIONTIME: 
CCS: 135.2474301
IONMODE: Negative
INSTRUMENTTYPE: LC-ESI-QTOF
INSTRUMENT: 
COLLISIONENERGY: 
Comment: registered in MassBank
Num Peaks: 5
72.0099	251
91.0555	52
103.0554	399
147.0448	1000
164.0712	917

NAME: L-Tryptophan; LC-ESI-QTOF; MS2; CE
PRECURSORMZ: 203.082601
PRECURSORTYPE: [M-H]-
FORMULA: C11H12N2O2
Ontology: Indolyl carboxylic acids and derivatives
INCHIKEY: QIVBCDIJIAJPQS-VIFPVBQESA-N
SMILES: N[C@@H](CC1=CNC2=CC=CC=C12)C(O)=O
RETENTIONTIME: 
CCS: 146.6599072
IONMODE: Negative
INSTRUMENTTYPE: LC-ESI-QTOF
INSTRUMENT: 
COLLISIONENERGY: 
Comment: registered in MassBank
Num Peaks: 5
74.0255	412
116.0504	950
142.0658	281
159.09261	208
203.08211	1000

NAME: L-Tyrosine; LC-ESI-QTOF; MS2; CE
PRECURSORMZ: 180.066617
PRECURSORTYPE: [M-H]-
FORMULA: C9H11NO3
Ontology: Tyrosine and derivatives
INCHIKEY: OUYCCCASQSFEME-QMMMGPOBSA-N
SMILES: N[C@@H](CC1=CC=C(O)C=C1)C(O)=O
RETENTIONTIME: 
CCS: 138.7270639
IONMODE: Negative
INSTRUMENTTYPE: LC-ESI-QTOF
INSTRUMENT: 
COLLISIONENERGY: 
Comment: registered in MassBank
Num Peaks: 5
72.0099	131
93.035	135
119.05	380
163.0399	480
180.0661	1000

NAME: Sucrose; LC-ESI-QTOF; MS2; CE
PRECURSORMZ: 341.108935
PRECURSORTYPE: [M-H]-
FORMULA: C12H22O11
Ontology: O-glycosyl compounds
INCHIKEY: CZMRCDWAGMRECN-UGDNZRGBSA-N
SMILES: OC[C@H]1O[C@@](CO)(O[C@H]2O[C@H](CO)[C@@H](O)[C@H](O)[C@H]2O)[C@@H](O)[C@@H]1O
RETENTIONTIME: 
CCS: 174.5740712
IONMODE: Negative
INSTRUMENTTYPE: LC-ESI-QTOF
INSTRUMENT: 
COLLISIONENERGY: 
Comment: registered in MassBank
Num Peaks: 12
59.0153	418
71.0149	801
85.0298	99
89.0247	688
101.0245	569
113.0244	335
119.035	232
131.03481	65
143.03439	96
161.0453	135
179.0558	490
341.1084	1000

NAME: 4-Methylumbelliferone; LC-ESI-QTOF; MS2; CE
PRECURSORMZ: 175.040068
PRECURSORTYPE: [M-H]-
FORMULA: C10H8O3
Ontology: 7-hydroxycoumarins
INCHIKEY: HSHNITRMYYLLCV-UHFFFAOYSA-N
SMILES: CC1=CC(=O)OC2=C1C=CC(O)=C2
RETENTIONTIME: 
CCS: 134.0248643
IONMODE: Negative
INSTRUMENTTYPE: LC-ESI-QTOF
INSTRUMENT: 
COLLISIONENERGY: 
Comment: registered in MassBank
Num Peaks: 5
119.0518	118
131.052	128
133.0312	180
147.0468	110
175.03951	1000

NAME: 4-Methylumbelliferone; LC-ESI-QTOF; MS2; CE
PRECURSORMZ: 175.040068
PRECURSORTYPE: [M-H]-
FORMULA: C10H8O3
Ontology: 7-hydroxycoumarins
INCHIKEY: HSHNITRMYYLLCV-UHFFFAOYSA-N
SMILES: CC1=CC(=O)OC2=C1C=CC(O)=C2
RETENTIONTIME: 
CCS: 134.0248643
IONMODE: Negative
INSTRUMENTTYPE: LC-ESI-QTOF
INSTRUMENT: 
COLLISIONENERGY: 30
Comment: registered in MassBank
Num Peaks: 11
65.0044	196
77.0404	357
89.0401	505
91.0192	115
93.0346	173
105.0348	339
119.05	1000
131.0497	145
133.0287	477
147.04449	235
175.03951	168

NAME: D-(+)-Galacturonic acid; LC-ESI-QTOF; MS2; CE
PRECURSORMZ: 193.035376
PRECURSORTYPE: [M-H]-
FORMULA: C6H10O7
Ontology: Glucuronic acid derivatives
INCHIKEY: AEMOLEFTQBMNLQ-YMDCURPLSA-N
SMILES: OC1O[C@@H]([C@H](O)[C@H](O)[C@H]1O)C(O)=O
RETENTIONTIME: 
CCS: 132.9513007
IONMODE: Negative
INSTRUMENTTYPE: LC-ESI-QTOF
INSTRUMENT: 
COLLISIONENERGY: 
Comment: registered in MassBank
Num Peaks: 13
59.0154	395
71.0147	948
72.9936	1000
73.0306	267
85.0297	662
89.0245	329
95.0132	110
101.0242	343
103.0036	271
113.0243	914
131.0351	243
133.0132	143
193.0349	586

NAME: Nicotinic acid; LC-ESI-QTOF; MS2; CE
PRECURSORMZ: 122.024752
PRECURSORTYPE: [M-H]-
FORMULA: C6H5NO2
Ontology: Pyridinecarboxylic acids
INCHIKEY: PVNIIMVLHYAWGP-UHFFFAOYSA-N
SMILES: OC(=O)C1=CN=CC=C1
RETENTIONTIME: 
CCS: 121.0448239
IONMODE: Negative
INSTRUMENTTYPE: LC-ESI-QTOF
INSTRUMENT: 
COLLISIONENERGY: 
Comment: registered in MassBank
Num Peaks: 2
78.0353	1000
122.0242	378

NAME: 2-Hydroxyisobutyric acid; LC-ESI-QTOF; MS2; CE
PRECURSORMZ: 103.040068
PRECURSORTYPE: [M-H]-
FORMULA: C4H8O3
Ontology: Alpha hydroxy acids and derivatives
INCHIKEY: BWLBGMIXKSTLSX-UHFFFAOYSA-N
SMILES: CC(C)(O)C(O)=O
RETENTIONTIME: 
CCS: 123.5161787
IONMODE: Negative
INSTRUMENTTYPE: LC-ESI-QTOF
INSTRUMENT: 
COLLISIONENERGY: 
Comment: registered in MassBank
Num Peaks: 4
57.0356	75
85.0273	8
103.0395	1000
103.2074	8

NAME: Indole-3-carboxyaldehyde; LC-ESI-QTOF; MS2; CE
PRECURSORMZ: 144.045487
PRECURSORTYPE: [M-H]-
FORMULA: C9H7NO
Ontology: Indoles
INCHIKEY: OLNJUISKUQQNIM-UHFFFAOYSA-N
SMILES: O=CC1=CNC2=CC=CC=C12
RETENTIONTIME: 
CCS: 128.1238663
IONMODE: Negative
INSTRUMENTTYPE: LC-ESI-QTOF
INSTRUMENT: 
COLLISIONENERGY: 
Comment: registered in MassBank
Num Peaks: 4
115.0437	38
116.0507	25
126.0357	25
144.045	1000

NAME: Indole-3-carboxyaldehyde; LC-ESI-QTOF; MS2; CE
PRECURSORMZ: 144.045487
PRECURSORTYPE: [M-H]-
FORMULA: C9H7NO
Ontology: Indoles
INCHIKEY: OLNJUISKUQQNIM-UHFFFAOYSA-N
SMILES: O=CC1=CNC2=CC=CC=C12
RETENTIONTIME: 
CCS: 128.1238663
IONMODE: Negative
INSTRUMENTTYPE: LC-ESI-QTOF
INSTRUMENT: 
COLLISIONENERGY: 30
Comment: registered in MassBank
Num Peaks: 8
65.9998	74
114.0349	148
115.042	934
116.0507	213
117.0346	49
126.0354	287
142.0314	90
144.045	1000

NAME: Mesaconic acid; LC-ESI-QTOF; MS2; CE
PRECURSORMZ: 129.019332
PRECURSORTYPE: [M-H]-
FORMULA: C5H6O4
Ontology: Methyl-branched fatty acids
INCHIKEY: HNEGQIOMVPPMNR-NSCUHMNNSA-N
SMILES: C\C(=C/C(O)=O)C(O)=O
RETENTIONTIME: 
CCS: 123.7364894
IONMODE: Negative
INSTRUMENTTYPE: LC-ESI-QTOF
INSTRUMENT: 
COLLISIONENERGY: 
Comment: registered in MassBank
Num Peaks: 2
85.0291	1000
129.0188	147

NAME: Pyridoxamine; LC-ESI-QTOF; MS2; CE
PRECURSORMZ: 167.082601
PRECURSORTYPE: [M-H]-
FORMULA: C8H12N2O2
Ontology: Pyridoxamine 5'-phosphates
INCHIKEY: NHZMQXZHNVQTQA-UHFFFAOYSA-N
SMILES: CC1=C(O)C(CN)=C(CO)C=N1
RETENTIONTIME: 
CCS: 135.1980712
IONMODE: Negative
INSTRUMENTTYPE: LC-ESI-QTOF
INSTRUMENT: 
COLLISIONENERGY: 
Comment: registered in MassBank
Num Peaks: 12
107.0363	70
108.0441	282
121.0527	338
122.0598	324
135.0582	85
137.0712	239
138.056	127
147.0544	99
150.05589	183
151.00861	56
166.83521	239
167.08211	1000

NAME: trans-Cinnamic acid; LC-ESI-QTOF; MS2; CE
PRECURSORMZ: 147.045153
PRECURSORTYPE: [M-H]-
FORMULA: C9H8O2
Ontology: Cinnamic acids
INCHIKEY: WBYWAXJHAXSJNI-VOTSOKGWSA-N
SMILES: OC(=O)\C=C\C1=CC=CC=C1
RETENTIONTIME: 
CCS: 128.5647496
IONMODE: Negative
INSTRUMENTTYPE: LC-ESI-QTOF
INSTRUMENT: 
COLLISIONENERGY: 
Comment: registered in MassBank
Num Peaks: 5
102.9346	185
103.0548	1000
145.888	99
146.89729	568
147.0446	630

NAME: ADP; LC-ESI-QTOF; MS2; CE
PRECURSORMZ: 426.022138
PRECURSORTYPE: [M-H]-
FORMULA: C10H15N5O10P2
Ontology: Purine ribonucleoside diphosphates
INCHIKEY: XTWYTFMLZFPYCI-KQYNXXCUSA-N
SMILES: NC1=C2N=CN([C@@H]3O[C@H](COP(O)(=O)OP(O)(O)=O)[C@@H](O)[C@H]3O)C2=NC=N1
RETENTIONTIME: 
CCS: 180.3061453
IONMODE: Negative
INSTRUMENTTYPE: LC-ESI-QTOF
INSTRUMENT: 
COLLISIONENERGY: 
Comment: registered in MassBank
Num Peaks: 4
78.9597	1000
134.0468	662
158.9248	761
426.02161	958

NAME: AMP; LC-ESI-QTOF; MS2; CE
PRECURSORMZ: 346.055808
PRECURSORTYPE: [M-H]-
FORMULA: C10H14N5O7P
Ontology: Purine ribonucleoside monophosphates
INCHIKEY: UDMBCSSLTHHNCD-KQYNXXCUSA-N
SMILES: NC1=C2N=CN([C@@H]3O[C@H](COP(O)(O)=O)[C@@H](O)[C@H]3O)C2=NC=N1
RETENTIONTIME: 
CCS: 170.2284352
IONMODE: Negative
INSTRUMENTTYPE: LC-ESI-QTOF
INSTRUMENT: 
COLLISIONENERGY: 
Comment: registered in MassBank
Num Peaks: 4
78.9598	1000
96.9698	378
134.047	298
346.0553	668

NAME: D-Glucosamine-6-phosphate; LC-ESI-QTOF; MS2; CE
PRECURSORMZ: 258.038426
PRECURSORTYPE: [M-H]-
FORMULA: C6H14NO8P
Ontology: Hexose phosphates
INCHIKEY: XHMJOUIAFHJHBW-UKFBFLRUSA-N
SMILES: N[C@H]1[C@@H](O)O[C@H](COP(O)(O)=O)[C@@H](O)[C@@H]1O
RETENTIONTIME: 
CCS: 147.7582167
IONMODE: Negative
INSTRUMENTTYPE: LC-ESI-QTOF
INSTRUMENT: 
COLLISIONENERGY: 
Comment: registered in MassBank
Num Peaks: 4
78.9596	690
96.9694	1000
199.0013	113
258.0379	246

NAME: Harmaline; LC-ESI-QTOF; MS2; CE
PRECURSORMZ: 213.103337
PRECURSORTYPE: [M-H]-
FORMULA: C13H14N2O
Ontology: Harmala alkaloids
INCHIKEY: QJOZJXNKVMFAET-UHFFFAOYSA-N
SMILES: COC1=CC2=NC3=C(C)NCCC3=C2C=C1
RETENTIONTIME: 
CCS: 154.6283255
IONMODE: Negative
INSTRUMENTTYPE: LC-ESI-QTOF
INSTRUMENT: 
COLLISIONENERGY: 
Comment: registered in MassBank
Num Peaks: 6
170.05969	67
182.04781	53
196.063	44
197.07111	686
198.0789	1000
213.1028	356

NAME: L-Carnosine; LC-ESI-QTOF; MS2; CE
PRECURSORMZ: 225.099314
PRECURSORTYPE: [M-H]-
FORMULA: C9H14N4O3
Ontology: Hybrid peptides
INCHIKEY: CQOVPNPJLQNMDC-ZETCQYMHSA-N
SMILES: NCCC(O)=N[C@@H](CC1=CN=CN1)C(O)=O
RETENTIONTIME: 
CCS: 149.8669213
IONMODE: Negative
INSTRUMENTTYPE: LC-ESI-QTOF
INSTRUMENT: 
COLLISIONENERGY: 
Comment: registered in MassBank
Num Peaks: 7
81.0466	144
93.0458	111
110.0725	1000
154.0623	793
163.1012	108
225.01961	176
225.0988	723

NAME: Leupeptin; LC-ESI-QTOF; MS2; CE
PRECURSORMZ: 425.288177
PRECURSORTYPE: [M-H]-
FORMULA: C20H38N6O4
Ontology: Dipeptides
INCHIKEY: GDBQQVLCIARPGH-IKGGRYGDSA-N
SMILES: CC(C)C[C@H](N=C(C)O)C(O)=N[C@@H](CC(C)C)C(O)=N[C@H](CCCNC(N)=N)C=O
RETENTIONTIME: 
CCS: 200.6528268
IONMODE: Negative
INSTRUMENTTYPE: LC-ESI-QTOF
INSTRUMENT: 
COLLISIONENERGY: 
Comment: registered in MassBank
Num Peaks: 5
129.1033	118
228.1725	135
341.25659	134
383.2702	289
425.2876	1000

NAME: Ciliatine; LC-ESI-QTOF; MS2; CE
PRECURSORMZ: 124.016903
PRECURSORTYPE: [M-H]-
FORMULA: C2H8NO3P
Ontology: Organic phosphonic acids
INCHIKEY: QQVDJLLNRSOCEL-UHFFFAOYSA-N
SMILES: NCCP(O)(O)=O
RETENTIONTIME: 
CCS: 123.9824609
IONMODE: Negative
INSTRUMENTTYPE: LC-ESI-QTOF
INSTRUMENT: 
COLLISIONENERGY: 
Comment: registered in MassBank
Num Peaks: 4
78.9595	778
79.9672	52
106.9891	78
124.0164	1000

NAME: 2'-Deoxyadenosine 5'-monophosphate; LC-ESI-QTOF; MS2; CE
PRECURSORMZ: 330.060893
PRECURSORTYPE: [M-H]-
FORMULA: C10H14N5O6P
Ontology: Purine 2'-deoxyribonucleoside monophosphates
INCHIKEY: KHWCHTKSEGGWEX-RRKCRQDMSA-N
SMILES: NC1=C2N=CN([C@H]3C[C@H](O)[C@@H](COP(O)(O)=O)O3)C2=NC=N1
RETENTIONTIME: 
CCS: 168.2815969
IONMODE: Negative
INSTRUMENTTYPE: LC-ESI-QTOF
INSTRUMENT: 
COLLISIONENERGY: 
Comment: registered in MassBank
Num Peaks: 6
78.9595	1000
96.9692	291
134.04691	770
176.9959	155
195.00639	352
330.06039	687

NAME: 2'-Deoxycytidine; LC-ESI-QTOF; MS2; CE
PRECURSORMZ: 226.083329
PRECURSORTYPE: [M-H]-
FORMULA: C9H13N3O4
Ontology: Pyrimidine 2'-deoxyribonucleosides
INCHIKEY: CKTSBUTUHBMZGZ-SHYZEUOFSA-N
SMILES: OC[C@H]1O[C@H](C[C@@H]1O)N1C=CC(=N)N=C1O
RETENTIONTIME: 
CCS: 150.26497
IONMODE: Negative
INSTRUMENTTYPE: LC-ESI-QTOF
INSTRUMENT: 
COLLISIONENERGY: 
Comment: registered in MassBank
Num Peaks: 6
66.0362	156
93.0472	1000
135.0583	144
209.9796	111
226.0144	133
226.08279	233

NAME: 2'-Deoxycytidine 5'-diphosphate; LC-ESI-QTOF; MS2; CE
PRECURSORMZ: 386.01599
PRECURSORTYPE: [M-H]-
FORMULA: C9H15N3O10P2
Ontology: Organic pyrophosphates
INCHIKEY: FTDHDKPUHBLBTL-SHYZEUOFSA-N
SMILES: O[C@H]1C[C@@H](O[C@@H]1COP(O)(=O)OP(O)(O)=O)N1C=CC(=N)N=C1O
RETENTIONTIME: 
CCS: 173.3973974
IONMODE: Negative
INSTRUMENTTYPE: LC-ESI-QTOF
INSTRUMENT: 
COLLISIONENERGY: 
Comment: registered in MassBank
Num Peaks: 8
78.9597	1000
96.9693	70
158.9249	546
162.89481	43
256.96161	108
274.97311	76
368.00299	135
386.0155	838

NAME: 2'-Deoxyinosine 5'-monophosphate; LC-ESI-QTOF; MS2; CE
PRECURSORMZ: 331.044909
PRECURSORTYPE: [M-H]-
FORMULA: C10H13N4O7P
Ontology: Purine 2'-deoxyribonucleoside monophosphates
INCHIKEY: PHNGFPPXDJJADG-RRKCRQDMSA-N
SMILES: O[C@H]1C[C@@H](O[C@@H]1COP(O)(O)=O)N1C=NC2=C1N=CN=C2O
RETENTIONTIME: 
CCS: 167.4965156
IONMODE: Negative
INSTRUMENTTYPE: LC-ESI-QTOF
INSTRUMENT: 
COLLISIONENERGY: 
Comment: registered in MassBank
Num Peaks: 7
78.9597	1000
92.0257	295
96.9697	321
135.03081	950
176.99561	164
195.0058	477
331.0444	675

NAME: 2-Deoxyribose 5-phosphate; LC-ESI-QTOF; MS2; CE
PRECURSORMZ: 213.016963
PRECURSORTYPE: [M-H]-
FORMULA: C5H11O7P
Ontology: Pentose phosphates
INCHIKEY: KKZFLSZAWCYPOC-PYHARJCCSA-N
SMILES: OC1C[C@H](O)[C@@H](COP(O)(O)=O)O1
RETENTIONTIME: 
CCS: 138.1910443
IONMODE: Negative
INSTRUMENTTYPE: LC-ESI-QTOF
INSTRUMENT: 
COLLISIONENERGY: 
Comment: registered in MassBank
Num Peaks: 3
78.9596	588
96.9694	1000
213.0164	164

NAME: 2'-Deoxyuridine 5'-monophosphate; LC-ESI-QTOF; MS2; CE
PRECURSORMZ: 307.033675
PRECURSORTYPE: [M-H]-
FORMULA: C9H13N2O8P
Ontology: Pyrimidine 2'-deoxyribonucleoside monophosphates
INCHIKEY: JSRLJPSBLDHEIO-SHYZEUOFSA-N
SMILES: O[C@H]1C[C@@H](O[C@@H]1COP(O)(O)=O)N1C=CC(O)=NC1=O
RETENTIONTIME: 
CCS: 161.7854322
IONMODE: Negative
INSTRUMENTTYPE: LC-ESI-QTOF
INSTRUMENT: 
COLLISIONENERGY: 
Comment: registered in MassBank
Num Peaks: 6
78.9598	1000
96.9696	326
111.0199	628
176.99541	159
195.00591	526
307.03311	564

NAME: Sinapic acid; LC-ESI-QTOF; MS2; CE
PRECURSORMZ: 223.061197
PRECURSORTYPE: [M-H]-
FORMULA: C11H12O5
Ontology: Hydroxycinnamic acids
INCHIKEY: PCMORTLOPMLEFB-ONEGZZNKSA-N
SMILES: COC1=CC(\C=C\C(O)=O)=CC(OC)=C1O
RETENTIONTIME: 
CCS: 148.2422518
IONMODE: Negative
INSTRUMENTTYPE: LC-ESI-QTOF
INSTRUMENT: 
COLLISIONENERGY: 
Comment: registered in MassBank
Num Peaks: 13
75.0022	223
93.048	519
121.0467	666
135.06329	96
149.0435	984
163.0625	132
164.0708	808
165.0419	124
179.0961	124
193.0406	523
208.06689	643
223.0607	1000
223.0901	664

NAME: 3'-Dephosphocoenzyme A; LC-ESI-QTOF; MS2; CE
PRECURSORMZ: 686.141602
PRECURSORTYPE: [M-H]-
FORMULA: C21H35N7O13P2S
Ontology: Purine ribonucleoside diphosphates
INCHIKEY: KDTSHFARGAKYJN-IBOSZNHHSA-N
SMILES: CC(C)(COP(O)(=O)OP(O)(=O)OC[C@H]1O[C@H]([C@H](O)[C@@H]1O)N1C=NC2=C(N)N=CN=C12)[C@@H](O)C(O)=NCCC(O)=NCCS
RETENTIONTIME: 
CCS: 232.2920634
IONMODE: Negative
INSTRUMENTTYPE: LC-ESI-QTOF
INSTRUMENT: 
COLLISIONENERGY: 
Comment: registered in MassBank
Num Peaks: 4
78.9601	343
339.0802	236
419.04651	125
686.14111	1000

NAME: 3'-Dephosphocoenzyme A; LC-ESI-QTOF; MS2; CE
PRECURSORMZ: 686.141602
PRECURSORTYPE: [M-H]-
FORMULA: C21H35N7O13P2S
Ontology: Purine ribonucleoside diphosphates
INCHIKEY: KDTSHFARGAKYJN-IBOSZNHHSA-N
SMILES: CC(C)(COP(O)(=O)OP(O)(=O)OC[C@H]1O[C@H]([C@H](O)[C@@H]1O)N1C=NC2=C(N)N=CN=C12)[C@@H](O)C(O)=NCCC(O)=NCCS
RETENTIONTIME: 
CCS: 232.2920634
IONMODE: Negative
INSTRUMENTTYPE: LC-ESI-QTOF
INSTRUMENT: 
COLLISIONENERGY: 30
Comment: registered in MassBank
Num Peaks: 9
78.9599	644
96.9698	151
272.9574	241
339.0795	1000
346.05679	552
357.09021	307
408.01208	595
419.0459	725
686.14111	507

NAME: 3-Hydroxy-DL-kynurenine; LC-ESI-QTOF; MS2; CE
PRECURSORMZ: 223.07243
PRECURSORTYPE: [M-H]-
FORMULA: C10H12N2O4
Ontology: Alkyl-phenylketones
INCHIKEY: VCKPUUFAIGNJHC-UHFFFAOYNA-N
SMILES: NC(CC(=O)C1=C(N)C(O)=CC=C1)C(O)=O
RETENTIONTIME: 
CCS: 147.3516451
IONMODE: Negative
INSTRUMENTTYPE: LC-ESI-QTOF
INSTRUMENT: 
COLLISIONENERGY: 
Comment: registered in MassBank
Num Peaks: 13
108.0652	120
134.0891	240
144.073	240
147.0609	720
160.0722	320
160.8744	200
162.0872	1000
162.8725	280
164.8728	160
188.07091	240
197.8502	120
206.08791	600
223.0719	200

NAME: 3',5'-Cyclic AMP; LC-ESI-QTOF; MS2; CE
PRECURSORMZ: 328.045243
PRECURSORTYPE: [M-H]-
FORMULA: C10H12N5O6P
Ontology: 3',5'-cyclic purine nucleotides
INCHIKEY: IVOMOUWHDPKRLL-KQYNXXCUSA-N
SMILES: NC1=C2N=CN([C@@H]3O[C@@H]4COP(O)(=O)O[C@H]4[C@H]3O)C2=NC=N1
RETENTIONTIME: 
CCS: 167.0918046
IONMODE: Negative
INSTRUMENTTYPE: LC-ESI-QTOF
INSTRUMENT: 
COLLISIONENERGY: 
Comment: registered in MassBank
Num Peaks: 4
78.9723	264
107.0534	99
134.06779	1000
328.09479	539

NAME: Adenosine 5'-diphospho-glucose; LC-ESI-QTOF; MS2; CE
PRECURSORMZ: 588.074962
PRECURSORTYPE: [M-H]-
FORMULA: C16H25N5O15P2
Ontology: Purine nucleotide sugars
INCHIKEY: WFPZSXYXPSUOPY-ROYWQJLOSA-N
SMILES: NC1=C2N=CN([C@@H]3O[C@H](COP(O)(=O)OP(O)(=O)O[C@H]4O[C@H](CO)[C@@H](O)[C@H](O)[C@H]4O)[C@@H](O)[C@H]3O)C2=NC=N1
RETENTIONTIME: 
CCS: 211.9164196
IONMODE: Negative
INSTRUMENTTYPE: LC-ESI-QTOF
INSTRUMENT: 
COLLISIONENERGY: 
Comment: registered in MassBank
Num Peaks: 10
78.9601	723
96.9703	290
134.0475	137
158.92599	151
241.013	413
272.95929	66
320.9791	54
346.0571	877
408.01361	99
588.07452	1000

NAME: Caffeic acid; LC-ESI-QTOF; MS2; CE
PRECURSORMZ: 179.034982
PRECURSORTYPE: [M-H]-
FORMULA: C9H8O4
Ontology: Hydroxycinnamic acids
INCHIKEY: QAIPRVGONGVQAS-RQOWECAXSA-N
SMILES: OC(=O)\C=C/C1=CC(O)=C(O)C=C1
RETENTIONTIME: 
CCS: 135.5545604
IONMODE: Negative
INSTRUMENTTYPE: LC-ESI-QTOF
INSTRUMENT: 
COLLISIONENERGY: 
Comment: registered in MassBank
Num Peaks: 3
134.0369	151
135.04469	1000
179.0345	317

NAME: Creatine; LC-ESI-QTOF; MS2; CE
PRECURSORMZ: 130.0622
PRECURSORTYPE: [M-H]-
FORMULA: C4H9N3O2
Ontology: Alpha amino acids and derivatives
INCHIKEY: CVSVTCORWBXHQV-UHFFFAOYSA-N
SMILES: CN(CC(O)=O)C(N)=N
RETENTIONTIME: 
CCS: 125.5637216
IONMODE: Negative
INSTRUMENTTYPE: LC-ESI-QTOF
INSTRUMENT: 
COLLISIONENERGY: 
Comment: registered in MassBank
Num Peaks: 2
88.0423	1000
130.06171	40

NAME: L(+)-Cystathionine; LC-ESI-QTOF; MS2; CE
PRECURSORMZ: 221.060151
PRECURSORTYPE: [M-H]-
FORMULA: C7H14N2O4S
Ontology: L-cysteine-S-conjugates
INCHIKEY: ILRYLPWNYFXEMH-WHFBIAKZSA-N
SMILES: N[C@@H](CCSC[C@H](N)C(O)=O)C(O)=O
RETENTIONTIME: 
CCS: 146.1815705
IONMODE: Negative
INSTRUMENTTYPE: LC-ESI-QTOF
INSTRUMENT: 
COLLISIONENERGY: 
Comment: registered in MassBank
Num Peaks: 4
120.0122	684
134.0275	1000
220.86031	114
221.0596	734

NAME: Cytidine; LC-ESI-QTOF; MS2; CE
PRECURSORMZ: 242.078244
PRECURSORTYPE: [M-H]-
FORMULA: C9H13N3O5
Ontology: Pyrimidine nucleosides
INCHIKEY: UHDGCWIWMRVCDJ-XVFCMESISA-N
SMILES: OC[C@H]1O[C@H]([C@H](O)[C@@H]1O)N1C=CC(=N)N=C1O
RETENTIONTIME: 
CCS: 152.5274112
IONMODE: Negative
INSTRUMENTTYPE: LC-ESI-QTOF
INSTRUMENT: 
COLLISIONENERGY: 
Comment: registered in MassBank
Num Peaks: 5
81.0464	220
109.0402	1000
110.0367	91
152.045	101
242.0777	411

NAME: Cytidine-3',5'-cyclicmonophosphate; LC-ESI-QTOF; MS2; CE
PRECURSORMZ: 304.03401
PRECURSORTYPE: [M-H]-
FORMULA: C9H12N3O7P
Ontology: Pentose phosphates
INCHIKEY: WCPTXJJVVDAEMW-XVFCMESISA-N
SMILES: O[C@@H]1[C@@H]2OP(O)(=O)OC[C@H]2O[C@H]1N1C=CC(=N)N=C1O
RETENTIONTIME: 
CCS: 161.3457508
IONMODE: Negative
INSTRUMENTTYPE: LC-ESI-QTOF
INSTRUMENT: 
COLLISIONENERGY: 
Comment: registered in MassBank
Num Peaks: 7
67.0318	63
78.9602	998
96.9704	208
110.0364	702
134.98579	51
192.9921	71
304.03351	1000

NAME: CDP; LC-ESI-QTOF; MS2; CE
PRECURSORMZ: 402.010905
PRECURSORTYPE: [M-H]-
FORMULA: C9H15N3O11P2
Ontology: Pyrimidine ribonucleoside diphosphates
INCHIKEY: ZWIADYZPOWUWEW-XVFCMESISA-N
SMILES: O[C@H]1[C@@H](O)[C@@H](O[C@@H]1COP(O)(=O)OP(O)(O)=O)N1C=CC(=N)N=C1O
RETENTIONTIME: 
CCS: 175.4100076
IONMODE: Negative
INSTRUMENTTYPE: LC-ESI-QTOF
INSTRUMENT: 
COLLISIONENERGY: 
Comment: registered in MassBank
Num Peaks: 6
78.9594	1000
110.0355	161
158.9241	564
304.03049	107
383.9996	154
402.01041	819

NAME: Cytidine 5'-diphosphocholine; LC-ESI-QTOF; MS2; CE
PRECURSORMZ: 487.100054
PRECURSORTYPE: [M-H]-
FORMULA: C14H26N4O11P2
Ontology: Pyrimidine ribonucleoside diphosphates
INCHIKEY: RZZPDXZPRHQOCG-OJAKKHQRSA-N
SMILES: C[N+](C)(C)CCOP(O)(=O)OP([O-])(=O)OC[C@H]1O[C@H]([C@H](O)[C@@H]1O)N1C=CC(=N)N=C1O
RETENTIONTIME: 
CCS: 204.5566326
IONMODE: Negative
INSTRUMENTTYPE: LC-ESI-QTOF
INSTRUMENT: 
COLLISIONENERGY: 
Comment: registered in MassBank
Num Peaks: 9
78.9602	671
96.9698	227
110.0359	322
110.9853	128
122.9853	251
304.03531	558
336.0625	158
428.0264	1000
487.09949	200

NAME: Cytidine 5'-monophosphate; LC-ESI-QTOF; MS2; CE
PRECURSORMZ: 322.044575
PRECURSORTYPE: [M-H]-
FORMULA: C9H14N3O8P
Ontology: Pyrimidine ribonucleoside monophosphates
INCHIKEY: IERHLVCPSMICTF-XVFCMESISA-N
SMILES: O[C@H]1[C@@H](O)[C@@H](O[C@@H]1COP(O)(O)=O)N1C=CC(=N)N=C1O
RETENTIONTIME: 
CCS: 164.5825902
IONMODE: Negative
INSTRUMENTTYPE: LC-ESI-QTOF
INSTRUMENT: 
COLLISIONENERGY: 
Comment: registered in MassBank
Num Peaks: 4
78.9599	1000
96.9699	525
138.98	74
322.04401	604

NAME: D-(+)-Malic acid; LC-ESI-QTOF; MS2; CE
PRECURSORMZ: 133.014247
PRECURSORTYPE: [M-H]-
FORMULA: C4H6O5
Ontology: Beta hydroxy acids and derivatives
INCHIKEY: BJEPYKJPYRNKOW-UWTATZPHSA-N
SMILES: O[C@H](CC(O)=O)C(O)=O
RETENTIONTIME: 
CCS: 122.6885198
IONMODE: Negative
INSTRUMENTTYPE: LC-ESI-QTOF
INSTRUMENT: 
COLLISIONENERGY: 
Comment: registered in MassBank
Num Peaks: 5
71.0146	341
72.9935	125
89.0249	57
115.0028	1000
133.0137	534

NAME: D-(+)-Trehalose; LC-ESI-QTOF; MS2; CE
PRECURSORMZ: 341.108935
PRECURSORTYPE: [M-H]-
FORMULA: C12H22O11
Ontology: O-glycosyl compounds
INCHIKEY: HDTRYLNUVZCQOY-LIZSDCNHSA-N
SMILES: OC[C@H]1O[C@H](O[C@H]2O[C@H](CO)[C@@H](O)[C@H](O)[C@H]2O)[C@H](O)[C@@H](O)[C@@H]1O
RETENTIONTIME: 
CCS: 174.3755353
IONMODE: Negative
INSTRUMENTTYPE: LC-ESI-QTOF
INSTRUMENT: 
COLLISIONENERGY: 
Comment: registered in MassBank
Num Peaks: 11
59.0152	386
71.0148	632
85.0298	99
89.0249	561
101.0245	643
113.0245	284
119.0348	230
143.0354	89
161.0457	116
179.05611	418
341.1084	1000

NAME: DL-alpha,epsilon-Diaminopimelic acid; LC-ESI-QTOF; MS2; CE
PRECURSORMZ: 189.08808
PRECURSORTYPE: [M-H]-
FORMULA: C7H14N2O4
Ontology: Alpha amino acids
INCHIKEY: GMKMEZVLHJARHF-UHFFFAOYNA-N
SMILES: NC(CCCC(N)C(O)=O)C(O)=O
RETENTIONTIME: 
CCS: 136.6044161
IONMODE: Negative
INSTRUMENTTYPE: LC-ESI-QTOF
INSTRUMENT: 
COLLISIONENERGY: 
Comment: registered in MassBank
Num Peaks: 5
111.046	121
127.0871	92
128.0717	388
171.07629	183
189.0876	1000

NAME: D-Arabinose 5-phosphate; LC-ESI-QTOF; MS2; CE
PRECURSORMZ: 229.011877
PRECURSORTYPE: [M-H]-
FORMULA: C5H11O8P
Ontology: Pentose phosphates
INCHIKEY: PPQRONHOSHZGFQ-WDCZJNDASA-N
SMILES: O[C@H](COP(O)(O)=O)[C@@H](O)[C@H](O)C=O
RETENTIONTIME: 
CCS: 140.3608267
IONMODE: Negative
INSTRUMENTTYPE: LC-ESI-QTOF
INSTRUMENT: 
COLLISIONENERGY: 
Comment: registered in MassBank
Num Peaks: 4
78.9593	770
96.9692	1000
138.9789	148
229.0114	100

NAME: D-Erythrose-4-phosphate; LC-ESI-QTOF; MS2; CE
PRECURSORMZ: 199.001313
PRECURSORTYPE: [M-H]-
FORMULA: C4H9O7P
Ontology: Monosaccharide phosphates
INCHIKEY: NGHMDNPXVRFFGS-IUYQGCFVSA-N
SMILES: O[C@H](COP(O)(O)=O)[C@@H](O)C=O
RETENTIONTIME: 
CCS: 134.1567753
IONMODE: Negative
INSTRUMENTTYPE: LC-ESI-QTOF
INSTRUMENT: 
COLLISIONENERGY: 
Comment: registered in MassBank
Num Peaks: 5
78.9602	714
96.9703	1000
138.98	81
154.9088	29
199.00079	29

NAME: D-Fructose-6-phosphate; LC-ESI-QTOF; MS2; CE
PRECURSORMZ: 259.022442
PRECURSORTYPE: [M-H]-
FORMULA: C6H13O9P
Ontology: Pentose phosphates
INCHIKEY: BGWGXPAPYGQALX-VRPWFDPXSA-N
SMILES: OCC1(O)O[C@H](COP(O)(O)=O)[C@@H](O)[C@@H]1O
RETENTIONTIME: 
CCS: 147.2156332
IONMODE: Negative
INSTRUMENTTYPE: LC-ESI-QTOF
INSTRUMENT: 
COLLISIONENERGY: 
Comment: registered in MassBank
Num Peaks: 3
78.9595	489
96.9693	1000
259.02191	115

NAME: D-Glucose 6-phosphate; LC-ESI-QTOF; MS2; CE
PRECURSORMZ: 259.022442
PRECURSORTYPE: [M-H]-
FORMULA: C6H13O9P
Ontology: Hexose phosphates
INCHIKEY: NBSCHQHZLSJFNQ-GASJEMHNSA-N
SMILES: OC1O[C@H](COP(O)(O)=O)[C@@H](O)[C@H](O)[C@H]1O
RETENTIONTIME: 
CCS: 147.1625908
IONMODE: Negative
INSTRUMENTTYPE: LC-ESI-QTOF
INSTRUMENT: 
COLLISIONENERGY: 
Comment: registered in MassBank
Num Peaks: 4
78.9597	505
96.9693	1000
138.9792	63
259.02191	139

NAME: DL-6,8-Thioctic acid; LC-ESI-QTOF; MS2; CE
PRECURSORMZ: 205.036245
PRECURSORTYPE: [M-H]-
FORMULA: C8H14O2S2
Ontology: Lipoic acids and derivatives
INCHIKEY: AGBQKNBQESQNJD-UHFFFAOYNA-N
SMILES: OC(=O)CCCCC1CCSS1
RETENTIONTIME: 
CCS: 149.6478309
IONMODE: Negative
INSTRUMENTTYPE: LC-ESI-QTOF
INSTRUMENT: 
COLLISIONENERGY: 
Comment: registered in MassBank
Num Peaks: 7
63.945	141
64.953	255
93.0699	163
127.0568	274
159.0464	51
171.0457	1000
205.03571	60

NAME: DL-threo-beta-Methylaspartic acid; LC-ESI-QTOF; MS2; CE
PRECURSORMZ: 146.045881
PRECURSORTYPE: [M-H]-
FORMULA: C5H9NO4
Ontology: L-alpha-amino acids
INCHIKEY: LXRUAYBIUSUULX-UHFFFAOYNA-N
SMILES: CC(C(N)C(O)=O)C(O)=O
RETENTIONTIME: 
CCS: 126.7909553
IONMODE: Negative
INSTRUMENTTYPE: LC-ESI-QTOF
INSTRUMENT: 
COLLISIONENERGY: 
Comment: registered in MassBank
Num Peaks: 4
85.0295	300
102.056	818
129.01849	118
146.04539	1000

NAME: DL-beta-Hydroxybutyric acid; LC-ESI-QTOF; MS2; CE
PRECURSORMZ: 103.040068
PRECURSORTYPE: [M-H]-
FORMULA: C4H8O3
Ontology: Beta hydroxy acids and derivatives
INCHIKEY: WHBMMWSBFZVSSR-UHFFFAOYNA-N
SMILES: CC(O)CC(O)=O
RETENTIONTIME: 
CCS: 124.257148
IONMODE: Negative
INSTRUMENTTYPE: LC-ESI-QTOF
INSTRUMENT: 
COLLISIONENERGY: 
Comment: registered in MassBank
Num Peaks: 2
59.0141	500
103.0395	1000

NAME: D-Mannose-6-phosphate; LC-ESI-QTOF; MS2; CE
PRECURSORMZ: 259.022442
PRECURSORTYPE: [M-H]-
FORMULA: C6H13O9P
Ontology: Hexose phosphates
INCHIKEY: NBSCHQHZLSJFNQ-QTVWNMPRSA-N
SMILES: OC1O[C@H](COP(O)(O)=O)[C@@H](O)[C@H](O)[C@@H]1O
RETENTIONTIME: 
CCS: 147.1625908
IONMODE: Negative
INSTRUMENTTYPE: LC-ESI-QTOF
INSTRUMENT: 
COLLISIONENERGY: 
Comment: registered in MassBank
Num Peaks: 3
78.9602	615
96.9699	1000
259.02191	180

NAME: D-Ribose 5-phosphate; LC-ESI-QTOF; MS2; CE
PRECURSORMZ: 229.011877
PRECURSORTYPE: [M-H]-
FORMULA: C5H11O8P
Ontology: Pentose phosphates
INCHIKEY: KTVPXOYAKDPRHY-SOOFDHNKSA-N
SMILES: OC1O[C@H](COP(O)(O)=O)[C@@H](O)[C@H]1O
RETENTIONTIME: 
CCS: 140.0709074
IONMODE: Negative
INSTRUMENTTYPE: LC-ESI-QTOF
INSTRUMENT: 
COLLISIONENERGY: 
Comment: registered in MassBank
Num Peaks: 4
78.9596	678
96.9695	1000
138.9801	129
229.0114	139

NAME: D-Ribulose 5-phosphate; LC-ESI-QTOF; MS2; CE
PRECURSORMZ: 229.011877
PRECURSORTYPE: [M-H]-
FORMULA: C5H11O8P
Ontology: Pentose phosphates
INCHIKEY: FNZLKVNUWIIPSJ-UHNVWZDZSA-N
SMILES: OCC(=O)[C@H](O)[C@H](O)COP(O)(O)=O
RETENTIONTIME: 
CCS: 140.1245624
IONMODE: Negative
INSTRUMENTTYPE: LC-ESI-QTOF
INSTRUMENT: 
COLLISIONENERGY: 
Comment: registered in MassBank
Num Peaks: 3
78.959	818
96.9677	1000
229.0114	182

NAME: Riboflavin-5'-monophosphate; LC-ESI-QTOF; MS2; CE
PRECURSORMZ: 455.097338
PRECURSORTYPE: [M-H]-
FORMULA: C17H21N4O9P
Ontology: Flavin nucleotides
INCHIKEY: FVTCRASFADXXNN-SCRDCRAPSA-N
SMILES: CC1=CC2=C(C=C1C)N(C[C@H](O)[C@H](O)[C@H](O)COP(O)(O)=O)C1=NC(=O)N=C(O)C1=N2
RETENTIONTIME: 
CCS: 194.0855094
IONMODE: Negative
INSTRUMENTTYPE: LC-ESI-QTOF
INSTRUMENT: 
COLLISIONENERGY: 
Comment: registered in MassBank
Num Peaks: 5
78.9612	324
96.9706	1000
242.0826	88
454.08899	147
455.10431	235

NAME: Gibberellin A4; LC-ESI-QTOF; MS2; CE
PRECURSORMZ: 331.155097
PRECURSORTYPE: [M-H]-
FORMULA: C19H24O5
Ontology: C19-gibberellin 6-carboxylic acids
INCHIKEY: RSQSQJNRHICNNH-NFMPGMCNSA-N
SMILES: C[C@]12[C@H]3[C@H](C(O)=O)[C@@]45C[C@@H](CC[C@H]4[C@@]3(CC[C@@H]1O)OC2=O)C(=C)C5
RETENTIONTIME: 
CCS: 182.5753534
IONMODE: Negative
INSTRUMENTTYPE: LC-ESI-QTOF
INSTRUMENT: 
COLLISIONENERGY: 
Comment: registered in MassBank
Num Peaks: 9
73.0315	54
213.131	166
225.1675	157
243.1787	194
257.1217	177
269.15811	145
287.16931	162
313.1489	71
331.1546	1000

NAME: Glutaric acid; LC-ESI-QTOF; MS2; CE
PRECURSORMZ: 131.034982
PRECURSORTYPE: [M-H]-
FORMULA: C5H8O4
Ontology: Dicarboxylic acids and derivatives
INCHIKEY: JFCQEDHGNNZCLN-UHFFFAOYSA-N
SMILES: OC(=O)CCCC(O)=O
RETENTIONTIME: 
CCS: 126.4769853
IONMODE: Negative
INSTRUMENTTYPE: LC-ESI-QTOF
INSTRUMENT: 
COLLISIONENERGY: 
Comment: registered in MassBank
Num Peaks: 3
87.0453	1000
113.0249	127
131.0345	418

NAME: L-Glutathione (oxidized form); LC-ESI-QTOF; MS2; CE
PRECURSORMZ: 611.144685
PRECURSORTYPE: [M-H]-
FORMULA: C20H32N6O12S2
Ontology: Peptides
INCHIKEY: YPZRWBKMTBYPTK-BJDJZHNGSA-N
SMILES: N[C@@H](CCC(O)=N[C@@H](CSSC[C@H](N=C(O)CC[C@H](N)C(O)=O)C(O)=NCC(O)=O)C(O)=NCC(O)=O)C(O)=O
RETENTIONTIME: 
CCS: 217.1958453
IONMODE: Negative
INSTRUMENTTYPE: LC-ESI-QTOF
INSTRUMENT: 
COLLISIONENERGY: 
Comment: registered in MassBank
Num Peaks: 14
74.0261	73
99.0567	77
128.03551	318
143.04649	467
160.0079	128
179.04649	129
210.0891	117
254.0793	170
272.09052	312
288.06741	58
304.06219	93
306.07809	728
338.05139	92
611.14423	1000

NAME: Gly-Gly; LC-ESI-QTOF; MS2; CE
PRECURSORMZ: 131.046216
PRECURSORTYPE: [M-H]-
FORMULA: C4H8N2O3
Ontology: Dipeptides
INCHIKEY: YMAWOPBAYDPSLA-UHFFFAOYSA-N
SMILES: NCC(O)=NCC(O)=O
RETENTIONTIME: 
CCS: 123.5930763
IONMODE: Negative
INSTRUMENTTYPE: LC-ESI-QTOF
INSTRUMENT: 
COLLISIONENERGY: 
Comment: registered in MassBank
Num Peaks: 5
74.0255	608
87.0562	686
129.8701	137
130.87891	78
131.0457	1000

NAME: Glycyrrhizin; LC-ESI-QTOF; MS2; CE
PRECURSORMZ: 821.396509
PRECURSORTYPE: [M-H]-
FORMULA: C42H62O16
Ontology: Triterpene saponins
INCHIKEY: LPLVUJXQOOQHMX-QWBHMCJMSA-N
SMILES: CC1(C)[C@H](CC[C@@]2(C)[C@H]1CC[C@]1(C)[C@@H]2C(=O)C=C2[C@@H]3C[C@](C)(CC[C@]3(C)CC[C@@]12C)C(O)=O)O[C@H]1O[C@@H]([C@@H](O)[C@H](O)[C@H]1O[C@@H]1O[C@@H]([C@@H](O)[C@H](O)[C@H]1O)C(O)=O)C(O)=O
RETENTIONTIME: 
CCS: 244.1261022
IONMODE: Negative
INSTRUMENTTYPE: LC-ESI-QTOF
INSTRUMENT: 
COLLISIONENERGY: 
Comment: registered in MassBank
Num Peaks: 4
113.0251	116
193.0363	94
351.05859	217
821.396	1000

NAME: Glycyrrhizin; LC-ESI-QTOF; MS2; CE
PRECURSORMZ: 821.396509
PRECURSORTYPE: [M-H]-
FORMULA: C42H62O16
Ontology: Triterpene saponins
INCHIKEY: LPLVUJXQOOQHMX-QWBHMCJMSA-N
SMILES: CC1(C)[C@H](CC[C@@]2(C)[C@H]1CC[C@]1(C)[C@@H]2C(=O)C=C2[C@@H]3C[C@](C)(CC[C@]3(C)CC[C@@]12C)C(O)=O)O[C@H]1O[C@@H]([C@@H](O)[C@H](O)[C@H]1O[C@@H]1O[C@@H]([C@@H](O)[C@H](O)[C@H]1O)C(O)=O)C(O)=O
RETENTIONTIME: 
CCS: 244.1261022
IONMODE: Negative
INSTRUMENTTYPE: LC-ESI-QTOF
INSTRUMENT: 
COLLISIONENERGY: 30
Comment: registered in MassBank
Num Peaks: 2
351.0589	294
821.396	1000

NAME: Guanine; LC-ESI-QTOF; MS2; CE
PRECURSORMZ: 150.042133
PRECURSORTYPE: [M-H]-
FORMULA: C5H5N5O
Ontology: Purines and purine derivatives
INCHIKEY: UYTPUPDQBNUYGX-UHFFFAOYSA-N
SMILES: OC1=NC(=N)NC2=C1N=CN2
RETENTIONTIME: 
CCS: 126.3124371
IONMODE: Negative
INSTRUMENTTYPE: LC-ESI-QTOF
INSTRUMENT: 
COLLISIONENERGY: 
Comment: registered in MassBank
Num Peaks: 4
66.01	104
108.02	186
133.0153	1000
150.0416	568

NAME: Guanosine; LC-ESI-QTOF; MS2; CE
PRECURSORMZ: 282.084392
PRECURSORTYPE: [M-H]-
FORMULA: C10H13N5O5
Ontology: Purine nucleosides
INCHIKEY: NYHBQMYGNKIUIF-UUOKFMHZSA-N
SMILES: OC[C@H]1O[C@H]([C@H](O)[C@@H]1O)N1C=NC2=C1NC(=N)N=C2O
RETENTIONTIME: 
CCS: 161.5378727
IONMODE: Negative
INSTRUMENTTYPE: LC-ESI-QTOF
INSTRUMENT: 
COLLISIONENERGY: 
Comment: registered in MassBank
Num Peaks: 4
108.0201	207
133.0154	372
150.0415	1000
282.08389	341

NAME: Guanosine-3',5'-cyclic monophosphate; LC-ESI-QTOF; MS2; CE
PRECURSORMZ: 344.040158
PRECURSORTYPE: [M-H]-
FORMULA: C10H12N5O7P
Ontology: 3',5'-cyclic purine nucleotides
INCHIKEY: ZOOGRGPOEVQQDX-UUOKFMHZSA-N
SMILES: O[C@H]1[C@@H](O[C@@H]2COP(O)(=O)O[C@@H]12)N1C=NC2=C1NC(=N)N=C2O
RETENTIONTIME: 
CCS: 169.0791499
IONMODE: Negative
INSTRUMENTTYPE: LC-ESI-QTOF
INSTRUMENT: 
COLLISIONENERGY: 
Comment: registered in MassBank
Num Peaks: 7
78.9604	482
96.9707	63
107.0371	54
108.0212	126
133.0162	602
150.0426	1000
344.03961	942

NAME: Guanosine 5'-diphosphate-D-mannose; LC-ESI-QTOF; MS2; CE
PRECURSORMZ: 604.069876
PRECURSORTYPE: [M-H]-
FORMULA: C16H25N5O16P2
Ontology: Purine nucleotide sugars
INCHIKEY: MVMSCBBUIHUTGJ-GDJBGNAASA-N
SMILES: OC[C@H]1O[C@H](OP(O)(=O)OP(O)(=O)OC[C@H]2O[C@H]([C@H](O)[C@@H]2O)N2C=NC3=C2NC(=N)N=C3O)[C@@H](O)[C@@H](O)[C@@H]1O
RETENTIONTIME: 
CCS: 213.8043166
IONMODE: Negative
INSTRUMENTTYPE: LC-ESI-QTOF
INSTRUMENT: 
COLLISIONENERGY: 
Comment: registered in MassBank
Num Peaks: 7
78.9602	420
150.0425	170
158.9259	318
344.04199	145
424.00851	220
442.01849	191
604.06927	1000

NAME: Guanosine 5'-diphosphoglucose; LC-ESI-QTOF; MS2; CE
PRECURSORMZ: 604.069876
PRECURSORTYPE: [M-H]-
FORMULA: C16H25N5O16P2
Ontology: Purine nucleotide sugars
INCHIKEY: MVMSCBBUIHUTGJ-LRJDVEEWSA-N
SMILES: OC[C@H]1O[C@H](OP(O)(=O)OP(O)(=O)OC[C@H]2O[C@H]([C@H](O)[C@@H]2O)N2C=NC3=C2NC(=N)N=C3O)[C@H](O)[C@@H](O)[C@@H]1O
RETENTIONTIME: 
CCS: 213.8043166
IONMODE: Negative
INSTRUMENTTYPE: LC-ESI-QTOF
INSTRUMENT: 
COLLISIONENERGY: 
Comment: registered in MassBank
Num Peaks: 8
78.9601	808
96.9701	146
158.9257	131
211.0018	155
241.0127	186
362.052	827
424.00931	108
604.06927	1000

NAME: Guanosine 5'-diphospho-beta-L-fucose; LC-ESI-QTOF; MS2; CE
PRECURSORMZ: 588.074962
PRECURSORTYPE: [M-H]-
FORMULA: C16H25N5O15P2
Ontology: Purine nucleotide sugars
INCHIKEY: LQEBEXMHBLQMDB-JGQUBWHWSA-N
SMILES: C[C@@H]1O[C@H](OP(O)(=O)OP(O)(=O)OC[C@H]2O[C@H]([C@H](O)[C@@H]2O)N2C=NC3=C2NC(=N)N=C3O)[C@@H](O)[C@H](O)[C@@H]1O
RETENTIONTIME: 
CCS: 212.8009891
IONMODE: Negative
INSTRUMENTTYPE: LC-ESI-QTOF
INSTRUMENT: 
COLLISIONENERGY: 
Comment: registered in MassBank
Num Peaks: 10
78.9599	503
150.0423	221
158.92551	364
272.95831	68
304.9841	73
344.04031	194
362.05231	118
424.00781	197
442.01749	303
588.07452	1000

NAME: Guanosine 5'-monophosphate; LC-ESI-QTOF; MS2; CE
PRECURSORMZ: 362.050723
PRECURSORTYPE: [M-H]-
FORMULA: C10H14N5O8P
Ontology: Purine ribonucleoside monophosphates
INCHIKEY: RQFCJASXJCIDSX-UUOKFMHZSA-N
SMILES: O[C@@H]1[C@@H](COP(O)(O)=O)O[C@H]([C@@H]1O)N1C=NC2=C1NC(=N)N=C2O
RETENTIONTIME: 
CCS: 172.3660334
IONMODE: Negative
INSTRUMENTTYPE: LC-ESI-QTOF
INSTRUMENT: 
COLLISIONENERGY: 
Comment: registered in MassBank
Num Peaks: 6
78.9597	1000
96.9699	163
133.01489	102
150.0415	114
211.0005	231
362.0502	560

NAME: Hypotaurine; LC-ESI-QTOF; MS2; CE
PRECURSORMZ: 108.012473
PRECURSORTYPE: [M-H]-
FORMULA: C2H7NO2S
Ontology: Sulfinic acids
INCHIKEY: VVIUBCNYACGLLV-UHFFFAOYNA-N
SMILES: NCCS(O)=O
RETENTIONTIME: 
CCS: 129.4819487
IONMODE: Negative
INSTRUMENTTYPE: LC-ESI-QTOF
INSTRUMENT: 
COLLISIONENERGY: 
Comment: registered in MassBank
Num Peaks: 3
63.9627	1000
64.9719	238
108.0119	476

NAME: Indole-3-acetaldehyde; LC-ESI-QTOF; MS2; CE
PRECURSORMZ: 158.061137
PRECURSORTYPE: [M-H]-
FORMULA: C10H9NO
Ontology: 3-alkylindoles
INCHIKEY: WHOOUMGHGSPMGR-UHFFFAOYSA-N
SMILES: O=CCC1=CNC2=CC=CC=C12
RETENTIONTIME: 
CCS: 134.3093908
IONMODE: Negative
INSTRUMENTTYPE: LC-ESI-QTOF
INSTRUMENT: 
COLLISIONENERGY: 
Comment: registered in MassBank
Num Peaks: 3
128.05	520
130.0656	573
158.06059	1000

NAME: Indoleacetic acid; LC-ESI-QTOF; MS2; CE
PRECURSORMZ: 174.056052
PRECURSORTYPE: [M-H]-
FORMULA: C10H9NO2
Ontology: Indole-3-acetic acid derivatives
INCHIKEY: SEOVTRFCIGRIMH-UHFFFAOYSA-N
SMILES: OC(=O)CC1=CNC2=CC=CC=C12
RETENTIONTIME: 
CCS: 137.0797376
IONMODE: Negative
INSTRUMENTTYPE: LC-ESI-QTOF
INSTRUMENT: 
COLLISIONENERGY: 
Comment: registered in MassBank
Num Peaks: 4
128.0507	156
130.06641	1000
143.8976	89
174.0555	378

NAME: Inosine; LC-ESI-QTOF; MS2; CE
PRECURSORMZ: 267.073493
PRECURSORTYPE: [M-H]-
FORMULA: C10H12N4O5
Ontology: Purine nucleosides
INCHIKEY: UGQMRVRMYYASKQ-KQYNXXCUSA-N
SMILES: OC[C@H]1O[C@H]([C@H](O)[C@@H]1O)N1C=NC2=C1N=CN=C2O
RETENTIONTIME: 
CCS: 158.4532116
IONMODE: Negative
INSTRUMENTTYPE: LC-ESI-QTOF
INSTRUMENT: 
COLLISIONENERGY: 
Comment: registered in MassBank
Num Peaks: 4
92.0259	113
108.0207	160
135.03101	1000
267.073	387

NAME: Inosine-5'-diphosphate; LC-ESI-QTOF; MS2; CE
PRECURSORMZ: 427.006154
PRECURSORTYPE: [M-H]-
FORMULA: C10H14N4O11P2
Ontology: Purine ribonucleoside diphosphates
INCHIKEY: JPXZQMKKFWMMGK-KQYNXXCUSA-N
SMILES: O[C@@H]1[C@@H](COP(O)(=O)OP(O)(O)=O)O[C@H]([C@@H]1O)N1C=NC2=C1N=CN=C2O
RETENTIONTIME: 
CCS: 179.420353
IONMODE: Negative
INSTRUMENTTYPE: LC-ESI-QTOF
INSTRUMENT: 
COLLISIONENERGY: 
Comment: registered in MassBank
Num Peaks: 10
78.9602	1000
92.0267	66
96.9711	66
135.032	908
158.9256	882
272.95831	92
329.02899	303
369.02521	66
408.99139	118
427.00562	1000

NAME: Inosine-5'-monophosphate; LC-ESI-QTOF; MS2; CE
PRECURSORMZ: 347.039823
PRECURSORTYPE: [M-H]-
FORMULA: C10H13N4O8P
Ontology: Purine ribonucleoside monophosphates
INCHIKEY: GRSZFWQUAKGDAV-KQYNXXCUSA-N
SMILES: O[C@@H]1[C@@H](COP(O)(O)=O)O[C@H]([C@@H]1O)N1C=NC2=C1N=CN=C2O
RETENTIONTIME: 
CCS: 169.4577825
IONMODE: Negative
INSTRUMENTTYPE: LC-ESI-QTOF
INSTRUMENT: 
COLLISIONENERGY: 
Comment: registered in MassBank
Num Peaks: 7
78.9602	1000
92.026	132
96.9704	496
135.03149	361
150.9805	56
211.00211	89
347.03931	639

NAME: Isobutyryl coenzyme A; LC-ESI-QTOF; MS2; CE
PRECURSORMZ: 836.149797
PRECURSORTYPE: [M-H]-
FORMULA: C25H42N7O17P3S
Ontology: Acyl CoAs
INCHIKEY: AEWHYWSPVRZHCT-NDZSKPAWSA-N
SMILES: CC(C)C(=O)SCCN=C(O)CCN=C(O)[C@H](O)C(C)(C)COP(O)(=O)OP(O)(=O)OC[C@H]1O[C@H]([C@H](O)[C@@H]1OP(O)(O)=O)N1C=NC2=C(N)N=CN=C12
RETENTIONTIME: 
CCS: 251.4005735
IONMODE: Negative
INSTRUMENTTYPE: LC-ESI-QTOF
INSTRUMENT: 
COLLISIONENERGY: 
Comment: registered in MassBank
Num Peaks: 12
78.9599	131
134.0493	66
158.925	115
272.95761	66
328.04861	33
408.01129	197
409.1254	82
426.02051	115
489.08221	115
507.10281	49
756.17572	82
836.14929	1000

NAME: Isobutyryl coenzyme A; LC-ESI-QTOF; MS2; CE
PRECURSORMZ: 836.149797
PRECURSORTYPE: [M-H]-
FORMULA: C25H42N7O17P3S
Ontology: Acyl CoAs
INCHIKEY: AEWHYWSPVRZHCT-NDZSKPAWSA-N
SMILES: CC(C)C(=O)SCCN=C(O)CCN=C(O)[C@H](O)C(C)(C)COP(O)(=O)OP(O)(=O)OC[C@H]1O[C@H]([C@H](O)[C@@H]1OP(O)(O)=O)N1C=NC2=C(N)N=CN=C12
RETENTIONTIME: 
CCS: 251.4005735
IONMODE: Negative
INSTRUMENTTYPE: LC-ESI-QTOF
INSTRUMENT: 
COLLISIONENERGY: 30
Comment: registered in MassBank
Num Peaks: 26
78.9632	83
134.05589	42
158.9269	167
270.9769	42
272.9516	42
272.97409	42
328.0481	208
339.095	42
346.05731	42
408.01581	1000
409.12961	167
410.42609	42
426.026	500
427.14331	42
471.09619	42
487.98318	42
489.09189	625
507.10709	208
510.0907	42
701.08911	42
701.1203	42
738.17249	83
756.18378	458
756.28741	42
818.1687	83
836.14929	958

NAME: Isoguvacine; LC-ESI-QTOF; MS2; CE
PRECURSORMZ: 126.056052
PRECURSORTYPE: [M-H]-
FORMULA: C6H9NO2
Ontology: Hydropyridines
INCHIKEY: KRVDMABBKYMBHG-UHFFFAOYSA-N
SMILES: OC(=O)C1=CCNCC1
RETENTIONTIME: 
CCS: 125.0670109
IONMODE: Negative
INSTRUMENTTYPE: LC-ESI-QTOF
INSTRUMENT: 
COLLISIONENERGY: 
Comment: registered in MassBank
Num Peaks: 2
97.0296	130
126.0555	1000

NAME: Isonicotinic acid; LC-ESI-QTOF; MS2; CE
PRECURSORMZ: 122.024752
PRECURSORTYPE: [M-H]-
FORMULA: C6H5NO2
Ontology: Pyridinecarboxylic acids
INCHIKEY: TWBYWOBDOCUKOW-UHFFFAOYSA-N
SMILES: OC(=O)C1=CC=NC=C1
RETENTIONTIME: 
CCS: 121.0448239
IONMODE: Negative
INSTRUMENTTYPE: LC-ESI-QTOF
INSTRUMENT: 
COLLISIONENERGY: 
Comment: registered in MassBank
Num Peaks: 2
78.0353	1000
122.0242	437

NAME: L-(+)-Arginine; LC-ESI-QTOF; MS2; CE
PRECURSORMZ: 173.104399
PRECURSORTYPE: [M-H]-
FORMULA: C6H14N4O2
Ontology: L-alpha-amino acids
INCHIKEY: ODKSFYDXXFIFQN-BYPYZUCNSA-N
SMILES: N[C@@H](CCCNC(N)=N)C(O)=O
RETENTIONTIME: 
CCS: 135.8360956
IONMODE: Negative
INSTRUMENTTYPE: LC-ESI-QTOF
INSTRUMENT: 
COLLISIONENERGY: 
Comment: registered in MassBank
Num Peaks: 2
131.0817	1000
173.1039	176

NAME: Leu-Leu-Tyr; LC-ESI-QTOF; MS2; CE
PRECURSORMZ: 406.234745
PRECURSORTYPE: [M-H]-
FORMULA: C21H33N3O5
Ontology: Peptides
INCHIKEY: UCNNZELZXFXXJQ-BZSNNMDCSA-N
SMILES: CC(C)C[C@H](N)C(O)=N[C@@H](CC(C)C)C(O)=N[C@@H](CC1=CC=C(O)C=C1)C(O)=O
RETENTIONTIME: 
CCS: 195.1555953
IONMODE: Negative
INSTRUMENTTYPE: LC-ESI-QTOF
INSTRUMENT: 
COLLISIONENERGY: 
Comment: registered in MassBank
Num Peaks: 7
119.0512	124
129.1039	290
180.06731	492
225.162	141
242.189	263
362.24799	154
406.23419	1000

NAME: L-Glutamic acid; LC-ESI-QTOF; MS2; CE
PRECURSORMZ: 146.045881
PRECURSORTYPE: [M-H]-
FORMULA: C5H9NO4
Ontology: Glutamic acid and derivatives
INCHIKEY: WHUUTDBJXJRKMK-VKHMYHEASA-N
SMILES: N[C@@H](CCC(O)=O)C(O)=O
RETENTIONTIME: 
CCS: 126.6424926
IONMODE: Negative
INSTRUMENTTYPE: LC-ESI-QTOF
INSTRUMENT: 
COLLISIONENERGY: 
Comment: registered in MassBank
Num Peaks: 3
102.0559	1000
128.03529	584
146.04539	663

NAME: L-Homocarnosine; LC-ESI-QTOF; MS2; CE
PRECURSORMZ: 239.114964
PRECURSORTYPE: [M-H]-
FORMULA: C10H16N4O3
Ontology: Hybrid peptides
INCHIKEY: CCLQKVKJOGVQLU-QMMMGPOBSA-N
SMILES: NCCCC(O)=N[C@@H](CC1=CN=CN1)C(O)=O
RETENTIONTIME: 
CCS: 154.8112732
IONMODE: Negative
INSTRUMENTTYPE: LC-ESI-QTOF
INSTRUMENT: 
COLLISIONENERGY: 
Comment: registered in MassBank
Num Peaks: 4
81.0465	137
110.0723	1000
154.06171	761
239.1144	714

NAME: L-Methionine sulfone; LC-ESI-QTOF; MS2; CE
PRECURSORMZ: 180.033602
PRECURSORTYPE: [M-H]-
FORMULA: C5H11NO4S
Ontology: L-alpha-amino acids
INCHIKEY: UCUNFLYVYCGDHP-BYPYZUCNSA-N
SMILES: CS(=O)(=O)CC[C@H](N)C(O)=O
RETENTIONTIME: 
CCS: 139.7017452
IONMODE: Negative
INSTRUMENTTYPE: LC-ESI-QTOF
INSTRUMENT: 
COLLISIONENERGY: 
Comment: registered in MassBank
Num Peaks: 3
63.964	120
78.9865	1000
180.0331	185

NAME: L-Norleucine; LC-ESI-QTOF; MS2; CE
PRECURSORMZ: 130.087352
PRECURSORTYPE: [M-H]-
FORMULA: C6H13NO2
Ontology: L-alpha-amino acids
INCHIKEY: LRQKBLKVPFOOQJ-YFKPBYRVSA-N
SMILES: CCCC[C@H](N)C(O)=O
RETENTIONTIME: 
CCS: 128.3546718
IONMODE: Negative
INSTRUMENTTYPE: LC-ESI-QTOF
INSTRUMENT: 
COLLISIONENERGY: 
Comment: registered in MassBank
Num Peaks: 3
84.0828	10
130.08681	1000
130.26711	10

NAME: L-Norvaline; LC-ESI-QTOF; MS2; CE
PRECURSORMZ: 116.071702
PRECURSORTYPE: [M-H]-
FORMULA: C5H11NO2
Ontology: L-alpha-amino acids
INCHIKEY: SNDPXSYFESPGGJ-BYPYZUCNSA-N
SMILES: CCC[C@H](N)C(O)=O
RETENTIONTIME: 
CCS: 125.2216056
IONMODE: Negative
INSTRUMENTTYPE: LC-ESI-QTOF
INSTRUMENT: 
COLLISIONENERGY: 
Comment: registered in MassBank
Num Peaks: 2
115.9259	19
116.0712	1000

NAME: L-Threonine; LC-ESI-QTOF; MS2; CE
PRECURSORMZ: 118.050967
PRECURSORTYPE: [M-H]-
FORMULA: C4H9NO3
Ontology: L-alpha-amino acids
INCHIKEY: AYFVYJQAPQTCCC-HRFVKAFMSA-N
SMILES: C[C@H](O)[C@H](N)C(O)=O
RETENTIONTIME: 
CCS: 121.9256951
IONMODE: Negative
INSTRUMENTTYPE: LC-ESI-QTOF
INSTRUMENT: 
COLLISIONENERGY: 
Comment: registered in MassBank
Num Peaks: 2
74.0258	1000
118.0504	647

NAME: Maltotriose; LC-ESI-QTOF; MS2; CE
PRECURSORMZ: 503.161759
PRECURSORTYPE: [M-H]-
FORMULA: C18H32O16
Ontology: Oligosaccharides
INCHIKEY: FYGDTMLNYKFZSV-DZOUCCHMSA-N
SMILES: OC[C@H]1O[C@H](O[C@H]2[C@H](O)[C@@H](O)[C@@H](O[C@H]3[C@H](O)[C@@H](O)C(O)O[C@@H]3CO)O[C@@H]2CO)[C@H](O)[C@@H](O)[C@@H]1O
RETENTIONTIME: 
CCS: 206.2509152
IONMODE: Negative
INSTRUMENTTYPE: LC-ESI-QTOF
INSTRUMENT: 
COLLISIONENERGY: 
Comment: registered in MassBank
Num Peaks: 25
59.0152	124
71.0154	318
73.0307	324
81.035	41
83.0141	76
85.0294	71
87.0099	41
89.0252	200
97.0303	300
101.0247	594
113.0264	176
115.0403	82
119.0352	106
125.0227	35
143.0372	118
161.0462	1000
179.05659	388
221.0674	312
263.08191	82
281.08939	65
341.10959	182
383.1235	259
425.1311	59
443.1507	41
503.16119	35

NAME: N-Formyl-L-Methionine; LC-ESI-QTOF; MS2; CE
PRECURSORMZ: 176.038687
PRECURSORTYPE: [M-H]-
FORMULA: C6H11NO3S
Ontology: Methionine and derivatives
INCHIKEY: PYUSHNKNPOHWEZ-YFKPBYRVSA-N
SMILES: CSCC[C@H](N=CO)C(O)=O
RETENTIONTIME: 
CCS: 138.3984365
IONMODE: Negative
INSTRUMENTTYPE: LC-ESI-QTOF
INSTRUMENT: 
COLLISIONENERGY: 
Comment: registered in MassBank
Num Peaks: 4
84.0466	205
98.025	778
128.0352	812
176.03819	1000

NAME: Nicotinic acid mono nucleotide; LC-ESI-QTOF; MS2; CE
PRECURSORMZ: 334.033341
PRECURSORTYPE: [M-H]-
FORMULA: C11H14NO9P
Ontology: Nicotinic acid nucleotides
INCHIKEY: JOUIQRNQJGXQDC-ZYUZMQFOSA-N
SMILES: O[C@H]1[C@@H](O)[C@@H](O[C@@H]1COP(O)([O-])=O)[N+]1=CC=CC(=C1)C(O)=O
RETENTIONTIME: 
CCS: 168.0037402
IONMODE: Negative
INSTRUMENTTYPE: LC-ESI-QTOF
INSTRUMENT: 
COLLISIONENERGY: 
Comment: registered in MassBank
Num Peaks: 13
78.9595	1000
79.1067	11
79.5203	7
80.0509	26
96.9693	617
97.6608	11
138.97839	156
150.97701	33
162.9771	11
192.9897	164
210.9994	93
290.04239	524
334.03281	15

NAME: 2-Coumaric acid; LC-ESI-QTOF; MS2; CE
PRECURSORMZ: 163.040068
PRECURSORTYPE: [M-H]-
FORMULA: C9H8O3
Ontology: Hydroxycinnamic acids
INCHIKEY: PMOWTIHVNWZYFI-AATRIKPKSA-N
SMILES: OC(=O)\C=C\C1=CC=CC=C1O
RETENTIONTIME: 
CCS: 131.5885777
IONMODE: Negative
INSTRUMENTTYPE: LC-ESI-QTOF
INSTRUMENT: 
COLLISIONENERGY: 
Comment: registered in MassBank
Num Peaks: 2
119.0501	430
162.8392	1000

NAME: O-Phospho-L-serine; LC-ESI-QTOF; MS2; CE
PRECURSORMZ: 184.001647
PRECURSORTYPE: [M-H]-
FORMULA: C3H8NO6P
Ontology: L-alpha-amino acids
INCHIKEY: BZQFBWGGLXLEPQ-REOHCLBHSA-N
SMILES: N[C@@H](COP(O)(O)=O)C(O)=O
RETENTIONTIME: 
CCS: 130.590126
IONMODE: Negative
INSTRUMENTTYPE: LC-ESI-QTOF
INSTRUMENT: 
COLLISIONENERGY: 
Comment: registered in MassBank
Num Peaks: 3
78.9598	455
96.9693	1000
184.0011	68

NAME: Orotic acid; LC-ESI-QTOF; MS2; CE
PRECURSORMZ: 155.00983
PRECURSORTYPE: [M-H]-
FORMULA: C5H4N2O4
Ontology: Pyrimidinecarboxylic acids
INCHIKEY: PXQPEWDEAKTCGB-UHFFFAOYSA-N
SMILES: OC(=O)C1=CC(O)=NC(O)=N1
RETENTIONTIME: 
CCS: 124.7764202
IONMODE: Negative
INSTRUMENTTYPE: LC-ESI-QTOF
INSTRUMENT: 
COLLISIONENERGY: 
Comment: registered in MassBank
Num Peaks: 2
111.0192	1000
155.00929	44

NAME: 4-Hydroxybenzoic acid; LC-ESI-QTOF; MS2; CE
PRECURSORMZ: 137.024418
PRECURSORTYPE: [M-H]-
FORMULA: C7H6O3
Ontology: Hydroxybenzoic acid derivatives
INCHIKEY: FJKROLUGYXJWQN-UHFFFAOYSA-N
SMILES: OC(=O)C1=CC=C(O)C=C1
RETENTIONTIME: 
CCS: 124.4563324
IONMODE: Negative
INSTRUMENTTYPE: LC-ESI-QTOF
INSTRUMENT: 
COLLISIONENERGY: 
Comment: registered in MassBank
Num Peaks: 2
93.0341	1000
137.0239	255

NAME: Piperacillin; LC-ESI-QTOF; MS2; CE
PRECURSORMZ: 516.155842
PRECURSORTYPE: [M-H]-
FORMULA: C23H27N5O7S
Ontology: Peptides
INCHIKEY: IVBHGBMCVLDMKU-GXNBUGAJSA-N
SMILES: CCN1CCN(C(O)=N[C@@H](C(O)=N[C@H]2[C@H]3SC(C)(C)[C@@H](N3C2=O)C(O)=O)C2=CC=CC=C2)C(=O)C1=O
RETENTIONTIME: 
CCS: 206.6121552
IONMODE: Negative
INSTRUMENTTYPE: LC-ESI-QTOF
INSTRUMENT: 
COLLISIONENERGY: 
Comment: registered in MassBank
Num Peaks: 6
71.9925	103
190.0334	93
233.03951	1000
270.12411	58
330.09341	520
516.15527	59

NAME: 4-Nitrophenol; LC-ESI-QTOF; MS2; CE
PRECURSORMZ: 138.019667
PRECURSORTYPE: [M-H]-
FORMULA: C6H5NO3
Ontology: Nitrophenols
INCHIKEY: BTJIUGUIPKRLHP-UHFFFAOYSA-N
SMILES: OC1=CC=C(C=C1)N(=O)=O
RETENTIONTIME: 
CCS: 122.0965547
IONMODE: Negative
INSTRUMENTTYPE: LC-ESI-QTOF
INSTRUMENT: 
COLLISIONENERGY: 
Comment: registered in MassBank
Num Peaks: 3
92.0285	59
108.0228	573
138.0191	1000

NAME: 4-Nitrophenyl phosphate; LC-ESI-QTOF; MS2; CE
PRECURSORMZ: 217.985997
PRECURSORTYPE: [M-H]-
FORMULA: C6H6NO6P
Ontology: Phenyl phosphates
INCHIKEY: XZKIHKMTEMTJQX-UHFFFAOYSA-N
SMILES: OP(O)(=O)OC1=CC=C(C=C1)N(=O)=O
RETENTIONTIME: 
CCS: 137.9125002
IONMODE: Negative
INSTRUMENTTYPE: LC-ESI-QTOF
INSTRUMENT: 
COLLISIONENERGY: 
Comment: registered in MassBank
Num Peaks: 1
78.959	1000

NAME: 4-Nitrophenyl phosphate; LC-ESI-QTOF; MS2; CE
PRECURSORMZ: 217.985997
PRECURSORTYPE: [M-H]-
FORMULA: C6H6NO6P
Ontology: Phenyl phosphates
INCHIKEY: XZKIHKMTEMTJQX-UHFFFAOYSA-N
SMILES: OP(O)(=O)OC1=CC=C(C=C1)N(=O)=O
RETENTIONTIME: 
CCS: 137.9125002
IONMODE: Negative
INSTRUMENTTYPE: LC-ESI-QTOF
INSTRUMENT: 
COLLISIONENERGY: 30
Comment: registered in MassBank
Num Peaks: 1
78.9446	1000

NAME: Protocatechuic acid; LC-ESI-QTOF; MS2; CE
PRECURSORMZ: 153.019332
PRECURSORTYPE: [M-H]-
FORMULA: C7H6O4
Ontology: Hydroxybenzoic acid derivatives
INCHIKEY: YQUVCSBJEUQKSH-UHFFFAOYSA-N
SMILES: OC(=O)C1=CC(O)=C(O)C=C1
RETENTIONTIME: 
CCS: 127.0633983
IONMODE: Negative
INSTRUMENTTYPE: LC-ESI-QTOF
INSTRUMENT: 
COLLISIONENERGY: 
Comment: registered in MassBank
Num Peaks: 3
108.0218	146
109.0297	1000
153.0188	344

NAME: Pyridoxine; LC-ESI-QTOF; MS2; CE
PRECURSORMZ: 168.066617
PRECURSORTYPE: [M-H]-
FORMULA: C8H11NO3
Ontology: Pyridoxines
INCHIKEY: LXNHXLLTXMVWPM-UHFFFAOYSA-N
SMILES: CC1=C(O)C(CO)=C(CO)C=N1
RETENTIONTIME: 
CCS: 134.5632292
IONMODE: Negative
INSTRUMENTTYPE: LC-ESI-QTOF
INSTRUMENT: 
COLLISIONENERGY: 
Comment: registered in MassBank
Num Peaks: 10
92.0508	60
107.0385	139
108.0459	351
121.0541	185
122.0613	662
138.0564	212
150.0563	1000
162.8412	53
166.0502	258
168.0661	503

NAME: rac-Glycerol 3-phosphoate; LC-ESI-QTOF; MS2; CE
PRECURSORMZ: 171.006398
PRECURSORTYPE: [M-H]-
FORMULA: C3H9O6P
Ontology: Glycerophosphates
INCHIKEY: AWUCVROLDVIAJX-VKHMYHEASA-N
SMILES: OC[C@H](O)COP(O)(O)=O
RETENTIONTIME: 
CCS: 130.2620348
IONMODE: Negative
INSTRUMENTTYPE: LC-ESI-QTOF
INSTRUMENT: 
COLLISIONENERGY: 
Comment: registered in MassBank
Num Peaks: 3
78.9597	1000
96.9699	78
171.00591	267

NAME: S-Adenosyl-L-homocysteine; LC-ESI-QTOF; MS2; CE
PRECURSORMZ: 383.114312
PRECURSORTYPE: [M-H]-
FORMULA: C14H20N6O5S
Ontology: 5'-deoxy-5'-thionucleosides
INCHIKEY: ZJUKTBDSGOFHSH-WFMPWKQPSA-N
SMILES: N[C@@H](CCSC[C@H]1O[C@H]([C@H](O)[C@@H]1O)N1C=NC2=C(N)N=CN=C12)C(O)=O
RETENTIONTIME: 
CCS: 181.939052
IONMODE: Negative
INSTRUMENTTYPE: LC-ESI-QTOF
INSTRUMENT: 
COLLISIONENERGY: 
Comment: registered in MassBank
Num Peaks: 2
134.047	1000
383.1138	273

NAME: Sebacic acid; LC-ESI-QTOF; MS2; CE
PRECURSORMZ: 201.113233
PRECURSORTYPE: [M-H]-
FORMULA: C10H18O4
Ontology: Medium-chain fatty acids
INCHIKEY: CXMXRPHRNRROMY-UHFFFAOYSA-N
SMILES: OC(=O)CCCCCCCCC(O)=O
RETENTIONTIME: 
CCS: 148.4466207
IONMODE: Negative
INSTRUMENTTYPE: LC-ESI-QTOF
INSTRUMENT: 
COLLISIONENERGY: 
Comment: registered in MassBank
Num Peaks: 4
111.0821	65
139.1134	1000
183.10381	520
201.1127	942

NAME: Succinic acid; LC-ESI-QTOF; MS2; CE
PRECURSORMZ: 117.019332
PRECURSORTYPE: [M-H]-
FORMULA: C4H6O4
Ontology: Dicarboxylic acids and derivatives
INCHIKEY: KDYFGRWQOYBRFD-UHFFFAOYSA-N
SMILES: OC(=O)CCC(O)=O
RETENTIONTIME: 
CCS: 123.254263
IONMODE: Negative
INSTRUMENTTYPE: LC-ESI-QTOF
INSTRUMENT: 
COLLISIONENERGY: 
Comment: registered in MassBank
Num Peaks: 3
73.0296	1000
99.0086	108
117.0188	558

NAME: Thiabendazole; LC-ESI-QTOF; MS2; CE
PRECURSORMZ: 200.028791
PRECURSORTYPE: [M-H]-
FORMULA: C10H7N3S
Ontology: Benzimidazoles
INCHIKEY: WJCNZQLZVWNLKY-UHFFFAOYSA-N
SMILES: N1C2=CC=CC=C2N=C1C1=CSC=N1
RETENTIONTIME: 
CCS: 142.681428
IONMODE: Negative
INSTRUMENTTYPE: LC-ESI-QTOF
INSTRUMENT: 
COLLISIONENERGY: 
Comment: registered in MassBank
Num Peaks: 4
141.04401	147
172.0106	93
173.01559	1000
200.02831	747

NAME: Thiamine; LC-ESI-QTOF; MS2; CE
PRECURSORMZ: 264.104482
PRECURSORTYPE: [M-H]-
FORMULA: C12H17N4OS
Ontology: Thiamines
INCHIKEY: JZRWCGZRTZMZEH-UHFFFAOYSA-N
SMILES: CC1=C(CCO)SC=[N+]1CC1=CN=C(C)NC1=N
RETENTIONTIME: 
CCS: 163.8682397
IONMODE: Negative
INSTRUMENTTYPE: LC-ESI-QTOF
INSTRUMENT: 
COLLISIONENERGY: 
Comment: registered in MassBank
Num Peaks: 5
147.069	1000
148.0706	682
233.08549	102
234.09261	205
264.10449	68

NAME: Thiamine monophosphate; LC-ESI-QTOF; MS2; CE
PRECURSORMZ: 343.062987
PRECURSORTYPE: [M-2H]-
FORMULA: C12H18N4O4PS
Ontology: Thiamine phosphates
INCHIKEY: HZSAJDVWZRBGIF-UHFFFAOYSA-O
SMILES: CC1=C(CCOP(O)(O)=O)SC=[N+]1CC1=CN=C(C)NC1=N
RETENTIONTIME: 
CCS: -1
IONMODE: Negative
INSTRUMENTTYPE: LC-ESI-QTOF
INSTRUMENT: 
COLLISIONENERGY: 
Comment: registered in MassBank
Num Peaks: 7
78.9612	324
96.9714	1000
124.0252	86
147.069	144
222.0038	252
245.091	288
343.06299	29

NAME: Thymidine 5'-diphosphate; LC-ESI-QTOF; MS2; CE
PRECURSORMZ: 401.015656
PRECURSORTYPE: [M-H]-
FORMULA: C10H16N2O11P2
Ontology: Pyrimidine 2'-deoxyribonucleoside diphosphates
INCHIKEY: UJLXYODCHAELLY-XLPZGREQSA-N
SMILES: CC1=CN([C@H]2C[C@H](O)[C@@H](COP(O)(=O)OP(O)(O)=O)O2)C(=O)N=C1O
RETENTIONTIME: 
CCS: 176.8414858
IONMODE: Negative
INSTRUMENTTYPE: LC-ESI-QTOF
INSTRUMENT: 
COLLISIONENERGY: 
Comment: registered in MassBank
Num Peaks: 11
78.9596	1000
96.9692	105
125.0353	60
135.04691	45
158.9247	632
176.9341	68
176.9955	75
256.96359	120
274.97241	165
383.00562	105
401.01511	940

NAME: Thymidine-5'-monophosphate; LC-ESI-QTOF; MS2; CE
PRECURSORMZ: 321.049326
PRECURSORTYPE: [M-H]-
FORMULA: C10H15N2O8P
Ontology: Pyrimidine 2'-deoxyribonucleoside monophosphates
INCHIKEY: GYOZYWVXFNDGLU-XLPZGREQSA-N
SMILES: CC1=CN([C@H]2C[C@H](O)[C@@H](COP(O)(O)=O)O2)C(=O)N=C1O
RETENTIONTIME: 
CCS: 166.1191215
IONMODE: Negative
INSTRUMENTTYPE: LC-ESI-QTOF
INSTRUMENT: 
COLLISIONENERGY: 
Comment: registered in MassBank
Num Peaks: 6
78.9601	1000
96.9703	269
125.036	447
176.9962	145
195.0067	423
321.0488	561

NAME: trans-4-Hydroxy-L-proline; LC-ESI-QTOF; MS2; CE
PRECURSORMZ: 130.050967
PRECURSORTYPE: [M-H]-
FORMULA: C5H9NO3
Ontology: Proline and derivatives
INCHIKEY: PMMYEEVYMWASQN-DMTCNVIQSA-N
SMILES: O[C@H]1CN[C@@H](C1)C(O)=O
RETENTIONTIME: 
CCS: 123.049502
IONMODE: Negative
INSTRUMENTTYPE: LC-ESI-QTOF
INSTRUMENT: 
COLLISIONENERGY: 
Comment: registered in MassBank
Num Peaks: 4
71.0155	41
84.0463	43
128.03529	351
130.0504	1000

NAME: trans-Zeatin riboside; LC-ESI-QTOF; MS2; CE
PRECURSORMZ: 350.146992
PRECURSORTYPE: [M-H]-
FORMULA: C15H21N5O5
Ontology: Purine nucleosides
INCHIKEY: GOSWTRUMMSCNCW-HNNGNKQASA-N
SMILES: C\C(CO)=C/CNC1=C2N=CN([C@@H]3O[C@H](CO)[C@@H](O)[C@H]3O)C2=NC=N1
RETENTIONTIME: 
CCS: 180.7582032
IONMODE: Negative
INSTRUMENTTYPE: LC-ESI-QTOF
INSTRUMENT: 
COLLISIONENERGY: 
Comment: registered in MassBank
Num Peaks: 7
107.036	79
133.0396	96
134.04691	1000
200.0946	64
218.1049	423
266.08939	294
350.14651	198

NAME: Uridine; LC-ESI-QTOF; MS2; CE
PRECURSORMZ: 243.06226
PRECURSORTYPE: [M-H]-
FORMULA: C9H12N2O6
Ontology: Pyrimidine nucleosides
INCHIKEY: DRTQHJPVMGBUCF-XVFCMESISA-N
SMILES: OC[C@H]1O[C@H]([C@H](O)[C@@H]1O)N1C=CC(O)=NC1=O
RETENTIONTIME: 
CCS: 151.8583657
IONMODE: Negative
INSTRUMENTTYPE: LC-ESI-QTOF
INSTRUMENT: 
COLLISIONENERGY: 
Comment: registered in MassBank
Num Peaks: 6
82.0307	297
110.0247	1000
140.0354	124
152.035	196
200.0564	471
243.06171	617

NAME: Uridine 5'-diphosphate; LC-ESI-QTOF; MS2; CE
PRECURSORMZ: 402.99492
PRECURSORTYPE: [M-H]-
FORMULA: C9H14N2O12P2
Ontology: Pyrimidine ribonucleoside diphosphates
INCHIKEY: XCCTYIAWTASOJW-XVFCMESISA-N
SMILES: O[C@@H]1[C@@H](COP(O)(=O)OP(O)(O)=O)O[C@H]([C@@H]1O)N1C=CC(O)=NC1=O
RETENTIONTIME: 
CCS: 174.4795701
IONMODE: Negative
INSTRUMENTTYPE: LC-ESI-QTOF
INSTRUMENT: 
COLLISIONENERGY: 
Comment: registered in MassBank
Num Peaks: 6
78.9599	1000
111.0196	427
158.9254	863
272.95779	153
305.02219	137
402.99438	878

NAME: UDP-D-glucose; LC-ESI-QTOF; MS2; CE
PRECURSORMZ: 565.047744
PRECURSORTYPE: [M-H]-
FORMULA: C15H24N2O17P2
Ontology: Pyrimidine nucleotide sugars
INCHIKEY: HSCJRCZFDFQWRP-JZMIEXBBSA-N
SMILES: OC[C@H]1O[C@H](OP(O)(=O)OP(O)(=O)OC[C@H]2O[C@H]([C@H](O)[C@@H]2O)N2C=CC(O)=NC2=O)[C@H](O)[C@@H](O)[C@@H]1O
RETENTIONTIME: 
CCS: 207.4354114
IONMODE: Negative
INSTRUMENTTYPE: LC-ESI-QTOF
INSTRUMENT: 
COLLISIONENERGY: 
Comment: registered in MassBank
Num Peaks: 14
78.9606	731
96.9708	455
111.0213	114
138.98129	60
150.98109	54
158.9265	227
211.0032	114
241.0141	204
272.95969	101
280.026	62
320.98209	61
323.03079	1000
384.98761	100
565.04718	883

NAME: Uridine 5'-diphospho-N-acetylgalactosamine; LC-ESI-QTOF; MS2; CE
PRECURSORMZ: 606.074293
PRECURSORTYPE: [M-H]-
FORMULA: C17H27N3O17P2
Ontology: Pyrimidine nucleotide sugars
INCHIKEY: LFTYTUAZOPRMMI-NESSUJCYSA-N
SMILES: CC(O)=N[C@H]1[C@@H](OP(O)(=O)OP(O)(=O)OC[C@H]2O[C@H]([C@H](O)[C@@H]2O)N2C=CC(O)=NC2=O)O[C@H](CO)[C@H](O)[C@@H]1O
RETENTIONTIME: 
CCS: 217.3981422
IONMODE: Negative
INSTRUMENTTYPE: LC-ESI-QTOF
INSTRUMENT: 
COLLISIONENERGY: 
Comment: registered in MassBank
Num Peaks: 8
78.9606	440
96.9706	148
158.9267	413
272.95941	209
282.04089	179
384.98709	253
402.9978	123
606.07379	1000

NAME: Uridine 5'-diphospho-N-acetylgalactosamine; LC-ESI-QTOF; MS2; CE
PRECURSORMZ: 606.074293
PRECURSORTYPE: [M-H]-
FORMULA: C17H27N3O17P2
Ontology: Pyrimidine nucleotide sugars
INCHIKEY: LFTYTUAZOPRMMI-NESSUJCYSA-N
SMILES: CC(O)=N[C@H]1[C@@H](OP(O)(=O)OP(O)(=O)OC[C@H]2O[C@H]([C@H](O)[C@@H]2O)N2C=CC(O)=NC2=O)O[C@H](CO)[C@H](O)[C@@H]1O
RETENTIONTIME: 
CCS: 217.3981422
IONMODE: Negative
INSTRUMENTTYPE: LC-ESI-QTOF
INSTRUMENT: 
COLLISIONENERGY: 30
Comment: registered in MassBank
Num Peaks: 18
78.9601	763
96.9703	399
111.0202	294
158.92551	936
174.9803	103
176.9357	331
211.0011	56
260.95761	124
264.0282	100
272.95749	1000
282.03909	613
300.04959	116
305.01941	195
323.0296	230
362.0054	148
384.9845	726
402.9949	266
606.07379	61

NAME: Uridine 5'-diphospho-N-acetylglucosamine; LC-ESI-QTOF; MS2; CE
PRECURSORMZ: 606.074293
PRECURSORTYPE: [M-H]-
FORMULA: C17H27N3O17P2
Ontology: Pyrimidine nucleotide sugars
INCHIKEY: LFTYTUAZOPRMMI-CFRASDGPSA-N
SMILES: CC(O)=N[C@H]1[C@@H](OP(O)(=O)OP(O)(=O)OC[C@H]2O[C@H]([C@H](O)[C@@H]2O)N2C=CC(O)=NC2=O)O[C@H](CO)[C@@H](O)[C@@H]1O
RETENTIONTIME: 
CCS: 217.3981422
IONMODE: Negative
INSTRUMENTTYPE: LC-ESI-QTOF
INSTRUMENT: 
COLLISIONENERGY: 
Comment: registered in MassBank
Num Peaks: 12
78.9605	458
96.971	127
111.0213	95
158.92661	426
176.93739	124
272.9599	236
282.04129	244
323.03201	64
362.00839	86
384.9873	291
402.9982	87
606.07379	1000

NAME: Uridine 5'-diphospho-N-acetylglucosamine; LC-ESI-QTOF; MS2; CE
PRECURSORMZ: 606.074293
PRECURSORTYPE: [M-H]-
FORMULA: C17H27N3O17P2
Ontology: Pyrimidine nucleotide sugars
INCHIKEY: LFTYTUAZOPRMMI-CFRASDGPSA-N
SMILES: CC(O)=N[C@H]1[C@@H](OP(O)(=O)OP(O)(=O)OC[C@H]2O[C@H]([C@H](O)[C@@H]2O)N2C=CC(O)=NC2=O)O[C@H](CO)[C@@H](O)[C@@H]1O
RETENTIONTIME: 
CCS: 217.3981422
IONMODE: Negative
INSTRUMENTTYPE: LC-ESI-QTOF
INSTRUMENT: 
COLLISIONENERGY: 30
Comment: registered in MassBank
Num Peaks: 18
78.9599	759
96.9698	313
111.0203	215
158.92509	885
174.98	111
176.9359	399
260.95749	143
264.02859	69
272.95761	1000
282.03879	749
300.04889	127
305.01901	153
323.02921	171
343.99469	59
362.005	151
384.98441	723
402.99551	164
606.07379	56

NAME: UDP-D-Glucuronic acid; LC-ESI-QTOF; MS2; CE
PRECURSORMZ: 579.027008
PRECURSORTYPE: [M-H]-
FORMULA: C15H22N2O18P2
Ontology: Pyrimidine nucleotide sugars
INCHIKEY: HDYANYHVCAPMJV-LXQIFKJMSA-N
SMILES: O[C@@H]1[C@@H](COP(O)(=O)OP(O)(=O)O[C@H]2O[C@@H]([C@@H](O)[C@H](O)[C@H]2O)C(O)=O)O[C@H]([C@@H]1O)N1C=CC(O)=NC1=O
RETENTIONTIME: 
CCS: 208.4689059
IONMODE: Negative
INSTRUMENTTYPE: LC-ESI-QTOF
INSTRUMENT: 
COLLISIONENERGY: 
Comment: registered in MassBank
Num Peaks: 15
78.9602	562
96.9703	201
111.0203	301
158.92529	691
174.9807	32
192.9915	47
211.00301	32
254.992	235
272.95679	168
290.96829	30
305.0202	111
323.0293	351
384.98749	141
402.99579	662
579.02649	1000

NAME: Uridine 5'-monophosphate; LC-ESI-QTOF; MS2; CE
PRECURSORMZ: 323.02859
PRECURSORTYPE: [M-H]-
FORMULA: C9H13N2O9P
Ontology: Pyrimidine ribonucleoside monophosphates
INCHIKEY: DJJCXFVJDGTHFX-XVFCMESISA-N
SMILES: O[C@@H]1[C@@H](COP(O)(O)=O)O[C@H]([C@@H]1O)N1C=CC(O)=NC1=O
RETENTIONTIME: 
CCS: 163.7691261
IONMODE: Negative
INSTRUMENTTYPE: LC-ESI-QTOF
INSTRUMENT: 
COLLISIONENERGY: 
Comment: registered in MassBank
Num Peaks: 5
78.9604	1000
96.9705	654
111.0208	190
211.0024	112
323.02811	524

NAME: Xanthine; LC-ESI-QTOF; MS2; CE
PRECURSORMZ: 151.026149
PRECURSORTYPE: [M-H]-
FORMULA: C5H4N4O2
Ontology: Xanthines
INCHIKEY: LRFVTYWOQMYALW-UHFFFAOYSA-N
SMILES: OC1=NC2=C(N=CN2)C(O)=N1
RETENTIONTIME: 
CCS: 125.6820425
IONMODE: Negative
INSTRUMENTTYPE: LC-ESI-QTOF
INSTRUMENT: 
COLLISIONENERGY: 
Comment: registered in MassBank
Num Peaks: 2
108.0203	580
151.0256	1000

NAME: Xanthosine-5'-monophosphate; LC-ESI-QTOF; MS2; CE
PRECURSORMZ: 363.034738
PRECURSORTYPE: [M-H]-
FORMULA: C10H13N4O9P
Ontology: Purine ribonucleoside monophosphates
INCHIKEY: DCTLYFZHFGENCW-UUOKFMHZSA-N
SMILES: O[C@@H]1[C@@H](COP(O)(O)=O)O[C@H]([C@@H]1O)N1C=NC2=C1N=C(O)N=C2O
RETENTIONTIME: 
CCS: 171.3504818
IONMODE: Negative
INSTRUMENTTYPE: LC-ESI-QTOF
INSTRUMENT: 
COLLISIONENERGY: 
Comment: registered in MassBank
Num Peaks: 7
78.9602	692
96.97	445
108.0205	259
120.9695	51
151.026	1000
211.0015	922
363.03421	665

NAME: alpha-D-Galactose-1-phosphate; LC-ESI-QTOF; MS2; CE
PRECURSORMZ: 259.022442
PRECURSORTYPE: [M-H]-
FORMULA: C6H13O9P
Ontology: Monosaccharide phosphates
INCHIKEY: HXXFSFRBOHSIMQ-FPRJBGLDSA-N
SMILES: OC[C@H]1O[C@H](OP(O)(O)=O)[C@H](O)[C@@H](O)[C@H]1O
RETENTIONTIME: 
CCS: 146.1664715
IONMODE: Negative
INSTRUMENTTYPE: LC-ESI-QTOF
INSTRUMENT: 
COLLISIONENERGY: 
Comment: registered in MassBank
Num Peaks: 5
78.96	1000
96.9702	346
138.9801	71
241.0123	77
259.02191	393

NAME: alpha-D-Glucose-1,6-diphosphate; LC-ESI-QTOF; MS2; CE
PRECURSORMZ: 338.988772
PRECURSORTYPE: [M-H]-
FORMULA: C6H14O12P2
Ontology: Hexose phosphates
INCHIKEY: RWHOZGRAXYWRNX-VFUOTHLCSA-N
SMILES: O[C@H]1[C@H](O)[C@@H](COP(O)(O)=O)O[C@H](OP(O)(O)=O)[C@@H]1O
RETENTIONTIME: 
CCS: 159.4983166
IONMODE: Negative
INSTRUMENTTYPE: LC-ESI-QTOF
INSTRUMENT: 
COLLISIONENERGY: 
Comment: registered in MassBank
Num Peaks: 9
78.9603	844
96.9701	438
138.9821	62
158.92909	109
205.8559	47
241.0126	1000
294.84161	47
294.9989	78
338.98831	312

NAME: alpha-Methylserine; LC-ESI-QTOF; MS2; CE
PRECURSORMZ: 118.050967
PRECURSORTYPE: [M-H]-
FORMULA: C4H9NO3
Ontology: Alpha amino acids
INCHIKEY: CDUUKBXTEOFITR-UHFFFAOYNA-N
SMILES: CC(N)(CO)C(O)=O
RETENTIONTIME: 
CCS: 122.8087484
IONMODE: Negative
INSTRUMENTTYPE: LC-ESI-QTOF
INSTRUMENT: 
COLLISIONENERGY: 
Comment: registered in MassBank
Num Peaks: 2
88.0401	195
118.0504	1000

NAME: beta-Guanidinopropionic acid; LC-ESI-QTOF; MS2; CE
PRECURSORMZ: 130.0622
PRECURSORTYPE: [M-H]-
FORMULA: C4H9N3O2
Ontology: Guanidines
INCHIKEY: KMXXSJLYVJEBHI-UHFFFAOYSA-N
SMILES: NC(=N)NCCC(O)=O
RETENTIONTIME: 
CCS: 126.4266876
IONMODE: Negative
INSTRUMENTTYPE: LC-ESI-QTOF
INSTRUMENT: 
COLLISIONENERGY: 
Comment: registered in MassBank
Num Peaks: 2
88.0411	1000
130.06171	68

NAME: beta-Nicotinamide adenine dinucleotide; LC-ESI-QTOF; MS2; CE
PRECURSORMZ: 662.101845
PRECURSORTYPE: [M-H]-
FORMULA: C21H27N7O14P2
Ontology: (5'->5')-dinucleotides
INCHIKEY: BAWFJGJZGIEFAR-NNYOXOHSSA-N
SMILES: NC1=C2N=CN([C@@H]3O[C@H](COP([O-])(=O)OP(O)(=O)OC[C@H]4O[C@H]([C@H](O)[C@@H]4O)[N+]4=CC=CC(=C4)C(O)=N)[C@@H](O)[C@H]3O)C2=NC=N1
RETENTIONTIME: 
CCS: 218.4006448
IONMODE: Negative
INSTRUMENTTYPE: LC-ESI-QTOF
INSTRUMENT: 
COLLISIONENERGY: 
Comment: registered in MassBank
Num Peaks: 11
78.9601	295
96.9702	64
134.0472	145
158.9254	232
272.95801	202
328.04709	141
346.05511	79
408.013	120
426.02341	101
540.05261	1000
662.10132	69

NAME: gamma-Linolenic acid; LC-ESI-QTOF; MS2; CE
PRECURSORMZ: 277.217304
PRECURSORTYPE: [M-H]-
FORMULA: C18H30O2
Ontology: Lineolic acids and derivatives
INCHIKEY: VZCCETWTMQHEPK-QNEBEIHSSA-N
SMILES: CCCCC\C=C/C\C=C/C\C=C/CCCCC(O)=O
RETENTIONTIME: 
CCS: 176.8425099
IONMODE: Negative
INSTRUMENTTYPE: LC-ESI-QTOF
INSTRUMENT: 
COLLISIONENERGY: 
Comment: registered in MassBank
Num Peaks: 3
164.9045	20
233.22231	40
277.2168	1000

NAME: 5-Aminolevulinic acid; LC-ESI-QTOF; MS2; CE
PRECURSORMZ: 130.050967
PRECURSORTYPE: [M-H]-
FORMULA: C5H9NO3
Ontology: Delta amino acids and derivatives
INCHIKEY: ZGXJTSGNIOSYLO-UHFFFAOYSA-N
SMILES: NCC(=O)CCC(O)=O
RETENTIONTIME: 
CCS: 125.8531184
IONMODE: Negative
INSTRUMENTTYPE: LC-ESI-QTOF
INSTRUMENT: 
COLLISIONENERGY: 
Comment: registered in MassBank
Num Peaks: 2
112.039	222
130.0504	1000

NAME: Apigenin; LC-ESI-QTOF; MS2; CE
PRECURSORMZ: 269.045547
PRECURSORTYPE: [M-H]-
FORMULA: C15H10O5
Ontology: Flavones
INCHIKEY: KZNIFHPLKGYRTM-UHFFFAOYSA-N
SMILES: OC1=CC=C(C=C1)C1=CC(=O)C2=C(O)C=C(O)C=C2O1
RETENTIONTIME: 
CCS: 160.6521993
IONMODE: Negative
INSTRUMENTTYPE: LC-ESI-QTOF
INSTRUMENT: 
COLLISIONENERGY: 
Comment: registered in MassBank
Num Peaks: 3
117.0346	411
151.0032	122
269.04501	1000

NAME: Catechol; LC-ESI-QTOF; MS2; CE
PRECURSORMZ: 109.029503
PRECURSORTYPE: [M-H]-
FORMULA: C6H6O2
Ontology: Catechols
INCHIKEY: YCIMNLLNPGFGHC-UHFFFAOYSA-N
SMILES: OC1=CC=CC=C1O
RETENTIONTIME: 
CCS: 117.450125
IONMODE: Negative
INSTRUMENTTYPE: LC-ESI-QTOF
INSTRUMENT: 
COLLISIONENERGY: 
Comment: registered in MassBank
Num Peaks: 3
91.0189	28
108.0217	155
109.029	1000

NAME: Catechol; LC-ESI-QTOF; MS2; CE
PRECURSORMZ: 109.029503
PRECURSORTYPE: [M-H]-
FORMULA: C6H6O2
Ontology: Catechols
INCHIKEY: YCIMNLLNPGFGHC-UHFFFAOYSA-N
SMILES: OC1=CC=CC=C1O
RETENTIONTIME: 
CCS: 117.450125
IONMODE: Negative
INSTRUMENTTYPE: LC-ESI-QTOF
INSTRUMENT: 
COLLISIONENERGY: 30
Comment: registered in MassBank
Num Peaks: 4
81.0349	95
91.0183	286
108.0193	1000
109.029	1000

NAME: Daidzein; LC-ESI-QTOF; MS2; CE
PRECURSORMZ: 253.050632
PRECURSORTYPE: [M-H]-
FORMULA: C15H10O4
Ontology: Isoflavones
INCHIKEY: ZQSIJRDFPHDXIC-UHFFFAOYSA-N
SMILES: OC1=CC=C(C=C1)C1=COC2=C(C=CC(O)=C2)C1=O
RETENTIONTIME: 
CCS: 158.7776973
IONMODE: Negative
INSTRUMENTTYPE: LC-ESI-QTOF
INSTRUMENT: 
COLLISIONENERGY: 
Comment: registered in MassBank
Num Peaks: 11
91.0212	137
132.0244	119
133.0321	105
135.0117	73
180.06171	55
195.0493	83
208.0573	118
209.06551	67
223.0453	122
224.0526	118
253.05009	1000

NAME: Daidzein; LC-ESI-QTOF; MS2; CE
PRECURSORMZ: 253.050632
PRECURSORTYPE: [M-H]-
FORMULA: C15H10O4
Ontology: Isoflavones
INCHIKEY: ZQSIJRDFPHDXIC-UHFFFAOYSA-N
SMILES: OC1=CC=C(C=C1)C1=COC2=C(C=CC(O)=C2)C1=O
RETENTIONTIME: 
CCS: 158.7776973
IONMODE: Negative
INSTRUMENTTYPE: LC-ESI-QTOF
INSTRUMENT: 
COLLISIONENERGY: 30
Comment: registered in MassBank
Num Peaks: 19
89.0396	96
91.019	1000
117.0341	119
132.021	800
133.0291	799
135.0083	406
167.04939	100
169.06551	158
180.0575	406
182.0372	94
195.0444	535
196.05231	282
197.0598	122
208.05251	883
209.06059	202
223.03951	983
224.0475	503
225.0553	135
253.05009	461

NAME: Eriodictyol; LC-ESI-QTOF; MS2; CE
PRECURSORMZ: 287.056112
PRECURSORTYPE: [M-H]-
FORMULA: C15H12O6
Ontology: Flavanones
INCHIKEY: SBHXYTNGIZCORC-ZDUSSCGKSA-N
SMILES: OC1=CC(O)=C2C(=O)C[C@H](OC2=C1)C1=CC(O)=C(O)C=C1
RETENTIONTIME: 
CCS: 165.7733981
IONMODE: Negative
INSTRUMENTTYPE: LC-ESI-QTOF
INSTRUMENT: 
COLLISIONENERGY: 
Comment: registered in MassBank
Num Peaks: 6
65.005	67
107.0147	137
134.0383	97
135.0453	1000
151.0033	610
287.0556	182

NAME: Isorhamnetin; LC-ESI-QTOF; MS2; CE
PRECURSORMZ: 315.051026
PRECURSORTYPE: [M-H]-
FORMULA: C16H12O7
Ontology: Flavonols
INCHIKEY: IZQSVPBOUDKVDZ-UHFFFAOYSA-N
SMILES: COC1=C(O)C=CC(=C1)C1=C(O)C(=O)C2=C(O)C=C(O)C=C2O1
RETENTIONTIME: 
CCS: 171.1481859
IONMODE: Negative
INSTRUMENTTYPE: LC-ESI-QTOF
INSTRUMENT: 
COLLISIONENERGY: 
Comment: registered in MassBank
Num Peaks: 4
107.0136	131
151.0038	162
300.02591	731
315.05051	1000

NAME: Kaempferol; LC-ESI-QTOF; MS2; CE
PRECURSORMZ: 285.040462
PRECURSORTYPE: [M-H]-
FORMULA: C15H10O6
Ontology: Flavonols
INCHIKEY: IYRMWMYZSQPJKC-UHFFFAOYSA-N
SMILES: OC1=CC=C(C=C1)C1=C(O)C(=O)C2=C(O)C=C(O)C=C2O1
RETENTIONTIME: 
CCS: 163.4159869
IONMODE: Negative
INSTRUMENTTYPE: LC-ESI-QTOF
INSTRUMENT: 
COLLISIONENERGY: 
Comment: registered in MassBank
Num Peaks: 6
64.9965	51
93.023	76
97.0178	63
119.0343	1000
164.9985	481
285.03989	418

NAME: Kaempferide; LC-ESI-QTOF; MS2; CE
PRECURSORMZ: 299.056112
PRECURSORTYPE: [M-H]-
FORMULA: C16H12O6
Ontology: Flavonols
INCHIKEY: SQFSKOYWJBQGKQ-UHFFFAOYSA-N
SMILES: COC1=CC=C(C=C1)C1=C(O)C(=O)C2=C(O)C=C(O)C=C2O1
RETENTIONTIME: 
CCS: 168.79172
IONMODE: Negative
INSTRUMENTTYPE: LC-ESI-QTOF
INSTRUMENT: 
COLLISIONENERGY: 
Comment: registered in MassBank
Num Peaks: 11
63.0257	87
65.0048	58
83.0151	86
107.0147	184
108.0229	50
132.02251	89
151.0041	294
163.0042	81
164.01221	98
284.03329	952
299.0556	1000

NAME: Luteolin; LC-ESI-QTOF; MS2; CE
PRECURSORMZ: 285.040462
PRECURSORTYPE: [M-H]-
FORMULA: C15H10O6
Ontology: Flavones
INCHIKEY: IQPNAANSBPBGFQ-UHFFFAOYSA-N
SMILES: OC1=CC(O)=C2C(=O)C=C(OC2=C1)C1=CC(O)=C(O)C=C1
RETENTIONTIME: 
CCS: 163.4002984
IONMODE: Negative
INSTRUMENTTYPE: LC-ESI-QTOF
INSTRUMENT: 
COLLISIONENERGY: 
Comment: registered in MassBank
Num Peaks: 6
107.0141	64
132.02271	59
133.0294	473
151.0033	92
175.0399	58
285.03989	1000

NAME: Luteolin; LC-ESI-QTOF; MS2; CE
PRECURSORMZ: 285.040462
PRECURSORTYPE: [M-H]-
FORMULA: C15H10O6
Ontology: Flavones
INCHIKEY: IQPNAANSBPBGFQ-UHFFFAOYSA-N
SMILES: OC1=CC(O)=C2C(=O)C=C(OC2=C1)C1=CC(O)=C(O)C=C1
RETENTIONTIME: 
CCS: 163.4002984
IONMODE: Negative
INSTRUMENTTYPE: LC-ESI-QTOF
INSTRUMENT: 
COLLISIONENERGY: 30
Comment: registered in MassBank
Num Peaks: 22
63.0246	20
65.0044	63
83.0138	55
105.0345	29
107.0139	145
121.0287	46
132.0204	60
133.0282	1000
143.0498	15
145.0287	15
147.0435	12
149.02361	52
151.00211	93
171.0441	18
174.03	11
175.03909	72
198.03149	17
199.03841	39
201.01759	28
215.0341	13
217.04829	12
285.03989	21

NAME: Pelargonin; LC-ESI-QTOF; MS2; CE
PRECURSORMZ: 593.150645
PRECURSORTYPE: [M-2H]-
FORMULA: C27H31O15
Ontology: Anthocyanidin-5-O-glycosides
INCHIKEY: SLCKJKWFULXZBD-ZOTFFYTFSA-O
SMILES: OC[C@H]1O[C@@H](OC2=CC(O)=CC3=C2C=C(O[C@@H]2O[C@H](CO)[C@@H](O)[C@H](O)[C@H]2O)C(=[O+]3)C2=CC=C(O)C=C2)[C@H](O)[C@@H](O)[C@@H]1O
RETENTIONTIME: 
CCS: -1
IONMODE: Negative
INSTRUMENTTYPE: LC-ESI-QTOF
INSTRUMENT: 
COLLISIONENERGY: 
Comment: registered in MassBank
Num Peaks: 8
147.00951	173
239.0372	92
267.03119	346
268.03809	159
269.047	1000
430.09219	115
431.1004	651
593.15057	257

NAME: Quercetin; LC-ESI-QTOF; MS2; CE
PRECURSORMZ: 301.035376
PRECURSORTYPE: [M-H]-
FORMULA: C15H10O7
Ontology: Flavonols
INCHIKEY: REFJWTPEDVJJIY-UHFFFAOYSA-N
SMILES: OC1=CC(O)=C2C(OC(=C(O)C2=O)C2=CC(O)=C(O)C=C2)=C1
RETENTIONTIME: 
CCS: 166.0397546
IONMODE: Negative
INSTRUMENTTYPE: LC-ESI-QTOF
INSTRUMENT: 
COLLISIONENERGY: 
Comment: registered in MassBank
Num Peaks: 11
65.005	108
83.0142	88
107.0138	225
121.0301	167
149.0228	59
151.0036	529
160.89481	49
178.99899	235
282.9939	49
300.785	59
301.03491	1000

NAME: Rhamnetin; LC-ESI-QTOF; MS2; CE
PRECURSORMZ: 315.051026
PRECURSORTYPE: [M-H]-
FORMULA: C16H12O7
Ontology: Flavonols
INCHIKEY: JGUZGNYPMHHYRK-UHFFFAOYSA-N
SMILES: COC1=CC(O)=C2C(=O)C(O)=C(OC2=C1)C1=CC(O)=C(O)C=C1
RETENTIONTIME: 
CCS: 171.307299
IONMODE: Negative
INSTRUMENTTYPE: LC-ESI-QTOF
INSTRUMENT: 
COLLISIONENERGY: 
Comment: registered in MassBank
Num Peaks: 10
97.0305	130
121.0295	234
151.00191	91
164.8938	143
165.01849	701
193.0141	78
281.8761	91
300.0289	234
314.91501	117
315.05051	1000

NAME: Sinigrin; LC-ESI-QTOF; MS2; CE
PRECURSORMZ: 358.027196
PRECURSORTYPE: [M-H]-
FORMULA: C10H17NO9S2
Ontology: Alkylglucosinolates
INCHIKEY: PHZOWSSBXJXFOR-PTGZALFTSA-N
SMILES: OC[C@H]1O[C@@H](SC(CC=C)=NOS(O)(=O)=O)[C@H](O)[C@@H](O)[C@@H]1O
RETENTIONTIME: 
CCS: 170.1700775
IONMODE: Negative
INSTRUMENTTYPE: LC-ESI-QTOF
INSTRUMENT: 
COLLISIONENERGY: 
Comment: registered in MassBank
Num Peaks: 5
74.9927	747
79.9592	125
95.9534	691
96.9612	1000
358.0267	826

NAME: Cosmosiin; LC-ESI-QTOF; MS2; CE
PRECURSORMZ: 431.09837
PRECURSORTYPE: [M-H]-
FORMULA: C21H20O10
Ontology: Flavonoid-7-O-glycosides
INCHIKEY: KMOUJOKENFFTPU-QNDFHXLGSA-N
SMILES: OC[C@H]1O[C@@H](OC2=CC(O)=C3C(=O)C=C(OC3=C2)C2=CC=C(O)C=C2)[C@H](O)[C@@H](O)[C@@H]1O
RETENTIONTIME: 
CCS: 197.0643546
IONMODE: Negative
INSTRUMENTTYPE: LC-ESI-QTOF
INSTRUMENT: 
COLLISIONENERGY: 
Comment: registered in MassBank
Num Peaks: 8
107.0154	56
151.005	71
211.0423	68
239.0378	75
240.04601	76
268.03909	1000
269.04941	347
431.09781	824

NAME: Rhoifolin; LC-ESI-QTOF; MS2; CE
PRECURSORMZ: 577.156279
PRECURSORTYPE: [M-H]-
FORMULA: C27H30O14
Ontology: Flavonoid-7-O-glycosides
INCHIKEY: RPMNUQRUHXIGHK-PYXJVEIZSA-N
SMILES: C[C@@H]1O[C@@H](O[C@@H]2[C@@H](O)[C@H](O)[C@@H](CO)O[C@H]2OC2=CC(O)=C3C(=O)C=C(OC3=C2)C2=CC=C(O)C=C2)[C@H](O)[C@H](O)[C@H]1O
RETENTIONTIME: 
CCS: 222.168329
IONMODE: Negative
INSTRUMENTTYPE: LC-ESI-QTOF
INSTRUMENT: 
COLLISIONENERGY: 
Comment: registered in MassBank
Num Peaks: 3
268.03922	228
269.04669	1000
577.15582	731

NAME: Rhoifolin; LC-ESI-QTOF; MS2; CE
PRECURSORMZ: 577.156279
PRECURSORTYPE: [M-H]-
FORMULA: C27H30O14
Ontology: Flavonoid-7-O-glycosides
INCHIKEY: RPMNUQRUHXIGHK-PYXJVEIZSA-N
SMILES: C[C@@H]1O[C@@H](O[C@@H]2[C@@H](O)[C@H](O)[C@@H](CO)O[C@H]2OC2=CC(O)=C3C(=O)C=C(OC3=C2)C2=CC=C(O)C=C2)[C@H](O)[C@H](O)[C@H]1O
RETENTIONTIME: 
CCS: 222.168329
IONMODE: Negative
INSTRUMENTTYPE: LC-ESI-QTOF
INSTRUMENT: 
COLLISIONENERGY: 30
Comment: registered in MassBank
Num Peaks: 4
268.03809	111
269.04529	1000
413.08719	15
577.15582	47

NAME: Baicalin; LC-ESI-QTOF; MS2; CE
PRECURSORMZ: 445.077635
PRECURSORTYPE: [M-H]-
FORMULA: C21H18O11
Ontology: Flavonoid-7-O-glucuronides
INCHIKEY: IKIIZLYTISPENI-ZFORQUDYSA-N
SMILES: O[C@@H]1[C@@H](O)[C@H](OC2=C(O)C(O)=C3C(=O)C=C(OC3=C2)C2=CC=CC=C2)O[C@@H]([C@H]1O)C(O)=O
RETENTIONTIME: 
CCS: 198.5176695
IONMODE: Negative
INSTRUMENTTYPE: LC-ESI-QTOF
INSTRUMENT: 
COLLISIONENERGY: 
Comment: registered in MassBank
Num Peaks: 4
113.0248	124
175.0247	55
269.04599	1000
445.07709	129

NAME: Keracyanin; LC-ESI-QTOF; MS2; CE
PRECURSORMZ: 593.150645
PRECURSORTYPE: [M-2H]-
FORMULA: C27H31O15
Ontology: Anthocyanidin-3-O-glycosides
INCHIKEY: USNPULRDBDVJAO-FXCAAIILSA-O
SMILES: C[C@@H]1O[C@@H](OC[C@H]2O[C@@H](OC3=C([O+]=C4C=C(O)C=C(O)C4=C3)C3=CC(O)=C(O)C=C3)[C@H](O)[C@@H](O)[C@@H]2O)[C@H](O)[C@H](O)[C@H]1O
RETENTIONTIME: 
CCS: -1
IONMODE: Negative
INSTRUMENTTYPE: LC-ESI-QTOF
INSTRUMENT: 
COLLISIONENERGY: 
Comment: registered in MassBank
Num Peaks: 9
125.0251	54
147.009	65
255.0314	103
256.03821	56
283.02661	93
284.03391	749
285.04199	473
299.05701	54
593.15057	1000

NAME: Keracyanin; LC-ESI-QTOF; MS2; CE
PRECURSORMZ: 593.150645
PRECURSORTYPE: [M-2H]-
FORMULA: C27H31O15
Ontology: Anthocyanidin-3-O-glycosides
INCHIKEY: USNPULRDBDVJAO-FXCAAIILSA-O
SMILES: C[C@@H]1O[C@@H](OC[C@H]2O[C@@H](OC3=C([O+]=C4C=C(O)C=C(O)C4=C3)C3=CC(O)=C(O)C=C3)[C@H](O)[C@@H](O)[C@@H]2O)[C@H](O)[C@H](O)[C@H]1O
RETENTIONTIME: 
CCS: -1
IONMODE: Negative
INSTRUMENTTYPE: LC-ESI-QTOF
INSTRUMENT: 
COLLISIONENERGY: 30
Comment: registered in MassBank
Num Peaks: 8
125.0253	54
147.00951	23
257.04721	20
283.0271	38
284.03439	1000
285.0423	562
299.05859	61
593.15057	20

NAME: Eriodictyol-7-O-glucoside; LC-ESI-QTOF; MS2; CE
PRECURSORMZ: 449.108935
PRECURSORTYPE: [M-H]-
FORMULA: C21H22O11
Ontology: Flavonoid-7-O-glycosides
INCHIKEY: RAFHNDRXYHOLSH-SFTVRKLSSA-N
SMILES: OC[C@H]1O[C@@H](OC2=CC(O)=C3C(=O)C[C@H](OC3=C2)C2=CC(O)=C(O)C=C2)[C@H](O)[C@@H](O)[C@@H]1O
RETENTIONTIME: 
CCS: 227.4137512
IONMODE: Negative
INSTRUMENTTYPE: LC-ESI-QTOF
INSTRUMENT: 
COLLISIONENERGY: 
Comment: registered in MassBank
Num Peaks: 9
65.0048	41
83.0151	34
107.0142	141
125.0252	40
135.0453	751
151.00369	916
175.0041	72
287.05579	1000
449.1084	169

NAME: Isorhamnetin-3-O-glucoside; LC-ESI-QTOF; MS2; CE
PRECURSORMZ: 477.10385
PRECURSORTYPE: [M-H]-
FORMULA: C22H22O12
Ontology: Flavonoid-3-O-glycosides
INCHIKEY: CQLRUIIRRZYHHS-LFXZADKFSA-N
SMILES: COC1=C(O)C=CC(=C1)C1=C(O[C@@H]2O[C@H](CO)[C@@H](O)[C@H](O)[C@H]2O)C(=O)C2=C(O)C=C(O)C=C2O1
RETENTIONTIME: 
CCS: 216.8963493
IONMODE: Negative
INSTRUMENTTYPE: LC-ESI-QTOF
INSTRUMENT: 
COLLISIONENERGY: 
Comment: registered in MassBank
Num Peaks: 11
199.0435	94
242.0267	211
243.034	552
257.0509	180
270.0224	194
271.02991	545
285.0459	330
299.0264	139
314.04739	673
315.05841	131
477.1033	1000

NAME: Isorhamnetin-3-O-glucoside; LC-ESI-QTOF; MS2; CE
PRECURSORMZ: 477.10385
PRECURSORTYPE: [M-H]-
FORMULA: C22H22O12
Ontology: Flavonoid-3-O-glycosides
INCHIKEY: CQLRUIIRRZYHHS-LFXZADKFSA-N
SMILES: COC1=C(O)C=CC(=C1)C1=C(O[C@@H]2O[C@H](CO)[C@@H](O)[C@H](O)[C@H]2O)C(=O)C2=C(O)C=C(O)C=C2O1
RETENTIONTIME: 
CCS: 216.8963493
IONMODE: Negative
INSTRUMENTTYPE: LC-ESI-QTOF
INSTRUMENT: 
COLLISIONENERGY: 30
Comment: registered in MassBank
Num Peaks: 13
151.004	40
242.0237	35
243.0302	680
257.04669	296
270.01889	69
271.02551	763
285.04141	664
286.05029	216
299.02139	257
300.0293	138
314.04401	1000
315.05359	127
477.1033	30

NAME: Isorhamnetin-3-O-rutinoside; LC-ESI-QTOF; MS2; CE
PRECURSORMZ: 623.161759
PRECURSORTYPE: [M-H]-
FORMULA: C28H32O16
Ontology: Flavonoid-3-O-glycosides
INCHIKEY: UIDGLYUNOUKLBM-GEBJFKNCSA-N
SMILES: COC1=C(O)C=CC(=C1)C1=C(O[C@@H]2O[C@H](CO[C@@H]3O[C@@H](C)[C@H](O)[C@@H](O)[C@H]3O)[C@@H](O)[C@H](O)[C@H]2O)C(=O)C2=C(O)C=C(O)C=C2O1
RETENTIONTIME: 
CCS: 223.4724829
IONMODE: Negative
INSTRUMENTTYPE: LC-ESI-QTOF
INSTRUMENT: 
COLLISIONENERGY: 
Comment: registered in MassBank
Num Peaks: 9
243.03371	149
255.0341	95
271.02921	250
285.04611	65
299.02441	356
300.03339	315
314.04819	411
315.05521	867
623.16132	1000

NAME: Isorhamnetin-3-O-rutinoside; LC-ESI-QTOF; MS2; CE
PRECURSORMZ: 623.161759
PRECURSORTYPE: [M-H]-
FORMULA: C28H32O16
Ontology: Flavonoid-3-O-glycosides
INCHIKEY: UIDGLYUNOUKLBM-GEBJFKNCSA-N
SMILES: COC1=C(O)C=CC(=C1)C1=C(O[C@@H]2O[C@H](CO[C@@H]3O[C@@H](C)[C@H](O)[C@@H](O)[C@H]3O)[C@@H](O)[C@H](O)[C@H]2O)C(=O)C2=C(O)C=C(O)C=C2O1
RETENTIONTIME: 
CCS: 223.4724829
IONMODE: Negative
INSTRUMENTTYPE: LC-ESI-QTOF
INSTRUMENT: 
COLLISIONENERGY: 30
Comment: registered in MassBank
Num Peaks: 5
299.02109	124
300.0289	154
314.04419	554
315.052	1000
623.16132	97

NAME: Robinin; LC-ESI-QTOF; MS2; CE
PRECURSORMZ: 739.209103
PRECURSORTYPE: [M-H]-
FORMULA: C33H40O19
Ontology: Flavonoid-7-O-glycosides
INCHIKEY: PEFASEPMJYRQBW-HKWQTAEVSA-N
SMILES: C[C@@H]1O[C@@H](OC[C@H]2O[C@@H](OC3=C(OC4=CC(O[C@@H]5O[C@@H](C)[C@H](O)[C@@H](O)[C@H]5O)=CC(O)=C4C3=O)C3=CC=C(O)C=C3)[C@H](O)[C@@H](O)[C@H]2O)[C@H](O)[C@H](O)[C@H]1O
RETENTIONTIME: 
CCS: 247.3258482
IONMODE: Negative
INSTRUMENTTYPE: LC-ESI-QTOF
INSTRUMENT: 
COLLISIONENERGY: 
Comment: registered in MassBank
Num Peaks: 7
255.0327	95
283.02759	363
284.03601	449
285.04459	370
430.09509	139
593.15289	1000
739.20862	817

NAME: Robinin; LC-ESI-QTOF; MS2; CE
PRECURSORMZ: 739.209103
PRECURSORTYPE: [M-H]-
FORMULA: C33H40O19
Ontology: Flavonoid-7-O-glycosides
INCHIKEY: PEFASEPMJYRQBW-HKWQTAEVSA-N
SMILES: C[C@@H]1O[C@@H](OC[C@H]2O[C@@H](OC3=C(OC4=CC(O[C@@H]5O[C@@H](C)[C@H](O)[C@@H](O)[C@H]5O)=CC(O)=C4C3=O)C3=CC=C(O)C=C3)[C@H](O)[C@@H](O)[C@H]2O)[C@H](O)[C@H](O)[C@H]1O
RETENTIONTIME: 
CCS: 247.3258482
IONMODE: Negative
INSTRUMENTTYPE: LC-ESI-QTOF
INSTRUMENT: 
COLLISIONENERGY: 30
Comment: registered in MassBank
Num Peaks: 7
283.02661	33
284.03381	107
285.0416	143
430.09131	92
431.09961	27
593.15143	1000
739.20862	28

NAME: Kaempferol-3-O-glucoside; LC-ESI-QTOF; MS2; CE
PRECURSORMZ: 447.093285
PRECURSORTYPE: [M-H]-
FORMULA: C21H20O11
Ontology: Flavonoid-3-O-glycosides
INCHIKEY: JPUKWEQWGBDDQB-QSOFNFLRSA-N
SMILES: OC[C@H]1O[C@@H](OC2=C(OC3=CC(O)=CC(O)=C3C2=O)C2=CC=C(O)C=C2)[C@H](O)[C@@H](O)[C@@H]1O
RETENTIONTIME: 
CCS: 199.6625881
IONMODE: Negative
INSTRUMENTTYPE: LC-ESI-QTOF
INSTRUMENT: 
COLLISIONENERGY: 
Comment: registered in MassBank
Num Peaks: 8
183.048	103
211.0434	55
227.0374	922
255.033	986
256.04251	94
284.03571	817
285.0455	372
447.0928	1000

NAME: Kaempferol-3-O-glucoside; LC-ESI-QTOF; MS2; CE
PRECURSORMZ: 447.093285
PRECURSORTYPE: [M-H]-
FORMULA: C21H20O11
Ontology: Flavonoid-3-O-glycosides
INCHIKEY: JPUKWEQWGBDDQB-QSOFNFLRSA-N
SMILES: OC[C@H]1O[C@@H](OC2=C(OC3=CC(O)=CC(O)=C3C2=O)C2=CC=C(O)C=C2)[C@H](O)[C@@H](O)[C@@H]1O
RETENTIONTIME: 
CCS: 199.6625881
IONMODE: Negative
INSTRUMENTTYPE: LC-ESI-QTOF
INSTRUMENT: 
COLLISIONENERGY: 30
Comment: registered in MassBank
Num Peaks: 15
151.0036	21
163.004	10
211.0401	13
227.0345	642
228.0424	15
229.05119	43
239.03481	11
255.02901	1000
255.2883	13
255.429	26
256.03909	142
257.0477	34
284.03271	745
285.0419	219
447.0928	10

NAME: Kaempferol-3-O-rutinoside; LC-ESI-QTOF; MS2; CE
PRECURSORMZ: 593.151194
PRECURSORTYPE: [M-H]-
FORMULA: C27H30O15
Ontology: Flavonoid-3-O-glycosides
INCHIKEY: RTATXGUCZHCSNG-QHWHWDPRSA-N
SMILES: C[C@@H]1O[C@@H](OC[C@H]2O[C@@H](OC3=C(OC4=CC(O)=CC(O)=C4C3=O)C3=CC=C(O)C=C3)[C@H](O)[C@@H](O)[C@@H]2O)[C@H](O)[C@H](O)[C@H]1O
RETENTIONTIME: 
CCS: 224.998807
IONMODE: Negative
INSTRUMENTTYPE: LC-ESI-QTOF
INSTRUMENT: 
COLLISIONENERGY: 
Comment: registered in MassBank
Num Peaks: 7
227.0383	193
229.0544	99
255.0336	387
257.05029	73
284.03641	647
285.04431	837
593.15057	1000

NAME: Kaempferol-3-O-rutinoside; LC-ESI-QTOF; MS2; CE
PRECURSORMZ: 593.151194
PRECURSORTYPE: [M-H]-
FORMULA: C27H30O15
Ontology: Flavonoid-3-O-glycosides
INCHIKEY: RTATXGUCZHCSNG-QHWHWDPRSA-N
SMILES: C[C@@H]1O[C@@H](OC[C@H]2O[C@@H](OC3=C(OC4=CC(O)=CC(O)=C4C3=O)C3=CC=C(O)C=C3)[C@H](O)[C@@H](O)[C@@H]2O)[C@H](O)[C@H](O)[C@H]1O
RETENTIONTIME: 
CCS: 224.998807
IONMODE: Negative
INSTRUMENTTYPE: LC-ESI-QTOF
INSTRUMENT: 
COLLISIONENERGY: 30
Comment: registered in MassBank
Num Peaks: 4
255.0305	82
284.0322	784
285.04059	1000
593.15057	107

NAME: Kaempferol-7-O-neohesperidoside; LC-ESI-QTOF; MS2; CE
PRECURSORMZ: 593.151194
PRECURSORTYPE: [M-H]-
FORMULA: C27H30O15
Ontology: Flavonoid-7-O-glycosides
INCHIKEY: ZEJXENDZTYVXDP-CSJHBIPPSA-N
SMILES: C[C@@H]1O[C@@H](O[C@@H]2[C@@H](O)[C@H](O)[C@@H](CO)O[C@H]2OC2=CC(O)=C3C(=O)C(O)=C(OC3=C2)C2=CC=C(O)C=C2)[C@H](O)[C@H](O)[C@H]1O
RETENTIONTIME: 
CCS: 239.0670965
IONMODE: Negative
INSTRUMENTTYPE: LC-ESI-QTOF
INSTRUMENT: 
COLLISIONENERGY: 
Comment: registered in MassBank
Num Peaks: 4
151.00439	76
284.0347	127
285.04239	1000
593.15057	523

NAME: Kaempferol-7-O-neohesperidoside; LC-ESI-QTOF; MS2; CE
PRECURSORMZ: 593.151194
PRECURSORTYPE: [M-H]-
FORMULA: C27H30O15
Ontology: Flavonoid-7-O-glycosides
INCHIKEY: ZEJXENDZTYVXDP-CSJHBIPPSA-N
SMILES: C[C@@H]1O[C@@H](O[C@@H]2[C@@H](O)[C@H](O)[C@@H](CO)O[C@H]2OC2=CC(O)=C3C(=O)C(O)=C(OC3=C2)C2=CC=C(O)C=C2)[C@H](O)[C@H](O)[C@H]1O
RETENTIONTIME: 
CCS: 239.0670965
IONMODE: Negative
INSTRUMENTTYPE: LC-ESI-QTOF
INSTRUMENT: 
COLLISIONENERGY: 30
Comment: registered in MassBank
Num Peaks: 7
151.00391	30
284.03381	137
285.04141	1000
285.3139	10
285.46341	20
286.04581	12
593.15057	17

NAME: Homoorientin; LC-ESI-QTOF; MS2; CE
PRECURSORMZ: 447.093285
PRECURSORTYPE: [M-H]-
FORMULA: C21H20O11
Ontology: Flavonoid C-glycosides
INCHIKEY: ODBRNZZJSYPIDI-VJXVFPJBSA-N
SMILES: OC[C@H]1O[C@H]([C@H](O)[C@@H](O)[C@@H]1O)C1=C(O)C2=C(OC(=CC2=O)C2=CC(O)=C(O)C=C2)C=C1O
RETENTIONTIME: 
CCS: 203.8924295
IONMODE: Negative
INSTRUMENTTYPE: LC-ESI-QTOF
INSTRUMENT: 
COLLISIONENERGY: 
Comment: registered in MassBank
Num Peaks: 14
133.0302	306
163.0047	72
175.0408	64
284.035	127
285.04309	241
297.04291	405
298.05099	305
299.0592	249
311.0582	111
327.05301	1000
339.0535	132
357.06409	786
429.08591	109
447.0928	950

NAME: Luteolin-7-O-glucoside; LC-ESI-QTOF; MS2; CE
PRECURSORMZ: 447.093285
PRECURSORTYPE: [M-H]-
FORMULA: C21H20O11
Ontology: Flavonoid-7-O-glycosides
INCHIKEY: PEFNSGRTCBGNAN-QNDFHXLGSA-N
SMILES: OC[C@H]1O[C@@H](OC2=CC(O)=C3C(=O)C=C(OC3=C2)C2=CC(O)=C(O)C=C2)[C@H](O)[C@@H](O)[C@@H]1O
RETENTIONTIME: 
CCS: 199.1743496
IONMODE: Negative
INSTRUMENTTYPE: LC-ESI-QTOF
INSTRUMENT: 
COLLISIONENERGY: 
Comment: registered in MassBank
Num Peaks: 9
107.0145	52
133.03	68
151.0047	72
199.0414	30
227.0359	39
256.03949	60
284.03461	656
285.0419	1000
447.0928	821

NAME: Myricitrin; LC-ESI-QTOF; MS2; CE
PRECURSORMZ: 463.0882
PRECURSORTYPE: [M-H]-
FORMULA: C21H20O12
Ontology: Flavonoid-3-O-glycosides
INCHIKEY: DCYOADKBABEMIQ-OWMUPTOHSA-N
SMILES: C[C@@H]1O[C@@H](OC2=C(OC3=CC(O)=CC(O)=C3C2=O)C2=CC(O)=C(O)C(O)=C2)[C@H](O)[C@H](O)[C@H]1O
RETENTIONTIME: 
CCS: 202.9005839
IONMODE: Negative
INSTRUMENTTYPE: LC-ESI-QTOF
INSTRUMENT: 
COLLISIONENERGY: 
Comment: registered in MassBank
Num Peaks: 14
124.0176	40
137.02541	37
151.0051	87
179.00031	82
214.02921	99
242.0248	79
243.0329	73
259.02789	109
270.02051	86
271.02719	472
287.02271	298
316.02399	1000
317.03369	229
463.08771	785

NAME: Prunin; LC-ESI-QTOF; MS2; CE
PRECURSORMZ: 433.11402
PRECURSORTYPE: [M-H]-
FORMULA: C21H22O10
Ontology: Flavonoid-7-O-glycosides
INCHIKEY: DLIKSSGEMUFQOK-SFTVRKLSSA-N
SMILES: OC[C@H]1O[C@@H](OC2=CC(O)=C3C(=O)C[C@H](OC3=C2)C2=CC=C(O)C=C2)[C@H](O)[C@@H](O)[C@@H]1O
RETENTIONTIME: 
CCS: 197.7449222
IONMODE: Negative
INSTRUMENTTYPE: LC-ESI-QTOF
INSTRUMENT: 
COLLISIONENERGY: 
Comment: registered in MassBank
Num Peaks: 9
65.0047	32
83.0148	34
93.0355	50
107.0144	104
119.0503	328
151.00349	390
177.01939	48
271.06119	1000
433.11349	76

NAME: Callistephin; LC-ESI-QTOF; MS2; CE
PRECURSORMZ: 431.097822
PRECURSORTYPE: [M-2H]-
FORMULA: C21H21O10
Ontology: Anthocyanidin-3-O-glycosides
INCHIKEY: ABVCUBUIXWJYSE-GQUPQBGVSA-O
SMILES: OC[C@H]1O[C@@H](OC2=CC3=C(O)C=C(O)C=C3[O+]=C2C2=CC=C(O)C=C2)[C@H](O)[C@@H](O)[C@@H]1O
RETENTIONTIME: 
CCS: -1
IONMODE: Negative
INSTRUMENTTYPE: LC-ESI-QTOF
INSTRUMENT: 
COLLISIONENERGY: 
Comment: registered in MassBank
Num Peaks: 12
147.00819	194
148.0172	84
195.04649	72
196.0528	52
211.0396	67
224.04739	100
239.0361	102
240.04401	75
241.0509	94
268.03851	675
269.0459	1000
431.09781	440

NAME: Puerarin; LC-ESI-QTOF; MS2; CE
PRECURSORMZ: 415.103456
PRECURSORTYPE: [M-H]-
FORMULA: C21H20O9
Ontology: Isoflavonoid C-glycosides
INCHIKEY: HKEAFJYKMMKDOR-VPRICQMDSA-N
SMILES: OC[C@H]1O[C@H]([C@H](O)[C@@H](O)[C@@H]1O)C1=C(O)C=CC2=C1OC=C(C2=O)C1=CC=C(O)C=C1
RETENTIONTIME: 
CCS: 198.5500912
IONMODE: Negative
INSTRUMENTTYPE: LC-ESI-QTOF
INSTRUMENT: 
COLLISIONENERGY: 
Comment: registered in MassBank
Num Peaks: 9
133.0313	81
222.0722	67
223.0791	74
224.05119	55
253.05499	56
267.06839	1000
277.05499	146
295.06381	651
415.10291	717

NAME: Peltatoside; LC-ESI-QTOF; MS2; CE
PRECURSORMZ: 595.130458
PRECURSORTYPE: [M-H]-
FORMULA: C26H28O16
Ontology: Flavonoid-3-O-glycosides
INCHIKEY: YNMFDPCLPIMRFD-KSPKLRDJSA-N
SMILES: O[C@H]1CO[C@@H](OC[C@H]2O[C@@H](OC3=C(OC4=CC(O)=CC(O)=C4C3=O)C3=CC(O)=C(O)C=C3)[C@H](O)[C@@H](O)[C@@H]2O)[C@H](O)[C@H]1O
RETENTIONTIME: 
CCS: 241.0849696
IONMODE: Negative
INSTRUMENTTYPE: LC-ESI-QTOF
INSTRUMENT: 
COLLISIONENERGY: 
Comment: registered in MassBank
Num Peaks: 21
107.0159	11
121.0314	11
151.0051	93
163.0054	17
179.00079	56
211.04289	10
226.0285	11
227.0388	18
243.0331	69
254.0257	20
255.0331	196
271.0275	380
272.03671	20
273.04449	12
283.02841	12
299.02499	15
300.03021	829
300.46381	14
301.03949	419
343.0499	15
595.12988	1000

NAME: Peltatoside; LC-ESI-QTOF; MS2; CE
PRECURSORMZ: 595.130458
PRECURSORTYPE: [M-H]-
FORMULA: C26H28O16
Ontology: Flavonoid-3-O-glycosides
INCHIKEY: YNMFDPCLPIMRFD-KSPKLRDJSA-N
SMILES: O[C@H]1CO[C@@H](OC[C@H]2O[C@@H](OC3=C(OC4=CC(O)=CC(O)=C4C3=O)C3=CC(O)=C(O)C=C3)[C@H](O)[C@@H](O)[C@@H]2O)[C@H](O)[C@H]1O
RETENTIONTIME: 
CCS: 241.0849696
IONMODE: Negative
INSTRUMENTTYPE: LC-ESI-QTOF
INSTRUMENT: 
COLLISIONENERGY: 30
Comment: registered in MassBank
Num Peaks: 10
151.0038	52
178.9984	51
255.0304	39
271.0256	69
300.02731	1000
300.30399	12
300.46039	25
301.0369	538
343.047	18
595.12988	115

NAME: Hyperoside; LC-ESI-QTOF; MS2; CE
PRECURSORMZ: 463.0882
PRECURSORTYPE: [M-H]-
FORMULA: C21H20O12
Ontology: Flavonoid-3-O-glycosides
INCHIKEY: OVSQVDMCBVZWGM-DTGCRPNFSA-N
SMILES: OC[C@H]1O[C@@H](OC2=C(OC3=CC(O)=CC(O)=C3C2=O)C2=CC(O)=C(O)C=C2)[C@H](O)[C@@H](O)[C@H]1O
RETENTIONTIME: 
CCS: 201.8799825
IONMODE: Negative
INSTRUMENTTYPE: LC-ESI-QTOF
INSTRUMENT: 
COLLISIONENERGY: 
Comment: registered in MassBank
Num Peaks: 9
151.005	112
179	56
227.0372	63
243.0327	182
255.0325	327
271.0274	697
300.0293	1000
301.039	449
463.08771	781

NAME: Hirsutrin; LC-ESI-QTOF; MS2; CE
PRECURSORMZ: 463.0882
PRECURSORTYPE: [M-H]-
FORMULA: C21H20O12
Ontology: Flavonoid-3-O-glycosides
INCHIKEY: OVSQVDMCBVZWGM-QSOFNFLRSA-N
SMILES: OC[C@H]1O[C@@H](OC2=C(OC3=CC(O)=CC(O)=C3C2=O)C2=CC(O)=C(O)C=C2)[C@H](O)[C@@H](O)[C@@H]1O
RETENTIONTIME: 
CCS: 201.8799825
IONMODE: Negative
INSTRUMENTTYPE: LC-ESI-QTOF
INSTRUMENT: 
COLLISIONENERGY: 
Comment: registered in MassBank
Num Peaks: 7
151.005	118
243.03281	185
255.0325	342
271.02759	730
300.02991	1000
301.03879	520
463.08771	794

NAME: Quercetin 3-(6-O-acetyl-beta-glucoside); LC-ESI-QTOF; MS2; CE
PRECURSORMZ: 505.098764
PRECURSORTYPE: [M-H]-
FORMULA: C23H22O13
Ontology: Flavonoid-3-O-glycosides
INCHIKEY: IGLUNMMNDNWZOA-LNNZMUSMSA-N
SMILES: CC(=O)OC[C@H]1O[C@@H](OC2=C(OC3=CC(O)=CC(O)=C3C2=O)C2=CC(O)=C(O)C=C2)[C@H](O)[C@@H](O)[C@@H]1O
RETENTIONTIME: 
CCS: 231.0965869
IONMODE: Negative
INSTRUMENTTYPE: LC-ESI-QTOF
INSTRUMENT: 
COLLISIONENERGY: 
Comment: registered in MassBank
Num Peaks: 9
151.0056	107
179.00121	55
227.03819	56
243.0334	175
255.03349	327
271.02789	710
300.0304	1000
301.04019	423
505.09821	869

NAME: Quercitrin; LC-ESI-QTOF; MS2; CE
PRECURSORMZ: 447.093285
PRECURSORTYPE: [M-H]-
FORMULA: C21H20O11
Ontology: Flavonoid-3-O-glycosides
INCHIKEY: OXGUCUVFOIWWQJ-HQBVPOQASA-N
SMILES: C[C@@H]1O[C@@H](OC2=C(OC3=CC(O)=CC(O)=C3C2=O)C2=CC(O)=C(O)C=C2)[C@H](O)[C@H](O)[C@H]1O
RETENTIONTIME: 
CCS: 200.6827075
IONMODE: Negative
INSTRUMENTTYPE: LC-ESI-QTOF
INSTRUMENT: 
COLLISIONENERGY: 
Comment: registered in MassBank
Num Peaks: 8
151.0051	194
179.0007	93
243.0323	199
255.0327	371
271.02759	727
300.02979	1000
301.03851	766
447.0928	901

NAME: Daidzin; LC-ESI-QTOF; MS2; CE
PRECURSORMZ: 415.103456
PRECURSORTYPE: [M-H]-
FORMULA: C21H20O9
Ontology: Isoflavonoid O-glycosides
INCHIKEY: KYQZWONCHDNPDP-QNDFHXLGSA-N
SMILES: OC[C@H]1O[C@@H](OC2=CC3=C(C=C2)C(=O)C(=CO3)C2=CC=C(O)C=C2)[C@H](O)[C@@H](O)[C@@H]1O
RETENTIONTIME: 
CCS: 194.1900928
IONMODE: Negative
INSTRUMENTTYPE: LC-ESI-QTOF
INSTRUMENT: 
COLLISIONENERGY: 
Comment: registered in MassBank
Num Peaks: 11
132.0217	106
135.0087	55
195.04601	164
223.0403	291
224.0491	75
251.03571	179
252.0435	1000
253.0517	281
267.0679	98
295.06201	68
415.10291	634

NAME: Glycyrrhizin; LC-ESI-QTOF; MS2; CE
PRECURSORMZ: 821.396509
PRECURSORTYPE: [M-H]-
FORMULA: C42H62O16
Ontology: Triterpene saponins
INCHIKEY: LPLVUJXQOOQHMX-QWBHMCJMSA-N
SMILES: CC1(C)[C@H](CC[C@@]2(C)[C@H]1CC[C@]1(C)[C@@H]2C(=O)C=C2[C@@H]3C[C@](C)(CC[C@]3(C)CC[C@@]12C)C(O)=O)O[C@H]1O[C@@H]([C@@H](O)[C@H](O)[C@H]1O[C@@H]1O[C@@H]([C@@H](O)[C@H](O)[C@H]1O)C(O)=O)C(O)=O
RETENTIONTIME: 
CCS: 244.1261022
IONMODE: Negative
INSTRUMENTTYPE: LC-ESI-QTOF
INSTRUMENT: 
COLLISIONENERGY: 
Comment: registered in MassBank
Num Peaks: 4
113.0256	133
193.03729	106
351.0596	234
821.396	1000

NAME: Glycyrrhizin; LC-ESI-QTOF; MS2; CE
PRECURSORMZ: 821.396509
PRECURSORTYPE: [M-H]-
FORMULA: C42H62O16
Ontology: Triterpene saponins
INCHIKEY: LPLVUJXQOOQHMX-QWBHMCJMSA-N
SMILES: CC1(C)[C@H](CC[C@@]2(C)[C@H]1CC[C@]1(C)[C@@H]2C(=O)C=C2[C@@H]3C[C@](C)(CC[C@]3(C)CC[C@@]12C)C(O)=O)O[C@H]1O[C@@H]([C@@H](O)[C@H](O)[C@H]1O[C@@H]1O[C@@H]([C@@H](O)[C@H](O)[C@H]1O)C(O)=O)C(O)=O
RETENTIONTIME: 
CCS: 244.1261022
IONMODE: Negative
INSTRUMENTTYPE: LC-ESI-QTOF
INSTRUMENT: 
COLLISIONENERGY: 30
Comment: registered in MassBank
Num Peaks: 3
193.03461	74
351.05591	310
821.396	1000

NAME: Capsaicin; LC-ESI-QTOF; MS2; CE
PRECURSORMZ: 304.191817
PRECURSORTYPE: [M-H]-
FORMULA: C18H27NO3
Ontology: Methoxyphenols
INCHIKEY: YKPUWZUDDOIDPM-SOFGYWHQSA-N
SMILES: COC1=C(O)C=CC(CN=C(O)CCCC\C=C\C(C)C)=C1
RETENTIONTIME: 
CCS: 178.4004496
IONMODE: Negative
INSTRUMENTTYPE: LC-ESI-QTOF
INSTRUMENT: 
COLLISIONENERGY: 
Comment: registered in MassBank
Num Peaks: 2
168.1418	1000
304.19131	133

NAME: Dihydrocapsaicin; LC-ESI-QTOF; MS2; CE
PRECURSORMZ: 306.207467
PRECURSORTYPE: [M-H]-
FORMULA: C18H29NO3
Ontology: Methoxyphenols
INCHIKEY: XJQPQKLURWNAAH-UHFFFAOYSA-N
SMILES: COC1=C(O)C=CC(CN=C(O)CCCCCCC(C)C)=C1
RETENTIONTIME: 
CCS: 178.5936329
IONMODE: Negative
INSTRUMENTTYPE: LC-ESI-QTOF
INSTRUMENT: 
COLLISIONENERGY: 
Comment: registered in MassBank
Num Peaks: 2
170.15649	1000
306.20691	75

NAME: 4-Coumaric acid; LC-ESI-QTOF; MS2; CE
PRECURSORMZ: 163.040068
PRECURSORTYPE: [M-H]-
FORMULA: C9H8O3
Ontology: Hydroxycinnamic acids
INCHIKEY: NGSWKAQJJWESNS-ZZXKWVIFSA-N
SMILES: OC(=O)\C=C\C1=CC=C(O)C=C1
RETENTIONTIME: 
CCS: 132.7145287
IONMODE: Negative
INSTRUMENTTYPE: LC-ESI-QTOF
INSTRUMENT: 
COLLISIONENERGY: 
Comment: registered in MassBank
Num Peaks: 4
93.0354	55
119.0495	1000
119.3241	52
163.03951	185

NAME: Rosmarinic acid; LC-ESI-QTOF; MS2; CE
PRECURSORMZ: 359.077241
PRECURSORTYPE: [M-H]-
FORMULA: C18H16O8
Ontology: Coumaric acids and derivatives
INCHIKEY: DOUMFZQKYFQNTF-WUTVXBCWSA-N
SMILES: OC(=O)[C@@H](CC1=CC(O)=C(O)C=C1)OC(=O)\C=C\C1=CC(O)=C(O)C=C1
RETENTIONTIME: 
CCS: 181.2276172
IONMODE: Negative
INSTRUMENTTYPE: LC-ESI-QTOF
INSTRUMENT: 
COLLISIONENERGY: 
Comment: registered in MassBank
Num Peaks: 9
72.9944	155
123.0454	126
132.0219	52
133.02969	306
135.0452	253
161.02431	1000
179.0356	175
197.04559	269
359.07669	185

NAME: (+)-Catechin; LC-ESI-QTOF; MS2; CE
PRECURSORMZ: 289.071762
PRECURSORTYPE: [M-H]-
FORMULA: C15H14O6
Ontology: Catechins
INCHIKEY: PFTAWBLQPZVEMU-DZGCQCFKSA-N
SMILES: O[C@H]1CC2=C(O)C=C(O)C=C2O[C@@H]1C1=CC(O)=C(O)C=C1
RETENTIONTIME: 
CCS: 167.2576758
IONMODE: Negative
INSTRUMENTTYPE: LC-ESI-QTOF
INSTRUMENT: 
COLLISIONENERGY: 
Comment: registered in MassBank
Num Peaks: 14
97.0303	122
109.0301	432
121.0298	100
123.0456	418
125.025	262
137.02521	168
151.0406	172
161.06171	92
179.0358	109
187.04111	96
203.07179	236
205.0515	194
245.08279	360
289.0712	1000

NAME: (+)-Epicatechin; LC-ESI-QTOF; MS2; CE
PRECURSORMZ: 289.071762
PRECURSORTYPE: [M-H]-
FORMULA: C15H14O6
Ontology: Catechins
INCHIKEY: PFTAWBLQPZVEMU-ZFWWWQNUSA-N
SMILES: O[C@H]1CC2=C(O)C=C(O)C=C2O[C@H]1C1=CC(O)=C(O)C=C1
RETENTIONTIME: 
CCS: 167.2576758
IONMODE: Negative
INSTRUMENTTYPE: LC-ESI-QTOF
INSTRUMENT: 
COLLISIONENERGY: 
Comment: registered in MassBank
Num Peaks: 14
97.0302	126
109.0299	466
121.0301	110
123.0456	423
125.0251	276
137.0249	179
151.0406	171
161.0616	111
179.03571	111
187.0406	90
203.07201	249
205.0519	203
245.08299	362
289.0712	1000

NAME: (-)-Epicatechin; LC-ESI-QTOF; MS2; CE
PRECURSORMZ: 289.071762
PRECURSORTYPE: [M-H]-
FORMULA: C15H14O6
Ontology: Catechins
INCHIKEY: PFTAWBLQPZVEMU-UKRRQHHQSA-N
SMILES: O[C@@H]1CC2=C(O)C=C(O)C=C2O[C@@H]1C1=CC(O)=C(O)C=C1
RETENTIONTIME: 
CCS: 167.2576758
IONMODE: Negative
INSTRUMENTTYPE: LC-ESI-QTOF
INSTRUMENT: 
COLLISIONENERGY: 
Comment: registered in MassBank
Num Peaks: 26
81.0353	56
83.015	72
93.0355	51
95.051	73
97.0299	126
109.0298	448
121.0298	108
122.0374	78
123.0455	403
125.0248	262
135.0451	51
137.0248	160
149.0249	85
151.0403	168
159.0451	70
161.0612	87
164.0119	59
165.01961	70
179.0356	107
187.041	94
188.04871	72
203.0721	251
205.052	189
221.0833	79
245.08279	364
289.0712	1000

NAME: Procyanidin B2; LC-ESI-QTOF; MS2; CE
PRECURSORMZ: 577.13515
PRECURSORTYPE: [M-H]-
FORMULA: C30H26O12
Ontology: Biflavonoids and polyflavonoids
INCHIKEY: XFZJEEAOWLFHDH-NFJBMHMQSA-N
SMILES: O[C@@H]1CC2=C(O[C@@H]1C1=CC(O)=C(O)C=C1)C([C@@H]1[C@@H](O)[C@H](OC3=CC(O)=CC(O)=C13)C1=CC(O)=C(O)C=C1)=C(O)C=C2O
RETENTIONTIME: 
CCS: 232.6141095
IONMODE: Negative
INSTRUMENTTYPE: LC-ESI-QTOF
INSTRUMENT: 
COLLISIONENERGY: 
Comment: registered in MassBank
Num Peaks: 17
109.0301	128
123.0455	108
125.0248	903
137.02499	190
151.0403	133
161.0246	289
175.0401	107
203.0726	130
205.05099	98
245.0771	180
255.0318	92
287.05801	121
289.07321	844
407.07889	784
425.0889	472
451.10361	172
577.13458	1000

NAME: Procyanidin B1; LC-ESI-QTOF; MS2; CE
PRECURSORMZ: 577.13515
PRECURSORTYPE: [M-H]-
FORMULA: C30H26O12
Ontology: Biflavonoids and polyflavonoids
INCHIKEY: XFZJEEAOWLFHDH-UKWJTHFESA-N
SMILES: O[C@H]1CC2=C(O[C@@H]1C1=CC(O)=C(O)C=C1)C([C@@H]1[C@@H](O)[C@H](OC3=CC(O)=CC(O)=C13)C1=CC(O)=C(O)C=C1)=C(O)C=C2O
RETENTIONTIME: 
CCS: 232.6141095
IONMODE: Negative
INSTRUMENTTYPE: LC-ESI-QTOF
INSTRUMENT: 
COLLISIONENERGY: 
Comment: registered in MassBank
Num Peaks: 16
109.0306	126
123.0457	100
125.025	915
137.0251	188
151.04131	124
161.02541	297
175.04131	91
203.0722	126
205.0522	106
245.08321	209
287.0585	131
289.07391	851
407.07971	751
425.09009	395
451.10571	173
577.13458	1000

NAME: NADH; LC-ESI-QTOF; MS2; CE
PRECURSORMZ: 664.117495
PRECURSORTYPE: [M-H]-
FORMULA: C21H29N7O14P2
Ontology: (5'->5')-dinucleotides
INCHIKEY: BOPGDPNILDQYTO-NNYOXOHSSA-N
SMILES: NC1=C2N=CN([C@@H]3O[C@H](COP(O)(=O)OP(O)(=O)OC[C@H]4O[C@H]([C@H](O)[C@@H]4O)N4C=CCC(=C4)C(O)=N)[C@@H](O)[C@H]3O)C2=NC=N1
RETENTIONTIME: 
CCS: 223.9454395
IONMODE: Negative
INSTRUMENTTYPE: LC-ESI-QTOF
INSTRUMENT: 
COLLISIONENERGY: 
Comment: registered in MassBank
Num Peaks: 26
78.9603	727
96.972	91
134.0497	545
158.9254	273
211.0022	182
272.96259	91
312.95551	364
346.0578	273
408.01041	91
430.00601	182
448.0127	455
463.97198	91
485.9635	545
490.0278	91
527.96503	182
540.06592	91
541.06927	364
542.0636	91
542.09088	91
557.99463	182
663.13501	91
663.47882	273
663.52698	182
663.91241	91
664.00989	1000
664.11688	636

NAME: NADH; LC-ESI-QTOF; MS2; CE
PRECURSORMZ: 664.117495
PRECURSORTYPE: [M-H]-
FORMULA: C21H29N7O14P2
Ontology: (5'->5')-dinucleotides
INCHIKEY: BOPGDPNILDQYTO-NNYOXOHSSA-N
SMILES: NC1=C2N=CN([C@@H]3O[C@H](COP(O)(=O)OP(O)(=O)OC[C@H]4O[C@H]([C@H](O)[C@@H]4O)N4C=CCC(=C4)C(O)=N)[C@@H](O)[C@H]3O)C2=NC=N1
RETENTIONTIME: 
CCS: 223.9454395
IONMODE: Negative
INSTRUMENTTYPE: LC-ESI-QTOF
INSTRUMENT: 
COLLISIONENERGY: 30
Comment: registered in MassBank
Num Peaks: 26
78.9632	500
96.9696	188
134.0517	812
158.935	188
211.0079	125
272.97241	312
273.97339	125
312.96078	375
328.06091	62
328.93521	125
346.06021	312
370.73749	125
371.73071	188
372.72409	438
373.72751	438
374.72751	312
375.72769	312
376.72809	188
377.7244	125
397.02802	125
408.03159	188
430.00641	375
448.01569	1000
485.987	375
490.0321	562
664.50708	125

NAME: Urocanic acid; LC-ESI-QTOF; MS2; CE
PRECURSORMZ: 137.035651
PRECURSORTYPE: [M-H]-
FORMULA: C6H6N2O2
Ontology: Imidazolyl carboxylic acids and derivatives
INCHIKEY: LOIYMIARKYCTBW-OWOJBTEDSA-N
SMILES: OC(=O)\C=C\C1=CN=CN1
RETENTIONTIME: 
CCS: 125.2259457
IONMODE: Negative
INSTRUMENTTYPE: LC-ESI-QTOF
INSTRUMENT: 
COLLISIONENERGY: 
Comment: registered in MassBank
Num Peaks: 2
93.0457	1000
137.0351	223

NAME: N-Acetylneuraminic acid; LC-ESI-QTOF; MS2; CE
PRECURSORMZ: 308.098705
PRECURSORTYPE: [M-H]-
FORMULA: C11H19NO9
Ontology: N-acylneuraminic acids
INCHIKEY: SQVRNKJHWKZAKO-LUWBGTNYSA-N
SMILES: CC(O)=N[C@@H]1[C@@H](O)CC(O)(O[C@H]1[C@H](O)[C@H](O)CO)C(O)=O
RETENTIONTIME: 
CCS: 165.4680518
IONMODE: Negative
INSTRUMENTTYPE: LC-ESI-QTOF
INSTRUMENT: 
COLLISIONENERGY: 
Comment: registered in MassBank
Num Peaks: 4
87.0093	1000
98.0612	177
170.04581	166
308.09821	140

NAME: 2'-Deoxyguanosine 5'-monophosphate; LC-ESI-QTOF; MS2; CE
PRECURSORMZ: 346.055808
PRECURSORTYPE: [M-H]-
FORMULA: C10H14N5O7P
Ontology: Purine 2'-deoxyribonucleoside monophosphates
INCHIKEY: LTFMZDNNPPEQNG-KVQBGUIXSA-N
SMILES: O[C@H]1C[C@@H](O[C@@H]1COP(O)(O)=O)N1C=NC2=C1NC(=N)N=C2O
RETENTIONTIME: 
CCS: 170.380721
IONMODE: Negative
INSTRUMENTTYPE: LC-ESI-QTOF
INSTRUMENT: 
COLLISIONENERGY: 
Comment: registered in MassBank
Num Peaks: 5
78.9598	1000
96.97	158
133.0154	145
150.0415	171
346.0553	416

NAME: alpha-D-(+)-mannose 1-phosphate; LC-ESI-QTOF; MS2; CE
PRECURSORMZ: 259.022442
PRECURSORTYPE: [M-H]-
FORMULA: C6H13O9P
Ontology: Monosaccharide phosphates
INCHIKEY: HXXFSFRBOHSIMQ-RWOPYEJCSA-N
SMILES: OC[C@H]1O[C@H](OP(O)(O)=O)[C@@H](O)[C@@H](O)[C@@H]1O
RETENTIONTIME: 
CCS: 146.1664715
IONMODE: Negative
INSTRUMENTTYPE: LC-ESI-QTOF
INSTRUMENT: 
COLLISIONENERGY: 
Comment: registered in MassBank
Num Peaks: 3
78.9599	774
96.9697	1000
259.02191	316

NAME: Pyridoxal 5-phosphate; LC-ESI-QTOF; MS2; CE
PRECURSORMZ: 246.017297
PRECURSORTYPE: [M-H]-
FORMULA: C8H10NO6P
Ontology: Pyridoxals and derivatives
INCHIKEY: NGVDGCNFYWLIFO-UHFFFAOYSA-N
SMILES: CC1=C(O)C(C=O)=C(COP(O)(O)=O)C=N1
RETENTIONTIME: 
CCS: 147.7236448
IONMODE: Negative
INSTRUMENTTYPE: LC-ESI-QTOF
INSTRUMENT: 
COLLISIONENERGY: 
Comment: registered in MassBank
Num Peaks: 3
78.9597	709
96.9695	1000
246.0168	133

NAME: Pyridoxal; LC-ESI-QTOF; MS2; CE
PRECURSORMZ: 166.050967
PRECURSORTYPE: [M-H]-
FORMULA: C8H9NO3
Ontology: Pyridoxals and derivatives
INCHIKEY: RADKZDMFGJYCBB-UHFFFAOYSA-N
SMILES: CC1=C(O)C(C=O)=C(CO)C=N1
RETENTIONTIME: 
CCS: 133.1469496
IONMODE: Negative
INSTRUMENTTYPE: LC-ESI-QTOF
INSTRUMENT: 
COLLISIONENERGY: 
Comment: registered in MassBank
Num Peaks: 4
108.0449	1000
136.04041	476
138.0553	881
166.0504	798

NAME: L-Saccharopine; LC-ESI-QTOF; MS2; CE
PRECURSORMZ: 275.12486
PRECURSORTYPE: [M-H]-
FORMULA: C11H20N2O6
Ontology: Glutamic acid and derivatives
INCHIKEY: ZDGJAHTZVHVLOT-YUMQZZPRSA-N
SMILES: N[C@@H](CCCCN[C@@H](CCC(O)=O)C(O)=O)C(O)=O
RETENTIONTIME: 
CCS: 163.0957109
IONMODE: Negative
INSTRUMENTTYPE: LC-ESI-QTOF
INSTRUMENT: 
COLLISIONENERGY: 
Comment: registered in MassBank
Num Peaks: 5
145.0972	192
196.0976	237
213.12309	122
257.11301	1000
275.1243	245

NAME: D-(+)-Cellotriose; LC-ESI-QTOF; MS2; CE
PRECURSORMZ: 503.161759
PRECURSORTYPE: [M-H]-
FORMULA: C18H32O16
Ontology: Oligosaccharides
INCHIKEY: FYGDTMLNYKFZSV-CSHPIKHBSA-N
SMILES: OC[C@H]1O[C@@H](O[C@H]2[C@H](O)[C@@H](O)[C@H](O[C@H]3[C@H](O)[C@@H](O)[C@H](O)O[C@@H]3CO)O[C@@H]2CO)[C@H](O)[C@@H](O)[C@@H]1O
RETENTIONTIME: 
CCS: 206.2509152
IONMODE: Negative
INSTRUMENTTYPE: LC-ESI-QTOF
INSTRUMENT: 
COLLISIONENERGY: 
Comment: registered in MassBank
Num Peaks: 23
59.0164	58
71.0165	220
73.0318	330
81.0371	35
83.0153	87
85.0315	43
87.0111	32
89.0268	96
97.0316	307
101.0265	525
113.0271	104
115.0412	61
119.038	38
125.0271	46
143.0374	145
161.0479	1000
179.05901	243
221.0714	58
263.08249	64
341.117	177
383.1283	32
425.13669	75
503.16119	38

NAME: D-Sorbitol; LC-ESI-QTOF; MS2; CE
PRECURSORMZ: 181.071762
PRECURSORTYPE: [M-H]-
FORMULA: C6H14O6
Ontology: Sugar alcohols
INCHIKEY: FBPFZTCFMRRESA-FBXFSONDNA-N
SMILES: OC[C@H](O)[C@H](O)[C@H](O)[C@H](O)CO
RETENTIONTIME: 
CCS: 132.9250301
IONMODE: Negative
INSTRUMENTTYPE: LC-ESI-QTOF
INSTRUMENT: 
COLLISIONENERGY: 
Comment: registered in MassBank
Num Peaks: 10
59.0155	134
71.0152	510
73.0307	165
85.0307	85
89.0248	234
101.0241	416
113.0243	51
119.0344	43
163.0601	54
181.0712	1000

NAME: Dulcitol; LC-ESI-QTOF; MS2; CE
PRECURSORMZ: 181.071762
PRECURSORTYPE: [M-H]-
FORMULA: C6H14O6
Ontology: Sugar alcohols
INCHIKEY: FBPFZTCFMRRESA-UHFFFAOYNA-N
SMILES: OCC(O)C(O)C(O)C(O)CO
RETENTIONTIME: 
CCS: 132.9250301
IONMODE: Negative
INSTRUMENTTYPE: LC-ESI-QTOF
INSTRUMENT: 
COLLISIONENERGY: 
Comment: registered in MassBank
Num Peaks: 12
59.0154	125
71.0147	423
73.0311	89
83.0157	62
85.0301	102
89.0254	207
101.0245	689
113.0233	46
119.0354	79
131.0336	33
163.0616	115
181.0712	1000

NAME: Maltitol; LC-ESI-QTOF; MS2; CE
PRECURSORMZ: 343.124585
PRECURSORTYPE: [M-H]-
FORMULA: C12H24O11
Ontology: Fatty acyl glycosides of mono- and disaccharides
INCHIKEY: VQHSOMBJVWLPSR-WUJBLJFYSA-N
SMILES: OC[C@H](O)[C@@H](O)[C@H](O[C@H]1O[C@H](CO)[C@@H](O)[C@H](O)[C@H]1O)[C@H](O)CO
RETENTIONTIME: 
CCS: 180.1812634
IONMODE: Negative
INSTRUMENTTYPE: LC-ESI-QTOF
INSTRUMENT: 
COLLISIONENERGY: 
Comment: registered in MassBank
Num Peaks: 11
59.0154	492
71.015	800
85.0299	121
89.0247	748
101.0247	695
113.0245	359
119.0352	293
143.0341	102
161.04559	143
179.0564	576
343.12411	1000

NAME: Maltotriose; LC-ESI-QTOF; MS2; CE
PRECURSORMZ: 503.161759
PRECURSORTYPE: [M-H]-
FORMULA: C18H32O16
Ontology: Oligosaccharides
INCHIKEY: FYGDTMLNYKFZSV-DZOUCCHMSA-N
SMILES: OC[C@H]1O[C@H](O[C@H]2[C@H](O)[C@@H](O)[C@@H](O[C@H]3[C@H](O)[C@@H](O)C(O)O[C@@H]3CO)O[C@@H]2CO)[C@H](O)[C@@H](O)[C@@H]1O
RETENTIONTIME: 
CCS: 206.2509152
IONMODE: Negative
INSTRUMENTTYPE: LC-ESI-QTOF
INSTRUMENT: 
COLLISIONENERGY: 
Comment: registered in MassBank
Num Peaks: 25
59.0151	142
71.0147	342
73.0301	352
81.0348	41
83.0136	87
85.0297	55
87.0095	32
89.0244	192
97.0291	269
101.0241	658
113.0235	160
115.0373	68
119.034	68
125.0232	55
131.033	50
143.0343	146
161.04469	1000
179.0545	411
221.0663	320
263.07611	87
281.08469	105
341.10809	187
383.1171	215
425.12531	87
503.16119	37

NAME: Homogentisic acid; LC-ESI-QTOF; MS2; CE
PRECURSORMZ: 167.034982
PRECURSORTYPE: [M-H]-
FORMULA: C8H8O4
Ontology: 2(hydroxyphenyl)acetic acids
INCHIKEY: IGMNYECMUMZDDF-UHFFFAOYSA-N
SMILES: OC(=O)CC1=CC(O)=CC=C1O
RETENTIONTIME: 
CCS: 131.2560352
IONMODE: Negative
INSTRUMENTTYPE: LC-ESI-QTOF
INSTRUMENT: 
COLLISIONENERGY: 
Comment: registered in MassBank
Num Peaks: 4
108.0212	196
122.0368	590
123.0444	1000
167.0345	90

NAME: D-Gluconic acid; LC-ESI-QTOF; MS2; CE
PRECURSORMZ: 195.051026
PRECURSORTYPE: [M-H]-
FORMULA: C6H12O7
Ontology: Medium-chain hydroxy acids and derivatives
INCHIKEY: RGHNJXZEOKUKBD-UHFFFAOYNA-N
SMILES: OCC(O)C(O)C(O)C(O)C(O)=O
RETENTIONTIME: 
CCS: 134.0914505
IONMODE: Negative
INSTRUMENTTYPE: LC-ESI-QTOF
INSTRUMENT: 
COLLISIONENERGY: 
Comment: registered in MassBank
Num Peaks: 9
59.0153	68
71.0149	82
75.0096	774
85.0304	79
87.0081	151
99.0085	247
129.0188	541
177.04041	48
195.05051	1000

NAME: DL-Glyceraldehyde 3-phosphate; LC-ESI-QTOF; MS2; CE
PRECURSORMZ: 168.990748
PRECURSORTYPE: [M-H]-
FORMULA: C3H7O6P
Ontology: Glyceraldehyde-3-phosphates
INCHIKEY: LXJXRIRHZLFYRP-UHFFFAOYNA-N
SMILES: OC(COP(O)(O)=O)C=O
RETENTIONTIME: 
CCS: 128.9782361
IONMODE: Negative
INSTRUMENTTYPE: LC-ESI-QTOF
INSTRUMENT: 
COLLISIONENERGY: 
Comment: registered in MassBank
Num Peaks: 15
78.96	642
79.3471	11
96.8608	11
96.9364	11
96.9696	1000
97.0702	11
97.145	11
97.4832	11
97.8412	11
97.9124	11
98.0524	11
98.1009	11
98.9025	11
150.983	53
168.9902	11

NAME: UDP-beta-L-rhamnose; LC-ESI-QTOF; MS2; CE
PRECURSORMZ: 549.052829
PRECURSORTYPE: [M-H]-
FORMULA: C15H24N2O16P2
Ontology: Pyrimidine nucleotide sugars
INCHIKEY: DRDCJEIZVLVWNC-SLBWPEPYSA-N
SMILES: C[C@@H]1O[C@H](OP(O)(=O)OP(O)(=O)OC[C@H]2O[C@H]([C@H](O)[C@@H]2O)N2C=CC(O)=NC2=O)[C@H](O)[C@H](O)[C@H]1O
RETENTIONTIME: 
CCS: 205.7687204
IONMODE: Negative
INSTRUMENTTYPE: LC-ESI-QTOF
INSTRUMENT: 
COLLISIONENERGY: 
Comment: registered in MassBank
Num Peaks: 14
78.9601	504
96.97	143
111.02	200
158.9256	500
174.9791	30
176.93649	34
211	28
225.01759	24
272.95749	165
305.00351	103
323.0289	204
384.98459	185
402.99481	335
549.05231	1000

NAME: UDP-xylose; LC-ESI-QTOF; MS2; CE
PRECURSORMZ: 535.037179
PRECURSORTYPE: [M-H]-
FORMULA: C14H22N2O16P2
Ontology: Pyrimidine ribonucleoside diphosphates
INCHIKEY: DQQDLYVHOTZLOR-OCIMBMBZSA-N
SMILES: O[C@@H]1[C@@H](COP(O)(=O)OP(O)(=O)O[C@H]2OC[C@@H](O)[C@H](O)[C@H]2O)O[C@H]([C@@H]1O)N1C=CC(O)=NC1=O
RETENTIONTIME: 
CCS: 200.6079997
IONMODE: Negative
INSTRUMENTTYPE: LC-ESI-QTOF
INSTRUMENT: 
COLLISIONENERGY: 
Comment: registered in MassBank
Num Peaks: 16
78.9604	725
96.9706	464
111.0208	123
138.9814	53
150.981	52
158.92641	224
174.98109	22
192.99181	32
211.0032	196
272.95831	93
280.02499	55
290.96951	59
305.02139	29
323.03009	1000
384.9874	91
535.03668	795

NAME: (S)-3-Amino-5-methylhexanoic acid; LC-ESI-QTOF; MS2; CE
PRECURSORMZ: 144.103002
PRECURSORTYPE: [M-H]-
FORMULA: C7H15NO2
Ontology: Beta amino acids and derivatives
INCHIKEY: MLYMSIKVLAPCAK-LURJTMIESA-N
SMILES: CC(C)C[C@H](N)CC(O)=O
RETENTIONTIME: 
CCS: 134.6529533
IONMODE: Negative
INSTRUMENTTYPE: LC-ESI-QTOF
INSTRUMENT: 
COLLISIONENERGY: 
Comment: registered in MassBank
Num Peaks: 2
143.8994	231
144.10249	1000

NAME: (3S)-3,7-diaminoheptanoic acid; LC-ESI-QTOF; MS2; CE
PRECURSORMZ: 159.113901
PRECURSORTYPE: [M-H]-
FORMULA: C7H16N2O2
Ontology: Beta amino acids and derivatives
INCHIKEY: PJDINCOFOROBQW-LURJTMIESA-N
SMILES: NCCCC[C@H](N)CC(O)=O
RETENTIONTIME: 
CCS: 141.3366373
IONMODE: Negative
INSTRUMENTTYPE: LC-ESI-QTOF
INSTRUMENT: 
COLLISIONENERGY: 
Comment: registered in MassBank
Num Peaks: 3
141.8911	430
158.8933	1000
159.1134	366

NAME: R-3-Amino-5-(methylthio)pentanoic acid; LC-ESI-QTOF; MS2; CE
PRECURSORMZ: 162.059423
PRECURSORTYPE: [M-H]-
FORMULA: C6H13NO2S
Ontology: Beta amino acids and derivatives
INCHIKEY: QWVNCDVONVDGDV-YFKPBYRVSA-N
SMILES: CSCC[C@H](N)CC(O)=O
RETENTIONTIME: 
CCS: 135.8673343
IONMODE: Negative
INSTRUMENTTYPE: LC-ESI-QTOF
INSTRUMENT: 
COLLISIONENERGY: 
Comment: registered in MassBank
Num Peaks: 6
70.067	52
114.0547	405
144.89	388
145.892	86
161.8925	1000
162.0589	207

NAME: (R)-3-Amino-4-phenylbutyric acid; LC-ESI-QTOF; MS2; CE
PRECURSORMZ: 178.087352
PRECURSORTYPE: [M-H]-
FORMULA: C10H13NO2
Ontology: Beta amino acids and derivatives
INCHIKEY: OFVBLKINTLPEGH-SECBINFHSA-N
SMILES: N[C@@H](CC(O)=O)CC1=CC=CC=C1
RETENTIONTIME: 
CCS: 144.8999959
IONMODE: Negative
INSTRUMENTTYPE: LC-ESI-QTOF
INSTRUMENT: 
COLLISIONENERGY: 
Comment: registered in MassBank
Num Peaks: 5
86.0257	73
91.0554	280
117.0706	1000
177.86011	293
178.08681	598

NAME: (R)-3-Amino-4-hydroxybutyric acid; LC-ESI-QTOF; MS2; CE
PRECURSORMZ: 118.050967
PRECURSORTYPE: [M-H]-
FORMULA: C4H9NO3
Ontology: Beta amino acids and derivatives
INCHIKEY: BUZICZZQJDLXJN-GSVOUGTGSA-N
SMILES: N[C@@H](CO)CC(O)=O
RETENTIONTIME: 
CCS: 120.815367
IONMODE: Negative
INSTRUMENTTYPE: LC-ESI-QTOF
INSTRUMENT: 
COLLISIONENERGY: 
Comment: registered in MassBank
Num Peaks: 5
72.0478	120
74.0623	80
83.0161	120
100.0414	360
118.0504	1000

NAME: (S)-3-Amino-4-hydroxybutyric acid; LC-ESI-QTOF; MS2; CE
PRECURSORMZ: 118.050967
PRECURSORTYPE: [M-H]-
FORMULA: C4H9NO3
Ontology: Beta amino acids and derivatives
INCHIKEY: BUZICZZQJDLXJN-VKHMYHEASA-N
SMILES: N[C@H](CO)CC(O)=O
RETENTIONTIME: 
CCS: 120.815367
IONMODE: Negative
INSTRUMENTTYPE: LC-ESI-QTOF
INSTRUMENT: 
COLLISIONENERGY: 
Comment: registered in MassBank
Num Peaks: 5
72.0472	109
74.0601	109
83.0148	87
100.0403	217
118.0504	1000

NAME: L-beta-Homotryptophan; LC-ESI-QTOF; MS2; CE
PRECURSORMZ: 217.098251
PRECURSORTYPE: [M-H]-
FORMULA: C12H14N2O2
Ontology: Beta amino acids and derivatives
INCHIKEY: OLOLDOZZXCENAN-VIFPVBQESA-N
SMILES: N[C@H](CC(O)=O)CC1=CC2=CC=CC=C2N1
RETENTIONTIME: 
CCS: -1
IONMODE: Negative
INSTRUMENTTYPE: LC-ESI-QTOF
INSTRUMENT: 
COLLISIONENERGY: 
Comment: registered in MassBank
Num Peaks: 4
156.08189	1000
157.07671	265
200.0708	144
217.0977	841

NAME: L-beta-Homotyrosine; LC-ESI-QTOF; MS2; CE
PRECURSORMZ: 194.082267
PRECURSORTYPE: [M-H]-
FORMULA: C10H13NO3
Ontology: Beta amino acids and derivatives
INCHIKEY: VUNPIAMEJXBAFP-MRVPVSSYSA-N
SMILES: N[C@@H](CC(O)=O)CC1=CC=C(O)C=C1
RETENTIONTIME: 
CCS: -1
IONMODE: Negative
INSTRUMENTTYPE: LC-ESI-QTOF
INSTRUMENT: 
COLLISIONENERGY: 
Comment: registered in MassBank
Num Peaks: 3
133.0657	1000
134.06171	131
194.0817	921

NAME: L-beta-Homovaline; LC-ESI-QTOF; MS2; CE
PRECURSORMZ: 130.087352
PRECURSORTYPE: [M-H]-
FORMULA: C6H13NO2
Ontology: Beta amino acids and derivatives
INCHIKEY: GLUJNGJDHCTUJY-RXMQYKEDSA-N
SMILES: CC(C)[C@H](N)CC(O)=O
RETENTIONTIME: 
CCS: 129.9382285
IONMODE: Negative
INSTRUMENTTYPE: LC-ESI-QTOF
INSTRUMENT: 
COLLISIONENERGY: 
Comment: registered in MassBank
Num Peaks: 3
59.0152	19
129.87019	57
130.08681	1000

NAME: L-beta-Homothreonine; LC-ESI-QTOF; MS2; CE
PRECURSORMZ: 132.066617
PRECURSORTYPE: [M-H]-
FORMULA: C5H11NO3
Ontology: Beta amino acids and derivatives
INCHIKEY: NIVRJEWVLMOZNV-QWWZWVQMSA-N
SMILES: C[C@@H](O)[C@H](N)CC(O)=O
RETENTIONTIME: 
CCS: -1
IONMODE: Negative
INSTRUMENTTYPE: LC-ESI-QTOF
INSTRUMENT: 
COLLISIONENERGY: 
Comment: registered in MassBank
Num Peaks: 4
71.0513	115
86.0615	212
114.0553	168
132.0661	1000

NAME: Pyridoxal 5-phosphate; LC-ESI-QTOF; MS2; CE
PRECURSORMZ: 246.017297
PRECURSORTYPE: [M-H]-
FORMULA: C8H10NO6P
Ontology: Pyridoxals and derivatives
INCHIKEY: NGVDGCNFYWLIFO-UHFFFAOYSA-N
SMILES: CC1=C(O)C(C=O)=C(COP(O)(O)=O)C=N1
RETENTIONTIME: 
CCS: 147.7236448
IONMODE: Negative
INSTRUMENTTYPE: LC-ESI-QTOF
INSTRUMENT: 
COLLISIONENERGY: 
Comment: registered in MassBank
Num Peaks: 3
78.96	691
96.9697	1000
246.0168	118

NAME: Phosphoenolpyruvic acid; LC-ESI-QTOF; MS2; CE
PRECURSORMZ: 166.975098
PRECURSORTYPE: [M-H]-
FORMULA: C3H5O6P
Ontology: Phosphate esters
INCHIKEY: DTBNBXWJWCWCIK-UHFFFAOYSA-N
SMILES: OC(=O)C(=C)OP(O)(O)=O
RETENTIONTIME: 
CCS: 126.7752318
IONMODE: Negative
INSTRUMENTTYPE: LC-ESI-QTOF
INSTRUMENT: 
COLLISIONENERGY: 
Comment: registered in MassBank
Num Peaks: 3
78.9339	1000
148.9588	53
166.97459	53

NAME: L-Homoserine; LC-ESI-QTOF; MS2; CE
PRECURSORMZ: 118.050967
PRECURSORTYPE: [M-H]-
FORMULA: C4H9NO3
Ontology: L-alpha-amino acids
INCHIKEY: UKAUYVFTDYCKQA-VKHMYHEASA-N
SMILES: N[C@@H](CCO)C(O)=O
RETENTIONTIME: 
CCS: 122.1664861
IONMODE: Negative
INSTRUMENTTYPE: LC-ESI-QTOF
INSTRUMENT: 
COLLISIONENERGY: 
Comment: registered in MassBank
Num Peaks: 5
72.047	93
99.0064	133
100.0401	587
116.0372	40
118.0504	1000

NAME: D-(-)-Quinic acid; LC-ESI-QTOF; MS2; CE
PRECURSORMZ: 191.056112
PRECURSORTYPE: [M-H]-
FORMULA: C7H12O6
Ontology: Quinic acids and derivatives
INCHIKEY: AAWZDTNXLSGCEK-WYWMIBKRSA-N
SMILES: O[C@@H]1C[C@@](O)(C[C@@H](O)[C@H]1O)C(O)=O
RETENTIONTIME: 
CCS: 136.0426542
IONMODE: Negative
INSTRUMENTTYPE: LC-ESI-QTOF
INSTRUMENT: 
COLLISIONENERGY: 
Comment: registered in MassBank
Num Peaks: 3
85.0301	263
93.0353	93
191.0556	1000

NAME: D-(+)-Pantothenic acid; LC-ESI-QTOF; MS2; CE
PRECURSORMZ: 218.103396
PRECURSORTYPE: [M-H]-
FORMULA: C9H17NO5
Ontology: Secondary alcohols
INCHIKEY: GHOKWGTUZJEAQD-ZETCQYMHSA-N
SMILES: CC(C)(CO)[C@@H](O)C(O)=NCCC(O)=O
RETENTIONTIME: 
CCS: 149.1912323
IONMODE: Negative
INSTRUMENTTYPE: LC-ESI-QTOF
INSTRUMENT: 
COLLISIONENERGY: 
Comment: registered in MassBank
Num Peaks: 6
71.0153	94
71.0514	275
88.041	1000
99.0458	95
146.0824	626
218.10291	519

NAME: L-2-Aminoadipic acid; LC-ESI-QTOF; MS2; CE
PRECURSORMZ: 160.061531
PRECURSORTYPE: [M-H]-
FORMULA: C6H11NO4
Ontology: L-alpha-amino acids
INCHIKEY: OYIFNHCXNCRBQI-BYPYZUCNSA-N
SMILES: N[C@@H](CCCC(O)=O)C(O)=O
RETENTIONTIME: 
CCS: 130.9736797
IONMODE: Negative
INSTRUMENTTYPE: LC-ESI-QTOF
INSTRUMENT: 
COLLISIONENERGY: 
Comment: registered in MassBank
Num Peaks: 4
98.0598	216
116.0714	818
142.05051	670
160.061	1000

NAME: 6-Hydroxynicotinic acid; LC-ESI-QTOF; MS2; CE
PRECURSORMZ: 138.019667
PRECURSORTYPE: [M-H]-
FORMULA: C6H5NO3
Ontology: Pyridinecarboxylic acids
INCHIKEY: BLHCMGRVFXRYRN-UHFFFAOYSA-N
SMILES: OC(=O)C1=CN=C(O)C=C1
RETENTIONTIME: 
CCS: 124.2606964
IONMODE: Negative
INSTRUMENTTYPE: LC-ESI-QTOF
INSTRUMENT: 
COLLISIONENERGY: 
Comment: registered in MassBank
Num Peaks: 2
94.0297	1000
138.0191	188

NAME: Xanthosine; LC-ESI-QTOF; MS2; CE
PRECURSORMZ: 283.068408
PRECURSORTYPE: [M-H]-
FORMULA: C10H12N4O6
Ontology: Purine nucleosides
INCHIKEY: UBORTCNDUKBEOP-UUOKFMHZSA-N
SMILES: OC[C@H]1O[C@H]([C@H](O)[C@@H]1O)N1C=NC2=C1N=C(O)N=C2O
RETENTIONTIME: 
CCS: 160.642472
IONMODE: Negative
INSTRUMENTTYPE: LC-ESI-QTOF
INSTRUMENT: 
COLLISIONENERGY: 
Comment: registered in MassBank
Num Peaks: 3
108.0208	243
151.0257	1000
283.0679	223

NAME: (S)-(+)-Citramailc acid; LC-ESI-QTOF; MS2; CE
PRECURSORMZ: 147.029897
PRECURSORTYPE: [M-H]-
FORMULA: C5H8O5
Ontology: Hydroxy fatty acids
INCHIKEY: XFTRTWQBIOMVPK-YFKPBYRVSA-N
SMILES: C[C@](O)(CC(O)=O)C(O)=O
RETENTIONTIME: 
CCS: 126.5102502
IONMODE: Negative
INSTRUMENTTYPE: LC-ESI-QTOF
INSTRUMENT: 
COLLISIONENERGY: 
Comment: registered in MassBank
Num Peaks: 5
85.0298	505
87.0092	888
129.01891	178
146.89841	393
147.0294	1000

NAME: L-(+)-Arginine; LC-ESI-QTOF; MS2; CE
PRECURSORMZ: 173.104399
PRECURSORTYPE: [M-H]-
FORMULA: C6H14N4O2
Ontology: L-alpha-amino acids
INCHIKEY: ODKSFYDXXFIFQN-BYPYZUCNSA-N
SMILES: N[C@@H](CCCNC(N)=N)C(O)=O
RETENTIONTIME: 
CCS: 135.8360956
IONMODE: Negative
INSTRUMENTTYPE: LC-ESI-QTOF
INSTRUMENT: 
COLLISIONENERGY: 
Comment: registered in MassBank
Num Peaks: 2
131.08231	1000
173.1039	167

NAME: cis-Aconitic acid; LC-ESI-QTOF; MS2; CE
PRECURSORMZ: 173.009161
PRECURSORTYPE: [M-H]-
FORMULA: C6H6O6
Ontology: Tricarboxylic acids and derivatives
INCHIKEY: GTZCVFVGUGFEME-IWQZZHSRSA-N
SMILES: OC(=O)C\C(=C\C(O)=O)C(O)=O
RETENTIONTIME: 
CCS: 129.6078048
IONMODE: Negative
INSTRUMENTTYPE: LC-ESI-QTOF
INSTRUMENT: 
COLLISIONENERGY: 
Comment: registered in MassBank
Num Peaks: 4
85.0295	1000
111.0084	95
129.01781	262
173.00861	71

NAME: N-alpha-Acetyl-L-ornithine; LC-ESI-QTOF; MS2; CE
PRECURSORMZ: 173.093166
PRECURSORTYPE: [M-H]-
FORMULA: C7H14N2O3
Ontology: N-acyl-L-alpha-amino acids
INCHIKEY: JRLGPAXAGHMNOL-LURJTMIESA-N
SMILES: CC(O)=N[C@@H](CCCN)C(O)=O
RETENTIONTIME: 
CCS: 135.7744143
IONMODE: Negative
INSTRUMENTTYPE: LC-ESI-QTOF
INSTRUMENT: 
COLLISIONENERGY: 
Comment: registered in MassBank
Num Peaks: 3
129.1039	88
131.0826	1000
173.09261	342

NAME: 5-Aminoimidazole-4-carboxamide-1-beta-D-ribofuranosyl 5'-monophosphate; LC-ESI-QTOF; MS2; CE
PRECURSORMZ: 337.055474
PRECURSORTYPE: [M-H]-
FORMULA: C9H15N4O8P
Ontology: 1-ribosyl-imidazolecarboxamides
INCHIKEY: NOTGFIUVDGNKRI-UUOKFMHZSA-N
SMILES: NC1=C(N=CN1[C@@H]1O[C@H](COP(O)(O)=O)[C@@H](O)[C@H]1O)C(O)=N
RETENTIONTIME: 
CCS: 167.8484093
IONMODE: Negative
INSTRUMENTTYPE: LC-ESI-QTOF
INSTRUMENT: 
COLLISIONENERGY: 
Comment: registered in MassBank
Num Peaks: 4
78.9601	1000
96.9702	451
125.0471	206
337.05499	672

NAME: Cholic acid; LC-ESI-QTOF; MS2; CE
PRECURSORMZ: 407.280298
PRECURSORTYPE: [M-H]-
FORMULA: C24H40O5
Ontology: Trihydroxy bile acids, alcohols and derivatives
INCHIKEY: BHQCQFFYRZLCQQ-OELDTZBJSA-N
SMILES: C[C@H](CCC(O)=O)[C@H]1CC[C@H]2[C@@H]3[C@H](O)C[C@@H]4C[C@H](O)CC[C@]4(C)[C@H]3C[C@H](O)[C@]12C
RETENTIONTIME: 
CCS: 200.9470873
IONMODE: Negative
INSTRUMENTTYPE: LC-ESI-QTOF
INSTRUMENT: 
COLLISIONENERGY: 
Comment: registered in MassBank
Num Peaks: 4
289.22061	64
343.2677	95
345.28409	62
407.27979	1000

NAME: Cholic acid; LC-ESI-QTOF; MS2; CE
PRECURSORMZ: 407.280298
PRECURSORTYPE: [M-H]-
FORMULA: C24H40O5
Ontology: Trihydroxy bile acids, alcohols and derivatives
INCHIKEY: BHQCQFFYRZLCQQ-OELDTZBJSA-N
SMILES: C[C@H](CCC(O)=O)[C@H]1CC[C@H]2[C@@H]3[C@H](O)C[C@@H]4C[C@H](O)CC[C@]4(C)[C@H]3C[C@H](O)[C@]12C
RETENTIONTIME: 
CCS: 200.9470873
IONMODE: Negative
INSTRUMENTTYPE: LC-ESI-QTOF
INSTRUMENT: 
COLLISIONENERGY: 30
Comment: registered in MassBank
Num Peaks: 11
69.0355	51
95.0505	61
251.2012	78
289.21741	214
325.2532	105
327.2692	61
341.24939	64
343.2645	404
345.28049	185
353.24869	66
407.27979	1000

NAME: Cytidine-3'-monophosphate; LC-ESI-QTOF; MS2; CE
PRECURSORMZ: 322.044575
PRECURSORTYPE: [M-H]-
FORMULA: C9H14N3O8P
Ontology: Ribonucleoside 3'-phosphates
INCHIKEY: UOOOPKANIPLQPU-XVFCMESISA-N
SMILES: OC[C@H]1O[C@H]([C@H](O)[C@@H]1OP(O)(O)=O)N1C=CC(=N)N=C1O
RETENTIONTIME: 
CCS: 163.8653628
IONMODE: Negative
INSTRUMENTTYPE: LC-ESI-QTOF
INSTRUMENT: 
COLLISIONENERGY: 
Comment: registered in MassBank
Num Peaks: 5
78.9601	1000
96.9702	283
110.0364	135
211.00079	719
322.04401	481

NAME: NADH; LC-ESI-QTOF; MS2; CE
PRECURSORMZ: 664.117495
PRECURSORTYPE: [M-H]-
FORMULA: C21H29N7O14P2
Ontology: (5'->5')-dinucleotides
INCHIKEY: BOPGDPNILDQYTO-NNYOXOHSSA-N
SMILES: NC1=C2N=CN([C@@H]3O[C@H](COP(O)(=O)OP(O)(=O)OC[C@H]4O[C@H]([C@H](O)[C@@H]4O)N4C=CCC(=C4)C(O)=N)[C@@H](O)[C@H]3O)C2=NC=N1
RETENTIONTIME: 
CCS: 223.9454395
IONMODE: Negative
INSTRUMENTTYPE: LC-ESI-QTOF
INSTRUMENT: 
COLLISIONENERGY: 
Comment: registered in MassBank
Num Peaks: 9
78.9608	529
96.9689	147
134.0502	206
158.9281	265
272.9574	206
408.01779	147
541.05109	176
542.05798	176
664.11688	1000

NAME: NADH; LC-ESI-QTOF; MS2; CE
PRECURSORMZ: 664.117495
PRECURSORTYPE: [M-H]-
FORMULA: C21H29N7O14P2
Ontology: (5'->5')-dinucleotides
INCHIKEY: BOPGDPNILDQYTO-NNYOXOHSSA-N
SMILES: NC1=C2N=CN([C@@H]3O[C@H](COP(O)(=O)OP(O)(=O)OC[C@H]4O[C@H]([C@H](O)[C@@H]4O)N4C=CCC(=C4)C(O)=N)[C@@H](O)[C@H]3O)C2=NC=N1
RETENTIONTIME: 
CCS: 223.9454395
IONMODE: Negative
INSTRUMENTTYPE: LC-ESI-QTOF
INSTRUMENT: 
COLLISIONENERGY: 30
Comment: registered in MassBank
Num Peaks: 14
78.9607	889
96.9711	278
134.0475	333
158.92551	556
272.9584	1000
328.04959	556
329.048	278
346.05801	444
397.02841	611
408.0141	500
409.0188	111
426.02579	111
427.02301	167
664.11688	333

NAME: 2'-Deoxyguanosine 5'-diphosphate; LC-ESI-QTOF; MS2; CE
PRECURSORMZ: 426.022138
PRECURSORTYPE: [M-H]-
FORMULA: C10H15N5O10P2
Ontology: Purine 2'-deoxyribonucleoside diphosphates
INCHIKEY: CIKGWCTVFSRMJU-KVQBGUIXSA-N
SMILES: O[C@H]1C[C@@H](O[C@@H]1COP(O)(=O)OP(O)(O)=O)N1C=NC2=C1NC(=N)N=C2O
RETENTIONTIME: 
CCS: 180.3847188
IONMODE: Negative
INSTRUMENTTYPE: LC-ESI-QTOF
INSTRUMENT: 
COLLISIONENERGY: 
Comment: registered in MassBank
Num Peaks: 3
78.9603	1000
158.92661	760
426.02161	900

NAME: 5'-S-Methylthioadenosine; LC-ESI-QTOF; MS2; CE
PRECURSORMZ: 296.082284
PRECURSORTYPE: [M-H]-
FORMULA: C11H15N5O3S
Ontology: 5'-deoxy-5'-thionucleosides
INCHIKEY: WUUGFSXJNOTRMR-IOSLPCCCSA-N
SMILES: CSC[C@H]1O[C@H]([C@H](O)[C@@H]1O)N1C=NC2=C(N)N=CN=C12
RETENTIONTIME: 
CCS: 165.6018605
IONMODE: Negative
INSTRUMENTTYPE: LC-ESI-QTOF
INSTRUMENT: 
COLLISIONENERGY: 
Comment: registered in MassBank
Num Peaks: 3
107.036	106
134.0463	1000
296.08179	133

NAME: Formononetin; LC-ESI-QTOF; MS2; CE
PRECURSORMZ: 267.066282
PRECURSORTYPE: [M-H]-
FORMULA: C16H12O4
Ontology: 4'-O-methylisoflavones
INCHIKEY: HKQYGTCOTHHOMP-UHFFFAOYSA-N
SMILES: COC1=CC=C(C=C1)C1=COC2=C(C=CC(O)=C2)C1=O
RETENTIONTIME: 
CCS: 164.0950615
IONMODE: Negative
INSTRUMENTTYPE: LC-ESI-QTOF
INSTRUMENT: 
COLLISIONENERGY: 
Comment: registered in MassBank
Num Peaks: 8
91.0193	125
132.02209	164
135.0092	92
195.04581	343
223.04089	408
251.0359	229
252.0432	1000
267.0658	926

NAME: 2-Isopropylmalic acid; LC-ESI-QTOF; MS2; CE
PRECURSORMZ: 175.061197
PRECURSORTYPE: [M-H]-
FORMULA: C7H12O5
Ontology: Hydroxy fatty acids
INCHIKEY: BITYXLXUCSKTJS-UHFFFAOYNA-N
SMILES: CC(C)C(O)(CC(O)=O)C(O)=O
RETENTIONTIME: 
CCS: 134.540677
IONMODE: Negative
INSTRUMENTTYPE: LC-ESI-QTOF
INSTRUMENT: 
COLLISIONENERGY: 
Comment: registered in MassBank
Num Peaks: 6
85.0663	431
113.0605	394
115.0399	1000
131.07179	85
157.05099	96
175.0607	907

NAME: S-Lactoylglutathione; LC-ESI-QTOF; MS2; CE
PRECURSORMZ: 378.097659
PRECURSORTYPE: [M-H]-
FORMULA: C13H21N3O8S
Ontology: Oligopeptides
INCHIKEY: VDYDCVUWILIYQF-CSMHCCOUSA-N
SMILES: C[C@@H](O)C(=O)SC[C@H](N=C(O)CC[C@H](N)C(O)=O)C(O)=NCC(O)=O
RETENTIONTIME: 
CCS: 180.6728978
IONMODE: Negative
INSTRUMENTTYPE: LC-ESI-QTOF
INSTRUMENT: 
COLLISIONENERGY: 
Comment: registered in MassBank
Num Peaks: 19
74.0255	162
89.0253	142
99.0555	254
125.036	264
127.0506	147
128.0354	736
143.0453	619
146.0461	299
160.0063	188
171.0399	173
179.0459	157
210.09	132
215.0667	193
249.05589	198
254.0795	213
272.0885	365
306.07639	401
344.11179	162
378.09711	1000

NAME: L-allo-Threonine; LC-ESI-QTOF; MS2; CE
PRECURSORMZ: 118.050967
PRECURSORTYPE: [M-H]-
FORMULA: C4H9NO3
Ontology: L-alpha-amino acids
INCHIKEY: AYFVYJQAPQTCCC-HRFVKAFMSA-N
SMILES: C[C@H](O)[C@H](N)C(O)=O
RETENTIONTIME: 
CCS: 121.9256951
IONMODE: Negative
INSTRUMENTTYPE: LC-ESI-QTOF
INSTRUMENT: 
COLLISIONENERGY: 
Comment: registered in MassBank
Num Peaks: 2
74.0254	1000
118.0504	600

NAME: Methyl Jasmonic acid; LC-ESI-QTOF; MS2; CE
PRECURSORMZ: 223.133968
PRECURSORTYPE: [M-H]-
FORMULA: C13H20O3
Ontology: Jasmonic acids
INCHIKEY: GEWDNTWNSAZUDX-WQMVXFAESA-N
SMILES: CC\C=C/C[C@@H]1[C@@H](CC(=O)OC)CCC1=O
RETENTIONTIME: 
CCS: 157.653198
IONMODE: Negative
INSTRUMENTTYPE: LC-ESI-QTOF
INSTRUMENT: 
COLLISIONENERGY: 
Comment: registered in MassBank
Num Peaks: 4
74.9733	237
148.9725	199
206.94679	66
222.97301	1000

NAME: Methyl Jasmonic acid; LC-ESI-QTOF; MS2; CE
PRECURSORMZ: 223.133968
PRECURSORTYPE: [M-H]-
FORMULA: C13H20O3
Ontology: Jasmonic acids
INCHIKEY: GEWDNTWNSAZUDX-WQMVXFAESA-N
SMILES: CC\C=C/C[C@@H]1[C@@H](CC(=O)OC)CCC1=O
RETENTIONTIME: 
CCS: 157.653198
IONMODE: Negative
INSTRUMENTTYPE: LC-ESI-QTOF
INSTRUMENT: 
COLLISIONENERGY: 30
Comment: registered in MassBank
Num Peaks: 8
75.0096	974
133.0103	56
134.99071	90
149.0448	1000
151.026	77
162.93269	99
207.04581	107
223.0833	64

NAME: 4-Nitrophenyl phosphate; LC-ESI-QTOF; MS2; CE
PRECURSORMZ: 217.985997
PRECURSORTYPE: [M-H]-
FORMULA: C6H6NO6P
Ontology: Phenyl phosphates
INCHIKEY: XZKIHKMTEMTJQX-UHFFFAOYSA-N
SMILES: OP(O)(=O)OC1=CC=C(C=C1)N(=O)=O
RETENTIONTIME: 
CCS: 137.9125002
IONMODE: Negative
INSTRUMENTTYPE: LC-ESI-QTOF
INSTRUMENT: 
COLLISIONENERGY: 
Comment: registered in MassBank
Num Peaks: 2
78.9598	1000
217.9855	62

NAME: Cytidine 5'-diphosphocholine; LC-ESI-QTOF; MS2; CE
PRECURSORMZ: 487.100054
PRECURSORTYPE: [M-H]-
FORMULA: C14H26N4O11P2
Ontology: Pyrimidine ribonucleoside diphosphates
INCHIKEY: RZZPDXZPRHQOCG-OJAKKHQRSA-N
SMILES: C[N+](C)(C)CCOP(O)(=O)OP([O-])(=O)OC[C@H]1O[C@H]([C@H](O)[C@@H]1O)N1C=CC(=N)N=C1O
RETENTIONTIME: 
CCS: 204.5566326
IONMODE: Negative
INSTRUMENTTYPE: LC-ESI-QTOF
INSTRUMENT: 
COLLISIONENERGY: 
Comment: registered in MassBank
Num Peaks: 9
78.9601	654
96.9694	219
110.0364	318
110.9858	116
122.9852	254
304.03531	563
336.06311	183
428.0274	1000
487.09949	198

NAME: Cytidine 5'-monophosphate; LC-ESI-QTOF; MS2; CE
PRECURSORMZ: 322.044575
PRECURSORTYPE: [M-H]-
FORMULA: C9H14N3O8P
Ontology: Pyrimidine ribonucleoside monophosphates
INCHIKEY: IERHLVCPSMICTF-XVFCMESISA-N
SMILES: O[C@H]1[C@@H](O)[C@@H](O[C@@H]1COP(O)(O)=O)N1C=CC(=N)N=C1O
RETENTIONTIME: 
CCS: 164.5825902
IONMODE: Negative
INSTRUMENTTYPE: LC-ESI-QTOF
INSTRUMENT: 
COLLISIONENERGY: 
Comment: registered in MassBank
Num Peaks: 4
78.9601	1000
96.9701	518
138.9805	68
322.04401	589

NAME: 2-Mercaptoethanesulfonic acid; LC-ESI-QTOF; MS2; CE
PRECURSORMZ: 140.968559
PRECURSORTYPE: [M-H]-
FORMULA: C2H6O3S2
Ontology: Organosulfonic acids
INCHIKEY: ZNEWHQLOPFWXOF-UHFFFAOYSA-N
SMILES: OS(=O)(=O)CCS
RETENTIONTIME: 
CCS: 132.8537933
IONMODE: Negative
INSTRUMENTTYPE: LC-ESI-QTOF
INSTRUMENT: 
COLLISIONENERGY: 
Comment: registered in MassBank
Num Peaks: 4
79.9579	85
80.9661	1000
140.9015	24
140.968	473

NAME: Guanosine 5'-monophosphate; LC-ESI-QTOF; MS2; CE
PRECURSORMZ: 362.050723
PRECURSORTYPE: [M-H]-
FORMULA: C10H14N5O8P
Ontology: Purine ribonucleoside monophosphates
INCHIKEY: RQFCJASXJCIDSX-UUOKFMHZSA-N
SMILES: O[C@@H]1[C@@H](COP(O)(O)=O)O[C@H]([C@@H]1O)N1C=NC2=C1NC(=N)N=C2O
RETENTIONTIME: 
CCS: 172.3660334
IONMODE: Negative
INSTRUMENTTYPE: LC-ESI-QTOF
INSTRUMENT: 
COLLISIONENERGY: 
Comment: registered in MassBank
Num Peaks: 6
78.9602	1000
96.9706	168
133.0161	106
150.04269	107
211.0018	224
362.0502	503

NAME: L-Histidine; LC-ESI-QTOF; MS2; CE
PRECURSORMZ: 154.0622
PRECURSORTYPE: [M-H]-
FORMULA: C6H9N3O2
Ontology: Histidine and derivatives
INCHIKEY: HNDVDQJCIGZPNO-YFKPBYRVSA-N
SMILES: N[C@@H](CC1=CN=CN1)C(O)=O
RETENTIONTIME: 
CCS: 129.4644498
IONMODE: Negative
INSTRUMENTTYPE: LC-ESI-QTOF
INSTRUMENT: 
COLLISIONENERGY: 
Comment: registered in MassBank
Num Peaks: 4
93.0466	412
110.0721	109
137.0345	256
154.06171	1000

NAME: UDP-D-glucose; LC-ESI-QTOF; MS2; CE
PRECURSORMZ: 565.047744
PRECURSORTYPE: [M-H]-
FORMULA: C15H24N2O17P2
Ontology: Pyrimidine nucleotide sugars
INCHIKEY: HSCJRCZFDFQWRP-JZMIEXBBSA-N
SMILES: OC[C@H]1O[C@H](OP(O)(=O)OP(O)(=O)OC[C@H]2O[C@H]([C@H](O)[C@@H]2O)N2C=CC(O)=NC2=O)[C@H](O)[C@@H](O)[C@@H]1O
RETENTIONTIME: 
CCS: 207.4354114
IONMODE: Negative
INSTRUMENTTYPE: LC-ESI-QTOF
INSTRUMENT: 
COLLISIONENERGY: 
Comment: registered in MassBank
Num Peaks: 6
78.9607	719
96.9709	479
158.9265	223
241.01421	195
323.03061	1000
565.04718	902

NAME: UDP-D-Galactose; LC-ESI-QTOF; MS2; CE
PRECURSORMZ: 565.047744
PRECURSORTYPE: [M-H]-
FORMULA: C15H24N2O17P2
Ontology: Pyrimidine nucleotide sugars
INCHIKEY: HSCJRCZFDFQWRP-ABVWGUQPSA-N
SMILES: OC[C@H]1O[C@H](OP(O)(=O)OP(O)(=O)OC[C@H]2O[C@H]([C@H](O)[C@@H]2O)N2C=CC(O)=NC2=O)[C@H](O)[C@@H](O)[C@H]1O
RETENTIONTIME: 
CCS: 207.4354114
IONMODE: Negative
INSTRUMENTTYPE: LC-ESI-QTOF
INSTRUMENT: 
COLLISIONENERGY: 
Comment: registered in MassBank
Num Peaks: 14
78.9604	722
96.9706	433
111.0208	132
138.9812	53
150.981	53
158.92641	296
211.0025	105
241.01311	60
272.9595	132
320.9801	73
323.0303	903
384.98679	133
402.99921	58
565.04718	1000

NAME: trans-Zeatin; LC-ESI-QTOF; MS2; CE
PRECURSORMZ: 218.104734
PRECURSORTYPE: [M-H]-
FORMULA: C10H13N5O
Ontology: 6-alkylaminopurines
INCHIKEY: UZKQTCBAMSWPJD-FARCUNLSSA-N
SMILES: C\C(CO)=C/CNC1=C2N=CN=C2NC=N1
RETENTIONTIME: 
CCS: 151.2691013
IONMODE: Negative
INSTRUMENTTYPE: LC-ESI-QTOF
INSTRUMENT: 
COLLISIONENERGY: 
Comment: registered in MassBank
Num Peaks: 9
92.0255	92
107.0365	135
117.021	113
132.0316	213
133.0397	718
134.0473	1000
188.0943	238
200.0939	348
218.1042	990

NAME: Isopentenyladenosine; LC-ESI-QTOF; MS2; CE
PRECURSORMZ: 334.152078
PRECURSORTYPE: [M-H]-
FORMULA: C15H21N5O4
Ontology: Purine nucleosides
INCHIKEY: USVMJSALORZVDV-SDBHATRESA-N
SMILES: CC(C)=CCNC1=C2N=CN([C@@H]3O[C@H](CO)[C@@H](O)[C@H]3O)C2=NC=N1
RETENTIONTIME: 
CCS: 178.6400612
IONMODE: Negative
INSTRUMENTTYPE: LC-ESI-QTOF
INSTRUMENT: 
COLLISIONENERGY: 
Comment: registered in MassBank
Num Peaks: 5
133.039	256
134.04691	1000
202.1096	793
266.08829	174
334.15161	187

NAME: Citraconic acid; LC-ESI-QTOF; MS2; CE
PRECURSORMZ: 129.019332
PRECURSORTYPE: [M-H]-
FORMULA: C5H6O4
Ontology: Methyl-branched fatty acids
INCHIKEY: HNEGQIOMVPPMNR-IHWYPQMZSA-N
SMILES: C\C(=C\C(O)=O)C(O)=O
RETENTIONTIME: 
CCS: 123.7364894
IONMODE: Negative
INSTRUMENTTYPE: LC-ESI-QTOF
INSTRUMENT: 
COLLISIONENERGY: 
Comment: registered in MassBank
Num Peaks: 2
85.0293	1000
129.0188	275

NAME: 5-Aminopentanoic acid; LC-ESI-QTOF; MS2; CE
PRECURSORMZ: 116.071702
PRECURSORTYPE: [M-H]-
FORMULA: C5H11NO2
Ontology: Delta amino acids and derivatives
INCHIKEY: JJMDCOVWQOJGCB-UHFFFAOYSA-N
SMILES: NCCCCC(O)=O
RETENTIONTIME: 
CCS: 126.6390666
IONMODE: Negative
INSTRUMENTTYPE: LC-ESI-QTOF
INSTRUMENT: 
COLLISIONENERGY: 
Comment: registered in MassBank
Num Peaks: 3
99.9265	36
115.9209	36
116.0712	1000

NAME: L-(+)-tartaric acid; LC-ESI-QTOF; MS2; CE
PRECURSORMZ: 149.009161
PRECURSORTYPE: [M-H]-
FORMULA: C4H6O6
Ontology: Sugar acids and derivatives
INCHIKEY: FEWJPZIEWOKRBE-UHFFFAOYNA-N
SMILES: OC(C(O)C(O)=O)C(O)=O
RETENTIONTIME: 
CCS: 122.508185
IONMODE: Negative
INSTRUMENTTYPE: LC-ESI-QTOF
INSTRUMENT: 
COLLISIONENERGY: 
Comment: registered in MassBank
Num Peaks: 4
72.9936	274
87.0099	516
148.899	194
149.00861	1000

NAME: m-Hydroxycinnamic acid; LC-ESI-QTOF; MS2; CE
PRECURSORMZ: 163.040068
PRECURSORTYPE: [M-H]-
FORMULA: C9H8O3
Ontology: Hydroxycinnamic acids
INCHIKEY: KKSDGJDHHZEWEP-SNAWJCMRSA-N
SMILES: OC(=O)\C=C\C1=CC(O)=CC=C1
RETENTIONTIME: 
CCS: 131.5707336
IONMODE: Negative
INSTRUMENTTYPE: LC-ESI-QTOF
INSTRUMENT: 
COLLISIONENERGY: 
Comment: registered in MassBank
Num Peaks: 2
145.8744	468
162.8748	1000

NAME: m-Hydroxycinnamic acid; LC-ESI-QTOF; MS2; CE
PRECURSORMZ: 163.040068
PRECURSORTYPE: [M-H]-
FORMULA: C9H8O3
Ontology: Hydroxycinnamic acids
INCHIKEY: KKSDGJDHHZEWEP-SNAWJCMRSA-N
SMILES: OC(=O)\C=C\C1=CC(O)=CC=C1
RETENTIONTIME: 
CCS: 131.5707336
IONMODE: Negative
INSTRUMENTTYPE: LC-ESI-QTOF
INSTRUMENT: 
COLLISIONENERGY: 30
Comment: registered in MassBank
Num Peaks: 2
145.8822	1000
162.88499	78

NAME: 3-Hydroxypyridine; LC-ESI-QTOF; MS2; CE
PRECURSORMZ: 94.029837
PRECURSORTYPE: [M-H]-
FORMULA: C5H5NO
Ontology: Hydroxypyridines
INCHIKEY: GRFNBEZIAWKNCO-UHFFFAOYSA-N
SMILES: OC1=CN=CC=C1
RETENTIONTIME: 
CCS: 109.4944457
IONMODE: Negative
INSTRUMENTTYPE: LC-ESI-QTOF
INSTRUMENT: 
COLLISIONENERGY: 
Comment: registered in MassBank
Num Peaks: 2
66.0355	22
94.0293	1000

NAME: (-)-Citramalic acid; LC-ESI-QTOF; MS2; CE
PRECURSORMZ: 147.029897
PRECURSORTYPE: [M-H]-
FORMULA: C5H8O5
Ontology: Hydroxy fatty acids
INCHIKEY: XFTRTWQBIOMVPK-RXMQYKEDSA-N
SMILES: C[C@@](O)(CC(O)=O)C(O)=O
RETENTIONTIME: 
CCS: 126.5102502
IONMODE: Negative
INSTRUMENTTYPE: LC-ESI-QTOF
INSTRUMENT: 
COLLISIONENERGY: 
Comment: registered in MassBank
Num Peaks: 7
85.0298	496
87.0088	912
103.0395	72
129.0193	200
145.8903	56
146.8985	360
147.0294	1000

NAME: D-(-)-Gulono-gamma-lactone; LC-ESI-QTOF; MS2; CE
PRECURSORMZ: 177.040462
PRECURSORTYPE: [M-H]-
FORMULA: C6H10O6
Ontology: Gamma butyrolactones
INCHIKEY: SXZYCXMUPBBULW-UHFFFAOYNA-N
SMILES: OCC(O)C1OC(=O)C(O)C1O
RETENTIONTIME: 
CCS: 130.8195792
IONMODE: Negative
INSTRUMENTTYPE: LC-ESI-QTOF
INSTRUMENT: 
COLLISIONENERGY: 
Comment: registered in MassBank
Num Peaks: 11
59.0159	432
71.0148	703
75.011	243
85.0297	270
89.0251	405
99.008	324
111.0065	162
129.0201	622
141.0181	243
159.8837	81
177.0399	1000

NAME: Hesperetin; LC-ESI-QTOF; MS2; CE
PRECURSORMZ: 301.071762
PRECURSORTYPE: [M-H]-
FORMULA: C16H14O6
Ontology: 4'-O-methylated flavonoids
INCHIKEY: AIONOLUJZLIMTK-AWEZNQCLSA-N
SMILES: COC1=C(O)C=C(C=C1)[C@@H]1CC(=O)C2=C(O)C=C(O)C=C2O1
RETENTIONTIME: 
CCS: 171.1305627
IONMODE: Negative
INSTRUMENTTYPE: LC-ESI-QTOF
INSTRUMENT: 
COLLISIONENERGY: 
Comment: registered in MassBank
Num Peaks: 13
139.9313	167
143.9357	148
156.9389	667
158.938	296
159.9353	111
160.9382	611
161.9399	93
222.92239	130
224.9261	130
270.87091	130
272.87009	93
282.8772	204
300.87009	1000

NAME: Itaconic acid; LC-ESI-QTOF; MS2; CE
PRECURSORMZ: 129.019332
PRECURSORTYPE: [M-H]-
FORMULA: C5H6O4
Ontology: Branched fatty acids
INCHIKEY: LVHBHZANLOWSRM-UHFFFAOYSA-N
SMILES: OC(=O)CC(=C)C(O)=O
RETENTIONTIME: 
CCS: 123.4918002
IONMODE: Negative
INSTRUMENTTYPE: LC-ESI-QTOF
INSTRUMENT: 
COLLISIONENERGY: 
Comment: registered in MassBank
Num Peaks: 2
85.0296	1000
129.0188	169

NAME: Glycerol-2-phosphate; LC-ESI-QTOF; MS2; CE
PRECURSORMZ: 171.006398
PRECURSORTYPE: [M-H]-
FORMULA: C3H9O6P
Ontology: Glycerophosphates
INCHIKEY: DHCLVCXQIBBOPH-UHFFFAOYSA-N
SMILES: OCC(CO)OP(O)(O)=O
RETENTIONTIME: 
CCS: 128.9638818
IONMODE: Negative
INSTRUMENTTYPE: LC-ESI-QTOF
INSTRUMENT: 
COLLISIONENERGY: 
Comment: registered in MassBank
Num Peaks: 3
78.9596	1000
96.9702	36
171.00591	268

NAME: D-Mannose-6-phosphate; LC-ESI-QTOF; MS2; CE
PRECURSORMZ: 259.022442
PRECURSORTYPE: [M-H]-
FORMULA: C6H13O9P
Ontology: Hexose phosphates
INCHIKEY: NBSCHQHZLSJFNQ-QTVWNMPRSA-N
SMILES: OC1O[C@H](COP(O)(O)=O)[C@@H](O)[C@H](O)[C@@H]1O
RETENTIONTIME: 
CCS: 147.1625908
IONMODE: Negative
INSTRUMENTTYPE: LC-ESI-QTOF
INSTRUMENT: 
COLLISIONENERGY: 
Comment: registered in MassBank
Num Peaks: 5
78.96	541
96.97	1000
138.9803	66
199.0018	53
259.02191	176

NAME: D-(+)-Melezitose; LC-ESI-QTOF; MS2; CE
PRECURSORMZ: 503.161759
PRECURSORTYPE: [M-H]-
FORMULA: C18H32O16
Ontology: Oligosaccharides
INCHIKEY: QWIZNVHXZXRPDR-WSCXOGSTSA-N
SMILES: OC[C@H]1O[C@@](CO)(O[C@H]2O[C@H](CO)[C@@H](O)[C@H](O)[C@H]2O)[C@@H](O[C@H]2O[C@H](CO)[C@@H](O)[C@H](O)[C@H]2O)[C@@H]1O
RETENTIONTIME: 
CCS: 206.2594522
IONMODE: Negative
INSTRUMENTTYPE: LC-ESI-QTOF
INSTRUMENT: 
COLLISIONENERGY: 
Comment: registered in MassBank
Num Peaks: 13
59.0161	184
71.0158	328
85.0311	64
89.0255	333
101.0256	538
113.0255	348
119.0359	140
131.0359	154
143.03641	119
161.0468	134
179.0573	243
323.1015	455
503.16119	1000

NAME: N-Acetylglycine; LC-ESI-QTOF; MS2; CE
PRECURSORMZ: 116.035317
PRECURSORTYPE: [M-H]-
FORMULA: C4H7NO3
Ontology: N-acyl-alpha amino acids
INCHIKEY: OKJIRPAQVSHGFK-UHFFFAOYSA-N
SMILES: CC(O)=NCC(O)=O
RETENTIONTIME: 
CCS: 120.1771969
IONMODE: Negative
INSTRUMENTTYPE: LC-ESI-QTOF
INSTRUMENT: 
COLLISIONENERGY: 
Comment: registered in MassBank
Num Peaks: 3
72.0464	133
74.0261	1000
116.0348	378

NAME: L-(+)-Rhamnose; LC-ESI-QTOF; MS2; CE
PRECURSORMZ: 163.061197
PRECURSORTYPE: [M-H]-
FORMULA: C6H12O5
Ontology: Hexoses
INCHIKEY: SHZGCJCMOBCMKK-JFNONXLTSA-N
SMILES: C[C@@H]1OC(O)[C@H](O)[C@H](O)[C@H]1O
RETENTIONTIME: 
CCS: 129.4695154
IONMODE: Negative
INSTRUMENTTYPE: LC-ESI-QTOF
INSTRUMENT: 
COLLISIONENERGY: 
Comment: registered in MassBank
Num Peaks: 3
145.8914	435
162.8945	1000
163.0607	59

NAME: D-Sorbitol 6-phosphate; LC-ESI-QTOF; MS2; CE
PRECURSORMZ: 261.038092
PRECURSORTYPE: [M-H]-
FORMULA: C6H15O9P
Ontology: Monosaccharide phosphates
INCHIKEY: GACTWZZMVMUKNG-SLPGGIOYSA-N
SMILES: OC[C@H](O)[C@@H](O)[C@H](O)[C@H](O)COP(O)(O)=O
RETENTIONTIME: 
CCS: 148.5374782
IONMODE: Negative
INSTRUMENTTYPE: LC-ESI-QTOF
INSTRUMENT: 
COLLISIONENERGY: 
Comment: registered in MassBank
Num Peaks: 3
78.9602	1000
96.9703	897
261.0376	581

NAME: (3R,4S)-3-Amino-4-methylhexanoic acid; LC-ESI-QTOF; MS2; CE
PRECURSORMZ: 144.103002
PRECURSORTYPE: [M-H]-
FORMULA: C7H15NO2
Ontology: Beta amino acids and derivatives
INCHIKEY: JHEDYGILOIBOTL-NTSWFWBYSA-N
SMILES: CC[C@H](C)[C@H](N)CC(O)=O
RETENTIONTIME: 
CCS: 133.7740533
IONMODE: Negative
INSTRUMENTTYPE: LC-ESI-QTOF
INSTRUMENT: 
COLLISIONENERGY: 
Comment: registered in MassBank
Num Peaks: 3
142.8891	93
143.8999	519
144.10249	1000

NAME: (S)-3-Amino-4-phenylbutyric acid; LC-ESI-QTOF; MS2; CE
PRECURSORMZ: 178.087352
PRECURSORTYPE: [M-H]-
FORMULA: C10H13NO2
Ontology: Beta amino acids and derivatives
INCHIKEY: OFVBLKINTLPEGH-VIFPVBQESA-N
SMILES: N[C@H](CC(O)=O)CC1=CC=CC=C1
RETENTIONTIME: 
CCS: 144.8999959
IONMODE: Negative
INSTRUMENTTYPE: LC-ESI-QTOF
INSTRUMENT: 
COLLISIONENERGY: 
Comment: registered in MassBank
Num Peaks: 5
86.0251	74
91.0557	267
117.0712	1000
177.85899	165
178.08681	636

NAME: 1,2-Dilauroyl-sn-glycero-3-phosphate; LC-ESI-QTOF; MS2; CE
PRECURSORMZ: 535.340529
PRECURSORTYPE: [M-H]-
FORMULA: C27H53O8P
Ontology: 1,2-diacylglycerol-3-phosphates
INCHIKEY: OKLASJZQBDJAPH-RUZDIDTESA-N
SMILES: CCCCCCCCCCCC(=O)OC[C@H](COP(O)(O)=O)OC(=O)CCCCCCCCCCC
RETENTIONTIME: 
CCS: -1
IONMODE: Negative
INSTRUMENTTYPE: LC-ESI-QTOF
INSTRUMENT: 
COLLISIONENERGY: 
Comment: registered in MassBank
Num Peaks: 6
78.9609	99
152.9967	330
199.1703	1000
335.1658	209
353.17249	88
535.34003	495

NAME: 1-Myristoyl-2-hydroxy-sn-glycero-3-phosphate; LC-ESI-QTOF; MS2; CE
PRECURSORMZ: 381.204764
PRECURSORTYPE: [M-H]-
FORMULA: C17H35O7P
Ontology: 1-acylglycerol-3-phosphates
INCHIKEY: FAZBDRGXCKPVJU-MRXNPFEDSA-N
SMILES: CCCCCCCCCCCCCC(=O)OC[C@@H](O)COP(O)(O)=O
RETENTIONTIME: 
CCS: 215.4053837
IONMODE: Negative
INSTRUMENTTYPE: LC-ESI-QTOF
INSTRUMENT: 
COLLISIONENERGY: 
Comment: registered in MassBank
Num Peaks: 4
78.9593	510
96.9705	54
152.99471	1000
381.20419	327

NAME: 1-Lauroyl-2-hydroxy-sn-glycero-3-phosphocholine; LC-ESI-QTOF; MS2; CE
PRECURSORMZ: 438.262613
PRECURSORTYPE: [M-H]-
FORMULA: C20H42NO7P
Ontology: 1-acyl-sn-glycero-3-phosphocholines
INCHIKEY: BWKILASWCLJPBO-LJQANCHMSA-N
SMILES: CCCCCCCCCCCC(=O)OC[C@@H](O)COP([O-])(=O)OCC[N+](C)(C)C
RETENTIONTIME: 
CCS: -1
IONMODE: Negative
INSTRUMENTTYPE: LC-ESI-QTOF
INSTRUMENT: 
COLLISIONENERGY: 
Comment: registered in MassBank
Num Peaks: 9
77.4146	100
77.4302	67
77.444	67
77.572	100
78.6619	67
78.9649	200
199.18269	100
213.1656	1000
438.26208	500

NAME: Cyanidin-3,5-di-O-glucoside; LC-ESI-QTOF; MS2; CE
PRECURSORMZ: 609.14556
PRECURSORTYPE: [M-2H]-
FORMULA: C27H31O16
Ontology: Anthocyanidin-5-O-glycosides
INCHIKEY: RDFLLVCQYHQOBU-ZOTFFYTFSA-O
SMILES: OC[C@H]1O[C@@H](OC2=CC(O)=CC3=[O+]C(=C(O[C@@H]4O[C@H](CO)[C@@H](O)[C@H](O)[C@H]4O)C=C23)C2=CC(O)=C(O)C=C2)[C@H](O)[C@@H](O)[C@@H]1O
RETENTIONTIME: 
CCS: -1
IONMODE: Negative
INSTRUMENTTYPE: LC-ESI-QTOF
INSTRUMENT: 
COLLISIONENERGY: 
Comment: registered in MassBank
Num Peaks: 10
125.0234	122
147.0094	104
227.03529	111
255.0302	184
283.0253	799
284.03369	368
285.04111	965
446.086	351
447.09341	1000
609.14563	875

NAME: Ideain; LC-ESI-QTOF; MS2; CE
PRECURSORMZ: 447.092736
PRECURSORTYPE: [M-2H]-
FORMULA: C21H21O11
Ontology: Anthocyanidin-3-O-glycosides
INCHIKEY: RKWHWFONKJEUEF-WVXKDWSHSA-O
SMILES: OC[C@H]1O[C@@H](OC2=C([O+]=C3C=C(O)C=C(O)C3=C2)C2=CC(O)=C(O)C=C2)[C@H](O)[C@@H](O)[C@H]1O
RETENTIONTIME: 
CCS: -1
IONMODE: Negative
INSTRUMENTTYPE: LC-ESI-QTOF
INSTRUMENT: 
COLLISIONENERGY: 
Comment: registered in MassBank
Num Peaks: 7
147.00951	110
211.04041	96
255.03081	165
283.02621	104
284.03299	1000
285.04199	284
447.0928	567

NAME: Cyanidin-3-glucoside; LC-ESI-QTOF; MS2; CE
PRECURSORMZ: 447.092736
PRECURSORTYPE: [M-2H]-
FORMULA: C21H21O11
Ontology: Anthocyanidin-3-O-glycosides
INCHIKEY: RKWHWFONKJEUEF-GQUPQBGVSA-O
SMILES: OC[C@H]1O[C@@H](OC2=C([O+]=C3C=C(O)C=C(O)C3=C2)C2=CC(O)=C(O)C=C2)[C@H](O)[C@@H](O)[C@@H]1O
RETENTIONTIME: 
CCS: -1
IONMODE: Negative
INSTRUMENTTYPE: LC-ESI-QTOF
INSTRUMENT: 
COLLISIONENERGY: 
Comment: registered in MassBank
Num Peaks: 9
147.0088	150
211.0405	117
227.0361	97
255.0309	194
256.03879	97
283.0253	122
284.03339	1000
285.04089	693
447.0928	674

NAME: Malvidin-3-O-beta-D-galactoside; LC-ESI-QTOF; MS2; CE
PRECURSORMZ: 491.118951
PRECURSORTYPE: [M-2H]-
FORMULA: C23H25O12
Ontology: Anthocyanidin-3-O-glycosides
INCHIKEY: PXUQTDZNOHRWLI-XSEKTIEYSA-O
SMILES: COC1=CC(=CC(OC)=C1O)C1=C(O[C@@H]2O[C@H](CO)[C@H](O)[C@H](O)[C@H]2O)C=C2C(O)=CC(O)=CC2=[O+]1
RETENTIONTIME: 
CCS: -1
IONMODE: Negative
INSTRUMENTTYPE: LC-ESI-QTOF
INSTRUMENT: 
COLLISIONENERGY: 
Comment: registered in MassBank
Num Peaks: 13
214.0275	258
226.0276	134
242.0228	161
254.02319	182
270.01819	212
271.02551	123
298.0145	90
299.021	171
313.03619	719
314.04449	199
328.0596	1000
329.06781	646
491.11899	904

NAME: Malvin; LC-ESI-QTOF; MS2; CE
PRECURSORMZ: 653.171775
PRECURSORTYPE: [M-2H]-
FORMULA: C29H35O17
Ontology: Anthocyanidin-5-O-glycosides
INCHIKEY: CILLXFBAACIQNS-BTXJZROQSA-O
SMILES: COC1=CC(=CC(OC)=C1O)C1=C(O[C@@H]2O[C@H](CO)[C@@H](O)[C@H](O)[C@H]2O)C=C2C(O[C@@H]3O[C@H](CO)[C@@H](O)[C@H](O)[C@H]3O)=CC(O)=CC2=[O+]1
RETENTIONTIME: 
CCS: -1
IONMODE: Negative
INSTRUMENTTYPE: LC-ESI-QTOF
INSTRUMENT: 
COLLISIONENERGY: 
Comment: registered in MassBank
Num Peaks: 10
271.02591	52
299.02301	141
313.039	133
314.0441	237
327.05209	407
328.06021	104
329.0676	1000
490.10901	178
491.11981	956
653.17181	385

NAME: Oenin; LC-ESI-QTOF; MS2; CE
PRECURSORMZ: 491.118951
PRECURSORTYPE: [M-2H]-
FORMULA: C23H25O12
Ontology: Anthocyanidin-3-O-glycosides
INCHIKEY: PXUQTDZNOHRWLI-OXUVVOBNSA-O
SMILES: COC1=CC(=CC(OC)=C1O)C1=C(O[C@@H]2O[C@H](CO)[C@@H](O)[C@H](O)[C@H]2O)C=C2C(O)=CC(O)=CC2=[O+]1
RETENTIONTIME: 
CCS: -1
IONMODE: Negative
INSTRUMENTTYPE: LC-ESI-QTOF
INSTRUMENT: 
COLLISIONENERGY: 
Comment: registered in MassBank
Num Peaks: 12
214.02769	166
226.0278	104
242.0219	126
254.0233	121
270.01801	159
271.02521	120
299.0202	169
313.0368	492
314.0444	225
328.05991	555
329.06699	1000
491.11899	514

NAME: Peonidin-3-O-beta-D-glucoside; LC-ESI-QTOF; MS2; CE
PRECURSORMZ: 461.108387
PRECURSORTYPE: [M-2H]-
FORMULA: C22H23O11
Ontology: Anthocyanidin-3-O-glycosides
INCHIKEY: ZZWPMFROUHHAKY-OUUKCGNVSA-O
SMILES: COC1=C(O)C=CC(=C1)C1=C(O[C@@H]2O[C@H](CO)[C@@H](O)[C@H](O)[C@H]2O)C=C2C(O)=CC(O)=CC2=[O+]1
RETENTIONTIME: 
CCS: -1
IONMODE: Negative
INSTRUMENTTYPE: LC-ESI-QTOF
INSTRUMENT: 
COLLISIONENERGY: 
Comment: registered in MassBank
Num Peaks: 8
211.0415	117
227.0354	223
255.03059	248
283.02499	447
284.03299	268
298.0484	517
299.05621	1000
461.1084	398

NAME: Datiscin; LC-ESI-QTOF; MS2; CE
PRECURSORMZ: 593.151194
PRECURSORTYPE: [M-H]-
FORMULA: C27H30O15
Ontology: Flavonoid-3-O-glycosides
INCHIKEY: BJJCTXDEJUWVIC-QHWHWDPRSA-N
SMILES: C[C@@H]1O[C@@H](OC[C@H]2O[C@@H](OC3=C(OC4=CC(O)=CC(O)=C4C3=O)C3=CC=CC=C3O)[C@H](O)[C@@H](O)[C@@H]2O)[C@H](O)[C@H](O)[C@H]1O
RETENTIONTIME: 
CCS: 265.0770965
IONMODE: Negative
INSTRUMENTTYPE: LC-ESI-QTOF
INSTRUMENT: 
COLLISIONENERGY: 
Comment: registered in MassBank
Num Peaks: 7
125.0263	136
151.00571	178
255.0338	109
267.03391	112
284.0368	209
285.04321	1000
593.15057	800

NAME: Datiscin; LC-ESI-QTOF; MS2; CE
PRECURSORMZ: 593.151194
PRECURSORTYPE: [M-H]-
FORMULA: C27H30O15
Ontology: Flavonoid-3-O-glycosides
INCHIKEY: BJJCTXDEJUWVIC-QHWHWDPRSA-N
SMILES: C[C@@H]1O[C@@H](OC[C@H]2O[C@@H](OC3=C(OC4=CC(O)=CC(O)=C4C3=O)C3=CC=CC=C3O)[C@H](O)[C@@H](O)[C@@H]2O)[C@H](O)[C@H](O)[C@H]1O
RETENTIONTIME: 
CCS: 265.0770965
IONMODE: Negative
INSTRUMENTTYPE: LC-ESI-QTOF
INSTRUMENT: 
COLLISIONENERGY: 30
Comment: registered in MassBank
Num Peaks: 18
125.0252	89
133.0304	13
143.0493	13
151.0045	72
163.0047	13
171.0457	14
213.0569	58
255.03149	29
256.03931	12
257.04669	19
267.03189	67
284.0343	265
285.04141	1000
285.31299	16
285.46341	36
286.04651	13
327.0538	12
593.15057	20

NAME: Flavanomarein; LC-ESI-QTOF; MS2; CE
PRECURSORMZ: 449.108935
PRECURSORTYPE: [M-H]-
FORMULA: C21H22O11
Ontology: Flavonoid-7-O-glycosides
INCHIKEY: DGGOLFCPSUVVHX-RTHJTPBESA-N
SMILES: OC[C@H]1O[C@@H](OC2=C(O)C3=C(C=C2)C(=O)C[C@H](O3)C2=CC(O)=C(O)C=C2)[C@H](O)[C@@H](O)[C@@H]1O
RETENTIONTIME: 
CCS: 224.8080512
IONMODE: Negative
INSTRUMENTTYPE: LC-ESI-QTOF
INSTRUMENT: 
COLLISIONENERGY: 
Comment: registered in MassBank
Num Peaks: 5
135.04601	1000
151.0043	563
269.04849	101
287.0574	481
449.1084	483

NAME: Fortunellin; LC-ESI-QTOF; MS2; CE
PRECURSORMZ: 591.171929
PRECURSORTYPE: [M-H]-
FORMULA: C28H32O14
Ontology: Flavonoid-7-O-glycosides
INCHIKEY: MLWDGPFGTFOLRJ-CUVHLRMHSA-N
SMILES: COC1=CC=C(C=C1)C1=CC(=O)C2=C(O)C=C(O[C@@H]3O[C@H](CO)[C@@H](O)[C@H](O)[C@H]3O[C@@H]3O[C@@H](C)[C@H](O)[C@@H](O)[C@H]3O)C=C2O1
RETENTIONTIME: 
CCS: 252.4212323
IONMODE: Negative
INSTRUMENTTYPE: LC-ESI-QTOF
INSTRUMENT: 
COLLISIONENERGY: 
Comment: registered in MassBank
Num Peaks: 3
268.03909	454
283.06281	1000
591.17139	251

NAME: Gossypin; LC-ESI-QTOF; MS2; CE
PRECURSORMZ: 479.083114
PRECURSORTYPE: [M-H]-
FORMULA: C21H20O13
Ontology: Flavonoid-8-O-glycosides
INCHIKEY: SJRXVLUZMMDCNG-KKPQBLLMSA-N
SMILES: OC[C@H]1O[C@@H](OC2=C(O)C=C(O)C3=C2OC(=C(O)C3=O)C2=CC(O)=C(O)C=C2)[C@H](O)[C@@H](O)[C@@H]1O
RETENTIONTIME: 
CCS: 203.7707125
IONMODE: Negative
INSTRUMENTTYPE: LC-ESI-QTOF
INSTRUMENT: 
COLLISIONENERGY: 
Comment: registered in MassBank
Num Peaks: 8
111.0088	51
139.00459	135
165.9901	51
166.99699	79
194.9919	56
316.02469	65
317.0304	1000
479.08261	242

NAME: Hesperidin; LC-ESI-QTOF; MS2; CE
PRECURSORMZ: 609.182494
PRECURSORTYPE: [M-H]-
FORMULA: C28H34O15
Ontology: Flavonoid-7-O-glycosides
INCHIKEY: QUQPHWDTPGMPEX-QJBIFVCTSA-N
SMILES: COC1=C(O)C=C(C=C1)[C@@H]1CC(=O)C2=C(O)C=C(O[C@@H]3O[C@H](CO[C@@H]4O[C@@H](C)[C@H](O)[C@@H](O)[C@H]4O)[C@@H](O)[C@H](O)[C@H]3O)C=C2O1
RETENTIONTIME: 
CCS: 228.0515203
IONMODE: Negative
INSTRUMENTTYPE: LC-ESI-QTOF
INSTRUMENT: 
COLLISIONENERGY: 
Comment: registered in MassBank
Num Peaks: 6
151.0051	67
164.0128	113
242.0609	66
286.05179	90
301.07349	1000
609.18188	379

NAME: Kaempferol-7-O-neohesperidoside; LC-ESI-QTOF; MS2; CE
PRECURSORMZ: 593.151194
PRECURSORTYPE: [M-H]-
FORMULA: C27H30O15
Ontology: Flavonoid-7-O-glycosides
INCHIKEY: ZEJXENDZTYVXDP-CSJHBIPPSA-N
SMILES: C[C@@H]1O[C@@H](O[C@@H]2[C@@H](O)[C@H](O)[C@@H](CO)O[C@H]2OC2=CC(O)=C3C(=O)C(O)=C(OC3=C2)C2=CC=C(O)C=C2)[C@H](O)[C@H](O)[C@H]1O
RETENTIONTIME: 
CCS: 239.0670965
IONMODE: Negative
INSTRUMENTTYPE: LC-ESI-QTOF
INSTRUMENT: 
COLLISIONENERGY: 
Comment: registered in MassBank
Num Peaks: 3
284.03549	132
285.04251	1000
593.15057	524

NAME: Acaciin; LC-ESI-QTOF; MS2; CE
PRECURSORMZ: 591.171929
PRECURSORTYPE: [M-H]-
FORMULA: C28H32O14
Ontology: Flavonoid-7-O-glycosides
INCHIKEY: YFVGIJBUXMQFOF-PJOVQGMDSA-N
SMILES: COC1=CC=C(C=C1)C1=CC(=O)C2=C(O)C=C(O[C@@H]3O[C@H](CO[C@@H]4O[C@@H](C)[C@H](O)[C@@H](O)[C@H]4O)[C@@H](O)[C@H](O)[C@H]3O)C=C2O1
RETENTIONTIME: 
CCS: 243.9612323
IONMODE: Negative
INSTRUMENTTYPE: LC-ESI-QTOF
INSTRUMENT: 
COLLISIONENERGY: 
Comment: registered in MassBank
Num Peaks: 3
268.0383	383
283.0618	1000
591.17139	43

NAME: Luteolin-3',7-di-O-glucoside; LC-ESI-QTOF; MS2; CE
PRECURSORMZ: 609.146108
PRECURSORTYPE: [M-H]-
FORMULA: C27H30O16
Ontology: Flavonoid-7-O-glycosides
INCHIKEY: BISZYPSIZGKOFA-IPOZFMEPSA-N
SMILES: OC[C@H]1O[C@@H](OC2=CC(O)=C3C(=O)C=C(OC3=C2)C2=CC(O[C@@H]3O[C@H](CO)[C@@H](O)[C@H](O)[C@H]3O)=C(O)C=C2)[C@H](O)[C@@H](O)[C@@H]1O
RETENTIONTIME: 
CCS: 258.970302
IONMODE: Negative
INSTRUMENTTYPE: LC-ESI-QTOF
INSTRUMENT: 
COLLISIONENERGY: 
Comment: registered in MassBank
Num Peaks: 4
284.03439	249
285.04221	1000
447.0947	816
609.14563	447

NAME: Luteolin-4'-O-glucoside; LC-ESI-QTOF; MS2; CE
PRECURSORMZ: 447.093285
PRECURSORTYPE: [M-H]-
FORMULA: C21H20O11
Ontology: Flavonoid O-glycosides
INCHIKEY: UHNXUSWGOJMEFO-QNDFHXLGSA-N
SMILES: OC[C@H]1O[C@@H](OC2=C(O)C=C(C=C2)C2=CC(=O)C3=C(O)C=C(O)C=C3O2)[C@H](O)[C@@H](O)[C@@H]1O
RETENTIONTIME: 
CCS: 230.1683295
IONMODE: Negative
INSTRUMENTTYPE: LC-ESI-QTOF
INSTRUMENT: 
COLLISIONENERGY: 
Comment: registered in MassBank
Num Peaks: 8
107.0146	31
133.03011	158
151.0045	71
175.0406	43
199.041	35
285.0405	1000
285.46359	35
447.0928	146

NAME: Marein; LC-ESI-QTOF; MS2; CE
PRECURSORMZ: 449.108935
PRECURSORTYPE: [M-H]-
FORMULA: C21H22O11
Ontology: Flavonoid O-glycosides
INCHIKEY: XGEYXJDOVMEJNG-HTFDPZBKSA-N
SMILES: OC[C@H]1O[C@@H](OC2=C(O)C(O)=C(C=C2)C(=O)\C=C\C2=CC(O)=C(O)C=C2)[C@H](O)[C@@H](O)[C@@H]1O
RETENTIONTIME: 
CCS: 228.0730512
IONMODE: Negative
INSTRUMENTTYPE: LC-ESI-QTOF
INSTRUMENT: 
COLLISIONENERGY: 
Comment: registered in MassBank
Num Peaks: 10
107.0148	66
123.0098	94
134.03841	37
135.0457	1000
151.00459	550
269.0481	98
287.05759	488
313.0596	34
431.10101	49
449.1084	487

NAME: Maritimein; LC-ESI-QTOF; MS2; CE
PRECURSORMZ: 447.093285
PRECURSORTYPE: [M-H]-
FORMULA: C21H20O11
Ontology: Aurone O-glycosides
INCHIKEY: SYRURBPRFQUYQS-RHEJLWEFSA-N
SMILES: OC[C@H]1O[C@@H](OC2=C(O)C3=C(C=C2)C(=O)\C(O3)=C\C2=CC(O)=C(O)C=C2)[C@H](O)[C@@H](O)[C@@H]1O
RETENTIONTIME: 
CCS: 216.6868295
IONMODE: Negative
INSTRUMENTTYPE: LC-ESI-QTOF
INSTRUMENT: 
COLLISIONENERGY: 
Comment: registered in MassBank
Num Peaks: 4
133.0298	189
135.0457	153
285.04129	1000
447.0928	270

NAME: Neodiosmin; LC-ESI-QTOF; MS2; CE
PRECURSORMZ: 607.166844
PRECURSORTYPE: [M-H]-
FORMULA: C28H32O15
Ontology: Flavonoid-7-O-glycosides
INCHIKEY: VCCNKWWXYVWTLT-CYZBKYQRSA-N
SMILES: COC1=C(O)C=C(C=C1)C1=CC(=O)C2=C(O)C=C(O[C@@H]3O[C@H](CO)[C@@H](O)[C@H](O)[C@H]3O[C@@H]3O[C@@H](C)[C@H](O)[C@@H](O)[C@H]3O)C=C2O1
RETENTIONTIME: 
CCS: 245.4375586
IONMODE: Negative
INSTRUMENTTYPE: LC-ESI-QTOF
INSTRUMENT: 
COLLISIONENERGY: 
Comment: registered in MassBank
Num Peaks: 3
284.03409	790
299.05771	1000
607.16632	745

NAME: Ononin; LC-ESI-QTOF; MS2; CE
PRECURSORMZ: 429.119106
PRECURSORTYPE: [M-H]-
FORMULA: C22H22O9
Ontology: Isoflavonoid O-glycosides
INCHIKEY: MGJLSBDCWOSMHL-MIUGBVLSSA-N
SMILES: COC1=CC=C(C=C1)C1=COC2=C(C=CC(O[C@@H]3O[C@H](CO)[C@@H](O)[C@H](O)[C@H]3O)=C2)C1=O
RETENTIONTIME: 
CCS: 198.3825006
IONMODE: Negative
INSTRUMENTTYPE: LC-ESI-QTOF
INSTRUMENT: 
COLLISIONENERGY: 
Comment: registered in MassBank
Num Peaks: 8
162.9133	37
223.07001	74
251.0708	111
252.0762	519
267.10031	1000
293.8576	37
341.10861	37
429.11859	185

NAME: Ononin; LC-ESI-QTOF; MS2; CE
PRECURSORMZ: 429.119106
PRECURSORTYPE: [M-H]-
FORMULA: C22H22O9
Ontology: Isoflavonoid O-glycosides
INCHIKEY: MGJLSBDCWOSMHL-MIUGBVLSSA-N
SMILES: COC1=CC=C(C=C1)C1=COC2=C(C=CC(O[C@@H]3O[C@H](CO)[C@@H](O)[C@H](O)[C@H]3O)=C2)C1=O
RETENTIONTIME: 
CCS: 198.3825006
IONMODE: Negative
INSTRUMENTTYPE: LC-ESI-QTOF
INSTRUMENT: 
COLLISIONENERGY: 30
Comment: registered in MassBank
Num Peaks: 6
252.0778	1000
267.1026	594
281.05789	94
341.1116	94
355.09698	62
429.11859	125

NAME: Poncirin; LC-ESI-QTOF; MS2; CE
PRECURSORMZ: 593.187579
PRECURSORTYPE: [M-H]-
FORMULA: C28H34O14
Ontology: Flavonoid-7-O-glycosides
INCHIKEY: NLAWPKPYBMEWIR-SKYQDXIQSA-N
SMILES: COC1=CC=C(C=C1)[C@@H]1CC(=O)C2=C(O)C=C(O[C@@H]3O[C@H](CO)[C@@H](O)[C@H](O)[C@H]3O[C@@H]3O[C@@H](C)[C@H](O)[C@@H](O)[C@H]3O)C=C2O1
RETENTIONTIME: 
CCS: 225.5744612
IONMODE: Negative
INSTRUMENTTYPE: LC-ESI-QTOF
INSTRUMENT: 
COLLISIONENERGY: 
Comment: registered in MassBank
Num Peaks: 5
151.00481	104
164.0128	130
270.056	93
285.07819	1000
593.18707	874

NAME: Poncirin; LC-ESI-QTOF; MS2; CE
PRECURSORMZ: 593.187579
PRECURSORTYPE: [M-H]-
FORMULA: C28H34O14
Ontology: Flavonoid-7-O-glycosides
INCHIKEY: NLAWPKPYBMEWIR-SKYQDXIQSA-N
SMILES: COC1=CC=C(C=C1)[C@@H]1CC(=O)C2=C(O)C=C(O[C@@H]3O[C@H](CO)[C@@H](O)[C@H](O)[C@H]3O[C@@H]3O[C@@H](C)[C@H](O)[C@@H](O)[C@H]3O)C=C2O1
RETENTIONTIME: 
CCS: 225.5744612
IONMODE: Negative
INSTRUMENTTYPE: LC-ESI-QTOF
INSTRUMENT: 
COLLISIONENERGY: 30
Comment: registered in MassBank
Num Peaks: 3
285.0773	1000
327.0885	56
593.18707	47

NAME: Spiraeoside; LC-ESI-QTOF; MS2; CE
PRECURSORMZ: 463.0882
PRECURSORTYPE: [M-H]-
FORMULA: C21H20O12
Ontology: Flavonoid O-glycosides
INCHIKEY: OIUBYZLTFSLSBY-HMGRVEAOSA-N
SMILES: OC[C@H]1O[C@@H](OC2=C(O)C=C(C=C2)C2=C(O)C(=O)C3=C(O)C=C(O)C=C3O2)[C@H](O)[C@@H](O)[C@@H]1O
RETENTIONTIME: 
CCS: 218.6169489
IONMODE: Negative
INSTRUMENTTYPE: LC-ESI-QTOF
INSTRUMENT: 
COLLISIONENERGY: 
Comment: registered in MassBank
Num Peaks: 7
107.0145	114
121.0301	98
151.004	453
178.9991	183
300.02869	229
301.03629	1000
463.08771	328

NAME: Syringetin-3-O-galactoside; LC-ESI-QTOF; MS2; CE
PRECURSORMZ: 507.114414
PRECURSORTYPE: [M-H]-
FORMULA: C23H24O13
Ontology: Flavonoid-3-O-glycosides
INCHIKEY: JMFWYRWPJVEZPV-UOCKATJYSA-N
SMILES: COC1=CC(=CC(OC)=C1O)C1=C(O[C@@H]2O[C@H](CO)[C@H](O)[C@H](O)[C@H]2O)C(=O)C2=C(O)C=C(O)C=C2O1
RETENTIONTIME: 
CCS: 231.2672196
IONMODE: Negative
INSTRUMENTTYPE: LC-ESI-QTOF
INSTRUMENT: 
COLLISIONENERGY: 
Comment: registered in MassBank
Num Peaks: 16
230.0242	53
241.017	95
242.0246	230
258.01959	214
270.02051	84
272.03571	52
273.04321	241
286.0148	146
287.05551	67
301.039	217
315.03339	51
316.06119	79
329.03439	124
344.05609	540
345.06549	119
507.11389	1000

NAME: Syringetin-3-O-galactoside; LC-ESI-QTOF; MS2; CE
PRECURSORMZ: 507.114414
PRECURSORTYPE: [M-H]-
FORMULA: C23H24O13
Ontology: Flavonoid-3-O-glycosides
INCHIKEY: JMFWYRWPJVEZPV-UOCKATJYSA-N
SMILES: COC1=CC(=CC(OC)=C1O)C1=C(O[C@@H]2O[C@H](CO)[C@H](O)[C@H](O)[C@H]2O)C(=O)C2=C(O)C=C(O)C=C2O1
RETENTIONTIME: 
CCS: 231.2672196
IONMODE: Negative
INSTRUMENTTYPE: LC-ESI-QTOF
INSTRUMENT: 
COLLISIONENERGY: 30
Comment: registered in MassBank
Num Peaks: 16
241.015	57
242.022	101
258.0174	77
269.00931	57
270.01709	64
273.04071	594
286.01321	60
287.0563	126
301.03549	465
315.03949	84
316.05951	253
329.03101	277
330.0394	108
344.05399	1000
345.06241	161
507.11389	37

NAME: Syringetin-3-O-glucoside; LC-ESI-QTOF; MS2; CE
PRECURSORMZ: 507.114414
PRECURSORTYPE: [M-H]-
FORMULA: C23H24O13
Ontology: Flavonoid-3-O-glycosides
INCHIKEY: JMFWYRWPJVEZPV-AVGVHVDKSA-N
SMILES: COC1=CC(=CC(OC)=C1O)C1=C(O[C@@H]2O[C@H](CO)[C@@H](O)[C@H](O)[C@H]2O)C(=O)C2=C(O)C=C(O)C=C2O1
RETENTIONTIME: 
CCS: 231.2672196
IONMODE: Negative
INSTRUMENTTYPE: LC-ESI-QTOF
INSTRUMENT: 
COLLISIONENERGY: 
Comment: registered in MassBank
Num Peaks: 15
230.0256	59
241.0172	100
242.02499	248
258.01981	231
270.02069	90
272.03629	54
273.0441	268
286.01569	159
287.05679	72
301.03931	226
316.06339	90
329.03519	141
344.05688	545
345.06699	118
507.11389	1000

NAME: Tiliroside; LC-ESI-QTOF; MS2; CE
PRECURSORMZ: 593.130064
PRECURSORTYPE: [M-H]-
FORMULA: C30H26O13
Ontology: Flavonoid 3-O-p-coumaroyl glycosides
INCHIKEY: DVGGLGXQSFURLP-VWMSDXGPSA-N
SMILES: O[C@@H]1[C@@H](COC(=O)\C=C\C2=CC=C(O)C=C2)O[C@@H](OC2=C(OC3=CC(O)=CC(O)=C3C2=O)C2=CC=C(O)C=C2)[C@H](O)[C@H]1O
RETENTIONTIME: 
CCS: 226.2850981
IONMODE: Negative
INSTRUMENTTYPE: LC-ESI-QTOF
INSTRUMENT: 
COLLISIONENERGY: 
Comment: registered in MassBank
Num Peaks: 5
227.03661	169
255.0318	311
284.0336	555
285.0423	623
593.12952	1000

NAME: Tiliroside; LC-ESI-QTOF; MS2; CE
PRECURSORMZ: 593.130064
PRECURSORTYPE: [M-H]-
FORMULA: C30H26O13
Ontology: Flavonoid 3-O-p-coumaroyl glycosides
INCHIKEY: DVGGLGXQSFURLP-VWMSDXGPSA-N
SMILES: O[C@@H]1[C@@H](COC(=O)\C=C\C2=CC=C(O)C=C2)O[C@@H](OC2=C(OC3=CC(O)=CC(O)=C3C2=O)C2=CC=C(O)C=C2)[C@H](O)[C@H]1O
RETENTIONTIME: 
CCS: 226.2850981
IONMODE: Negative
INSTRUMENTTYPE: LC-ESI-QTOF
INSTRUMENT: 
COLLISIONENERGY: 30
Comment: registered in MassBank
Num Peaks: 9
145.03081	89
151.0036	45
255.0307	107
256.03799	42
257.04959	45
284.03421	986
285.04251	1000
447.09521	38
593.12952	38

NAME: Vitexin; LC-ESI-QTOF; MS2; CE
PRECURSORMZ: 431.09837
PRECURSORTYPE: [M-H]-
FORMULA: C21H20O10
Ontology: Flavonoid 8-C-glycosides
INCHIKEY: SGEWCQFRYRRZDC-VPRICQMDSA-N
SMILES: OC[C@H]1O[C@H]([C@H](O)[C@@H](O)[C@@H]1O)C1=C(O)C=C(O)C2=C1OC(=CC2=O)C1=CC=C(O)C=C1
RETENTIONTIME: 
CCS: 202.3436012
IONMODE: Negative
INSTRUMENTTYPE: LC-ESI-QTOF
INSTRUMENT: 
COLLISIONENERGY: 
Comment: registered in MassBank
Num Peaks: 5
117.0356	189
283.06339	649
311.05759	1000
341.07059	101
431.09781	674

NAME: Vitexin-2''-O-rhamnoside; LC-ESI-QTOF; MS2; CE
PRECURSORMZ: 577.156279
PRECURSORTYPE: [M-H]-
FORMULA: C27H30O14
Ontology: Flavonoid 8-C-glycosides
INCHIKEY: LYGPBZVKGHHTIE-HUBYJIGHSA-N
SMILES: C[C@@H]1O[C@@H](O[C@@H]2[C@@H](O)[C@H](O)[C@@H](CO)O[C@H]2C2=C(O)C=C(O)C3=C2OC(=CC3=O)C2=CC=C(O)C=C2)[C@H](O)[C@H](O)[C@H]1O
RETENTIONTIME: 
CCS: 230.8394309
IONMODE: Negative
INSTRUMENTTYPE: LC-ESI-QTOF
INSTRUMENT: 
COLLISIONENERGY: 
Comment: registered in MassBank
Num Peaks: 6
175.005	57
283.0647	62
293.04819	1000
311.0603	140
413.091	439
577.15582	649

NAME: Hinokitiol; LC-ESI-QTOF; MS2; CE
PRECURSORMZ: 163.076453
PRECURSORTYPE: [M-H]-
FORMULA: C10H12O2
Ontology: Tropolones
INCHIKEY: FUWUEFKEXZQKKA-UHFFFAOYSA-N
SMILES: CC(C)C1=CC(=O)C(O)=CC=C1
RETENTIONTIME: 
CCS: 134.9782903
IONMODE: Negative
INSTRUMENTTYPE: LC-ESI-QTOF
INSTRUMENT: 
COLLISIONENERGY: 
Comment: registered in MassBank
Num Peaks: 4
119.0747	237
145.9212	486
162.927	1000
163.0759	97

NAME: Hinokitiol; LC-ESI-QTOF; MS2; CE
PRECURSORMZ: 163.076453
PRECURSORTYPE: [M-H]-
FORMULA: C10H12O2
Ontology: Tropolones
INCHIKEY: FUWUEFKEXZQKKA-UHFFFAOYSA-N
SMILES: CC(C)C1=CC(=O)C(O)=CC=C1
RETENTIONTIME: 
CCS: 134.9782903
IONMODE: Negative
INSTRUMENTTYPE: LC-ESI-QTOF
INSTRUMENT: 
COLLISIONENERGY: 30
Comment: registered in MassBank
Num Peaks: 3
119.0682	43
145.91319	1000
162.9191	87

NAME: Farnesol; LC-ESI-QTOF; MS2; CE
PRECURSORMZ: 221.191089
PRECURSORTYPE: [M-H]-
FORMULA: C15H26O
Ontology: Sesquiterpenoids
INCHIKEY: CRDAMVZIKSXKFV-YFVJMOTDSA-N
SMILES: CC(C)=CCCC(C)=CCCC(C)=CCO
RETENTIONTIME: 
CCS: 159.0943422
IONMODE: Negative
INSTRUMENTTYPE: LC-ESI-QTOF
INSTRUMENT: 
COLLISIONENERGY: 
Comment: registered in MassBank
Num Peaks: 8
143.92	188
144.91969	125
145.9212	312
160.9231	688
162.925	1000
204.8963	125
205.8968	438
220.905	875

NAME: Methyl Dihydrojasmonate; LC-ESI-QTOF; MS2; CE
PRECURSORMZ: 225.149618
PRECURSORTYPE: [M-H]-
FORMULA: C13H22O3
Ontology: Jasmonic acids
INCHIKEY: KVWWIYGFBYDJQC-UHFFFAOYNA-N
SMILES: CCCCCC1C(CC(=O)OC)CCC1=O
RETENTIONTIME: 
CCS: 165.5650132
IONMODE: Negative
INSTRUMENTTYPE: LC-ESI-QTOF
INSTRUMENT: 
COLLISIONENERGY: 30
Comment: registered in MassBank
Num Peaks: 17
74.9912	677
75.9891	32
76.9708	161
76.9907	129
132.978	32
134.9567	1000
147.8949	65
149.00771	258
150.0112	32
150.99541	290
152.9689	194
164.8958	129
178.9294	710
192.9431	194
193.953	32
208.97791	742
225.0274	32

NAME: N-Acetyl-DL-serine; LC-ESI-QTOF; MS2; CE
PRECURSORMZ: 146.045881
PRECURSORTYPE: [M-H]-
FORMULA: C5H9NO4
Ontology: N-acyl-L-alpha-amino acids
INCHIKEY: JJIHLJJYMXLCOY-UHFFFAOYNA-N
SMILES: CC(O)=NC(CO)C(O)=O
RETENTIONTIME: 
CCS: 129.2874365
IONMODE: Negative
INSTRUMENTTYPE: LC-ESI-QTOF
INSTRUMENT: 
COLLISIONENERGY: 
Comment: registered in MassBank
Num Peaks: 3
74.0271	1000
116.035	625
146.04539	708

NAME: alpha-Methyl-DL-histidine; LC-ESI-QTOF; MS2; CE
PRECURSORMZ: 168.07785
PRECURSORTYPE: [M-H]-
FORMULA: C7H11N3O2
Ontology: Histidine and derivatives
INCHIKEY: HRRYYCWYCMJNGA-UHFFFAOYNA-N
SMILES: CC(N)(CC1=CN=CN1)C(O)=O
RETENTIONTIME: 
CCS: 137.4767283
IONMODE: Negative
INSTRUMENTTYPE: LC-ESI-QTOF
INSTRUMENT: 
COLLISIONENERGY: 
Comment: registered in MassBank
Num Peaks: 8
80.0389	85
81.0468	71
86.0258	112
107.0618	512
122.0723	49
124.0887	110
151.0515	63
168.0773	1000

NAME: 3-Hydroxy-3-methylglutaric acid; LC-ESI-QTOF; MS2; CE
PRECURSORMZ: 161.045547
PRECURSORTYPE: [M-H]-
FORMULA: C6H10O5
Ontology: Hydroxy fatty acids
INCHIKEY: NPOAOTPXWNWTSH-UHFFFAOYSA-N
SMILES: CC(O)(CC(O)=O)CC(O)=O
RETENTIONTIME: 
CCS: 131.1767073
IONMODE: Negative
INSTRUMENTTYPE: LC-ESI-QTOF
INSTRUMENT: 
COLLISIONENERGY: 
Comment: registered in MassBank
Num Peaks: 7
57.036	187
99.045	1000
101.0238	281
143.8891	163
160.8419	685
160.89169	374
161.045	611

NAME: 3-Indoxyl sulfate; LC-ESI-QTOF; MS2; CE
PRECURSORMZ: 212.002302
PRECURSORTYPE: [M-H]-
FORMULA: C8H7NO4S
Ontology: Arylsulfates
INCHIKEY: BXFFHSIDQOFMLE-UHFFFAOYSA-N
SMILES: OS(=O)(=O)OC1=CNC2=CC=CC=C12
RETENTIONTIME: 
CCS: 145.8243931
IONMODE: Negative
INSTRUMENTTYPE: LC-ESI-QTOF
INSTRUMENT: 
COLLISIONENERGY: 
Comment: registered in MassBank
Num Peaks: 4
79.9588	1000
80.9665	529
132.04601	533
212.0018	981

NAME: Gentisic acid; LC-ESI-QTOF; MS2; CE
PRECURSORMZ: 153.019332
PRECURSORTYPE: [M-H]-
FORMULA: C7H6O4
Ontology: Hydroxybenzoic acid derivatives
INCHIKEY: WXTMDXOMEHJXQO-UHFFFAOYSA-N
SMILES: OC(=O)C1=C(O)C=CC(O)=C1
RETENTIONTIME: 
CCS: 125.7083044
IONMODE: Negative
INSTRUMENTTYPE: LC-ESI-QTOF
INSTRUMENT: 
COLLISIONENERGY: 
Comment: registered in MassBank
Num Peaks: 3
108.0218	934
109.0294	1000
153.0188	663

NAME: Methylsuccinic acid; LC-ESI-QTOF; MS2; CE
PRECURSORMZ: 131.034982
PRECURSORTYPE: [M-H]-
FORMULA: C5H8O4
Ontology: Methyl-branched fatty acids
INCHIKEY: WXUAQHNMJWJLTG-UHFFFAOYNA-N
SMILES: CC(CC(O)=O)C(O)=O
RETENTIONTIME: 
CCS: 124.2114518
IONMODE: Negative
INSTRUMENTTYPE: LC-ESI-QTOF
INSTRUMENT: 
COLLISIONENERGY: 
Comment: registered in MassBank
Num Peaks: 2
87.0455	1000
131.0345	498

NAME: Methylsuccinic acid; LC-ESI-QTOF; MS2; CE
PRECURSORMZ: 131.034982
PRECURSORTYPE: [M-H]-
FORMULA: C5H8O4
Ontology: Methyl-branched fatty acids
INCHIKEY: WXUAQHNMJWJLTG-UHFFFAOYNA-N
SMILES: CC(CC(O)=O)C(O)=O
RETENTIONTIME: 
CCS: 124.2114518
IONMODE: Negative
INSTRUMENTTYPE: LC-ESI-QTOF
INSTRUMENT: 
COLLISIONENERGY: 30
Comment: registered in MassBank
Num Peaks: 2
87.0453	1000
131.0345	513

NAME: L-3-Methylhistidine; LC-ESI-QTOF; MS2; CE
PRECURSORMZ: 168.07785
PRECURSORTYPE: [M-H]-
FORMULA: C7H11N3O2
Ontology: Histidine and derivatives
INCHIKEY: JDHILDINMRGULE-LURJTMIESA-N
SMILES: CN1C=NC=C1C[C@H](N)C(O)=O
RETENTIONTIME: 
CCS: 134.3706267
IONMODE: Negative
INSTRUMENTTYPE: LC-ESI-QTOF
INSTRUMENT: 
COLLISIONENERGY: 
Comment: registered in MassBank
Num Peaks: 4
72.0102	101
107.0621	50
151.0513	412
168.0773	1000

NAME: D-(+)-Glyceric acid; LC-ESI-QTOF; MS2; CE
PRECURSORMZ: 105.019332
PRECURSORTYPE: [M-H]-
FORMULA: C3H6O4
Ontology: Sugar acids and derivatives
INCHIKEY: RBNPOMFGQQGHHO-UWTATZPHSA-N
SMILES: OC[C@@H](O)C(O)=O
RETENTIONTIME: 
CCS: 120.699586
IONMODE: Negative
INSTRUMENTTYPE: LC-ESI-QTOF
INSTRUMENT: 
COLLISIONENERGY: 
Comment: registered in MassBank
Num Peaks: 3
72.994	95
75.0098	122
105.0188	1000

NAME: DL-5-Hydroxylysine; LC-ESI-QTOF; MS2; CE
PRECURSORMZ: 161.093166
PRECURSORTYPE: [M-H]-
FORMULA: C6H14N2O3
Ontology: Alpha amino acids
INCHIKEY: YSMODUONRAFBET-UHFFFAOYNA-N
SMILES: NCC(O)CCC(N)C(O)=O
RETENTIONTIME: 
CCS: 130.4429096
IONMODE: Negative
INSTRUMENTTYPE: LC-ESI-QTOF
INSTRUMENT: 
COLLISIONENERGY: 
Comment: registered in MassBank
Num Peaks: 7
115.0874	108
125.0718	54
143.08231	138
143.8905	171
160.843	150
160.89259	408
161.09261	1000

NAME: DL-3-Aminoisobutyric acid; LC-ESI-QTOF; MS2; CE
PRECURSORMZ: 102.056052
PRECURSORTYPE: [M-H]-
FORMULA: C4H9NO2
Ontology: Beta amino acids and derivatives
INCHIKEY: QCHPKSFMDHPSNR-UHFFFAOYNA-N
SMILES: CC(CN)C(O)=O
RETENTIONTIME: 
CCS: 124.7120496
IONMODE: Negative
INSTRUMENTTYPE: LC-ESI-QTOF
INSTRUMENT: 
COLLISIONENERGY: 
Comment: registered in MassBank
Num Peaks: 2
73.0306	300
102.0555	1000

NAME: DL-3-(4-Hydroxyphenyl)lactic acid; LC-ESI-QTOF; MS2; CE
PRECURSORMZ: 181.050632
PRECURSORTYPE: [M-H]-
FORMULA: C9H10O4
Ontology: Phenylpropanoic acids
INCHIKEY: JVGVDSSUAVXRDY-UHFFFAOYNA-N
SMILES: OC(CC1=CC=C(O)C=C1)C(O)=O
RETENTIONTIME: 
CCS: 137.895121
IONMODE: Negative
INSTRUMENTTYPE: LC-ESI-QTOF
INSTRUMENT: 
COLLISIONENERGY: 
Comment: registered in MassBank
Num Peaks: 7
72.994	158
119.0507	486
134.037	217
135.0452	753
163.03979	829
180.85851	90
181.05009	1000

NAME: O-Phosphoethanolamine; LC-ESI-QTOF; MS2; CE
PRECURSORMZ: 140.011818
PRECURSORTYPE: [M-H]-
FORMULA: C2H8NO4P
Ontology: Phosphoethanolamines
INCHIKEY: SUHOOTKUPISOBE-UHFFFAOYSA-N
SMILES: NCCOP(O)(O)=O
RETENTIONTIME: 
CCS: 127.3610588
IONMODE: Negative
INSTRUMENTTYPE: LC-ESI-QTOF
INSTRUMENT: 
COLLISIONENERGY: 
Comment: registered in MassBank
Num Peaks: 2
78.9599	1000
140.01131	123

NAME: 2-Hydroxyisocaproic acid; LC-ESI-QTOF; MS2; CE
PRECURSORMZ: 131.071368
PRECURSORTYPE: [M-H]-
FORMULA: C6H12O3
Ontology: Hydroxy fatty acids
INCHIKEY: LVRFTAZAXQPQHI-UHFFFAOYNA-N
SMILES: CC(C)CC(O)C(O)=O
RETENTIONTIME: 
CCS: 129.5049672
IONMODE: Negative
INSTRUMENTTYPE: LC-ESI-QTOF
INSTRUMENT: 
COLLISIONENERGY: 
Comment: registered in MassBank
Num Peaks: 3
69.0359	64
85.0667	803
131.0708	1000

NAME: 1,3-Dihydroxyacetone dimer; LC-ESI-QTOF; MS2; CE
PRECURSORMZ: 179.056112
PRECURSORTYPE: [M-H]-
FORMULA: C6H12O6
Ontology: 1,4-dioxanes
INCHIKEY: KEQUNHIAUQQPAC-UHFFFAOYNA-N
SMILES: OCC1(O)COC(O)(CO)CO1
RETENTIONTIME: 
CCS: 138.0714761
IONMODE: Negative
INSTRUMENTTYPE: LC-ESI-QTOF
INSTRUMENT: 
COLLISIONENERGY: 
Comment: registered in MassBank
Num Peaks: 8
118.9434	42
135.0446	83
145.9557	42
148.9621	42
161.95171	208
162.9612	42
178.9324	1000
178.991	42

NAME: L-Anserine; LC-ESI-QTOF; MS2; CE
PRECURSORMZ: 239.114964
PRECURSORTYPE: [M-H]-
FORMULA: C10H16N4O3
Ontology: Hybrid peptides
INCHIKEY: MYYIAHXIVFADCU-QMMMGPOBSA-N
SMILES: CN1C=NC=C1C[C@H](N=C(O)CCN)C(O)=O
RETENTIONTIME: 
CCS: 154.6201649
IONMODE: Negative
INSTRUMENTTYPE: LC-ESI-QTOF
INSTRUMENT: 
COLLISIONENERGY: 
Comment: registered in MassBank
Num Peaks: 7
151.0507	144
164.89549	166
166.09869	229
168.07719	1000
223.0287	279
238.91499	98
239.1144	738

NAME: DL-4-Hydroxy-3-methoxymandelic acid; LC-ESI-QTOF; MS2; CE
PRECURSORMZ: 197.045547
PRECURSORTYPE: [M-H]-
FORMULA: C9H10O5
Ontology: Methoxyphenols
INCHIKEY: CGQCWMIAEPEHNQ-UHFFFAOYNA-N
SMILES: COC1=C(O)C=CC(=C1)C(O)C(O)=O
RETENTIONTIME: 
CCS: 139.8955774
IONMODE: Negative
INSTRUMENTTYPE: LC-ESI-QTOF
INSTRUMENT: 
COLLISIONENERGY: 
Comment: registered in MassBank
Num Peaks: 3
137.0244	1000
138.0318	439
197.045	438

NAME: 2-Methylglutaric acid; LC-ESI-QTOF; MS2; CE
PRECURSORMZ: 145.050632
PRECURSORTYPE: [M-H]-
FORMULA: C6H10O4
Ontology: Methyl-branched fatty acids
INCHIKEY: AQYCMVICBNBXNA-UHFFFAOYNA-N
SMILES: CC(CCC(O)=O)C(O)=O
RETENTIONTIME: 
CCS: 129.4696148
IONMODE: Negative
INSTRUMENTTYPE: LC-ESI-QTOF
INSTRUMENT: 
COLLISIONENERGY: 
Comment: registered in MassBank
Num Peaks: 3
83.0503	133
101.0606	1000
145.05009	606

NAME: Cysteine S-sulfate; LC-ESI-QTOF; MS2; CE
PRECURSORMZ: 199.969287
PRECURSORTYPE: [M-H]-
FORMULA: C3H7NO5S2
Ontology: S-sulfo-L-cysteines
INCHIKEY: NOKPBJYHPHHWAN-REOHCLBHSA-N
SMILES: N[C@@H](CSS(O)(=O)=O)C(O)=O
RETENTIONTIME: 
CCS: 136.0886224
IONMODE: Negative
INSTRUMENTTYPE: LC-ESI-QTOF
INSTRUMENT: 
COLLISIONENERGY: 
Comment: registered in MassBank
Num Peaks: 7
74.0082	544
79.9581	79
80.966	1000
112.9376	254
120.0123	360
136.0072	730
199.9688	710

NAME: Xanthosine; LC-ESI-QTOF; MS2; CE
PRECURSORMZ: 283.068408
PRECURSORTYPE: [M-H]-
FORMULA: C10H12N4O6
Ontology: Purine nucleosides
INCHIKEY: UBORTCNDUKBEOP-UUOKFMHZSA-N
SMILES: OC[C@H]1O[C@H]([C@H](O)[C@@H]1O)N1C=NC2=C1N=C(O)N=C2O
RETENTIONTIME: 
CCS: 160.642472
IONMODE: Negative
INSTRUMENTTYPE: LC-ESI-QTOF
INSTRUMENT: 
COLLISIONENERGY: 
Comment: registered in MassBank
Num Peaks: 3
108.0205	194
151.02589	1000
283.0679	211

NAME: 2-Hydroxyphenylacetic acid; LC-ESI-QTOF; MS2; CE
PRECURSORMZ: 151.040068
PRECURSORTYPE: [M-H]-
FORMULA: C8H8O3
Ontology: 2(hydroxyphenyl)acetic acids
INCHIKEY: CCVYRRGZDBSHFU-UHFFFAOYSA-N
SMILES: OC(=O)CC1=CC=CC=C1O
RETENTIONTIME: 
CCS: 128.5668077
IONMODE: Negative
INSTRUMENTTYPE: LC-ESI-QTOF
INSTRUMENT: 
COLLISIONENERGY: 
Comment: registered in MassBank
Num Peaks: 2
107.0497	1000
151.03951	104

NAME: N-Acetyl-DL-aspartic acid; LC-ESI-QTOF; MS2; CE
PRECURSORMZ: 174.040796
PRECURSORTYPE: [M-H]-
FORMULA: C6H9NO5
Ontology: Aspartic acid and derivatives
INCHIKEY: OTCCIMWXFLJLIA-UHFFFAOYNA-N
SMILES: CC(O)=NC(CC(O)=O)C(O)=O
RETENTIONTIME: 
CCS: 132.332046
IONMODE: Negative
INSTRUMENTTYPE: LC-ESI-QTOF
INSTRUMENT: 
COLLISIONENERGY: 
Comment: registered in MassBank
Num Peaks: 7
58.031	64
88.0404	1000
114.0202	172
115.0037	121
130.0506	236
156.0298	76
174.0403	516

NAME: Methyl 5-chloro-5-oxovalerate; LC-ESI-QTOF; MS2; CE
PRECURSORMZ: 163.016745
PRECURSORTYPE: [M-H]-
FORMULA: C6H9ClO3
Ontology: Fatty acid methyl esters
INCHIKEY: JCAZSWWHFJVFPP-UHFFFAOYSA-N
SMILES: COC(=O)CCCC(Cl)=O
RETENTIONTIME: 
CCS: -1
IONMODE: Negative
INSTRUMENTTYPE: LC-ESI-QTOF
INSTRUMENT: 
COLLISIONENERGY: 
Comment: registered in MassBank
Num Peaks: 2
145.8568	450
162.8555	1000

NAME: Methyl 5-chloro-5-oxovalerate; LC-ESI-QTOF; MS2; CE
PRECURSORMZ: 163.016745
PRECURSORTYPE: [M-H]-
FORMULA: C6H9ClO3
Ontology: Fatty acid methyl esters
INCHIKEY: JCAZSWWHFJVFPP-UHFFFAOYSA-N
SMILES: COC(=O)CCCC(Cl)=O
RETENTIONTIME: 
CCS: -1
IONMODE: Negative
INSTRUMENTTYPE: LC-ESI-QTOF
INSTRUMENT: 
COLLISIONENERGY: 30
Comment: registered in MassBank
Num Peaks: 2
145.83051	1000
162.8287	99

NAME: Glycyl-L-proline; LC-ESI-QTOF; MS2; CE
PRECURSORMZ: 171.077516
PRECURSORTYPE: [M-H]-
FORMULA: C7H12N2O3
Ontology: Dipeptides
INCHIKEY: KZNQNBZMBZJQJO-YFKPBYRVSA-N
SMILES: NCC(=O)N1CCC[C@H]1C(O)=O
RETENTIONTIME: 
CCS: 140.2781692
IONMODE: Negative
INSTRUMENTTYPE: LC-ESI-QTOF
INSTRUMENT: 
COLLISIONENERGY: 
Comment: registered in MassBank
Num Peaks: 4
98.0618	48
114.0558	1000
127.0878	160
171.077	920

NAME: N-Tigloylglycine; LC-ESI-QTOF; MS2; CE
PRECURSORMZ: 156.066617
PRECURSORTYPE: [M-H]-
FORMULA: C7H11NO3
Ontology: N-acyl-alpha amino acids
INCHIKEY: WRUSVQOKJIDBLP-HWKANZROSA-N
SMILES: C\C=C(/C)C(O)=NCC(O)=O
RETENTIONTIME: 
CCS: 134.7958912
IONMODE: Negative
INSTRUMENTTYPE: LC-ESI-QTOF
INSTRUMENT: 
COLLISIONENERGY: 
Comment: registered in MassBank
Num Peaks: 5
74.0258	174
96.0463	87
110.0617	63
112.0772	422
156.0661	1000

NAME: (-)-Riboflavin; LC-ESI-QTOF; MS2; CE
PRECURSORMZ: 375.131008
PRECURSORTYPE: [M-H]-
FORMULA: C17H20N4O6
Ontology: Flavins
INCHIKEY: AUNGANRZJHBGPY-SCRDCRAPSA-N
SMILES: CC1=CC2=C(C=C1C)N(C[C@H](O)[C@H](O)[C@H](O)CO)C1=NC(=O)N=C(O)C1=N2
RETENTIONTIME: 
CCS: 184.524568
IONMODE: Negative
INSTRUMENTTYPE: LC-ESI-QTOF
INSTRUMENT: 
COLLISIONENERGY: 
Comment: registered in MassBank
Num Peaks: 5
212.0835	212
241.07359	128
243.0878	52
255.0891	1000
375.13049	178

NAME: DL-2-Hydroxyvaleric acid; LC-ESI-QTOF; MS2; CE
PRECURSORMZ: 117.055718
PRECURSORTYPE: [M-H]-
FORMULA: C5H10O3
Ontology: Hydroxy fatty acids
INCHIKEY: JRHWHSJDIILJAT-UHFFFAOYNA-N
SMILES: CCCC(O)C(O)=O
RETENTIONTIME: 
CCS: 121.8826822
IONMODE: Negative
INSTRUMENTTYPE: LC-ESI-QTOF
INSTRUMENT: 
COLLISIONENERGY: 
Comment: registered in MassBank
Num Peaks: 3
71.0507	631
116.9296	39
117.0552	1000

NAME: D-(+)-Pantothenic acid; LC-ESI-QTOF; MS2; CE
PRECURSORMZ: 218.103396
PRECURSORTYPE: [M-H]-
FORMULA: C9H17NO5
Ontology: Secondary alcohols
INCHIKEY: GHOKWGTUZJEAQD-ZETCQYMHSA-N
SMILES: CC(C)(CO)[C@@H](O)C(O)=NCCC(O)=O
RETENTIONTIME: 
CCS: 149.1912323
IONMODE: Negative
INSTRUMENTTYPE: LC-ESI-QTOF
INSTRUMENT: 
COLLISIONENERGY: 
Comment: registered in MassBank
Num Peaks: 6
71.0156	83
71.0512	266
88.0407	1000
99.0457	88
146.0816	612
218.10291	520

NAME: 1,6-Anhydro-beta-D-glucose; LC-ESI-QTOF; MS2; CE
PRECURSORMZ: 161.045547
PRECURSORTYPE: [M-H]-
FORMULA: C6H10O5
Ontology: Oxepanes
INCHIKEY: TWNIBLMWSKIRAT-VFUOTHLCSA-N
SMILES: O[C@@H]1[C@H]2CO[C@H](O2)[C@H](O)[C@H]1O
RETENTIONTIME: 
CCS: 127.7808468
IONMODE: Negative
INSTRUMENTTYPE: LC-ESI-QTOF
INSTRUMENT: 
COLLISIONENERGY: 30
Comment: registered in MassBank
Num Peaks: 2
143.89169	1000
160.8933	56

NAME: Oxypurinol; LC-ESI-QTOF; MS2; CE
PRECURSORMZ: 151.026149
PRECURSORTYPE: [M-H]-
FORMULA: C5H4N4O2
Ontology: Xanthines
INCHIKEY: HXNFUBHNUDHIGC-UHFFFAOYSA-N
SMILES: OC1=NC(=O)N=C2NNC=C12
RETENTIONTIME: 
CCS: 125.599397
IONMODE: Negative
INSTRUMENTTYPE: LC-ESI-QTOF
INSTRUMENT: 
COLLISIONENERGY: 
Comment: registered in MassBank
Num Peaks: 2
108.0215	74
151.0256	1000

NAME: trans-Aconitic acid; LC-ESI-QTOF; MS2; CE
PRECURSORMZ: 173.009161
PRECURSORTYPE: [M-H]-
FORMULA: C6H6O6
Ontology: Tricarboxylic acids and derivatives
INCHIKEY: GTZCVFVGUGFEME-HNQUOIGGSA-N
SMILES: OC(=O)C\C(=C/C(O)=O)C(O)=O
RETENTIONTIME: 
CCS: 129.6078048
IONMODE: Negative
INSTRUMENTTYPE: LC-ESI-QTOF
INSTRUMENT: 
COLLISIONENERGY: 
Comment: registered in MassBank
Num Peaks: 2
85.0291	1000
129.01649	273

NAME: Dulcitol; LC-ESI-QTOF; MS2; CE
PRECURSORMZ: 181.071762
PRECURSORTYPE: [M-H]-
FORMULA: C6H14O6
Ontology: Sugar alcohols
INCHIKEY: FBPFZTCFMRRESA-UHFFFAOYNA-N
SMILES: OCC(O)C(O)C(O)C(O)CO
RETENTIONTIME: 
CCS: 132.9250301
IONMODE: Negative
INSTRUMENTTYPE: LC-ESI-QTOF
INSTRUMENT: 
COLLISIONENERGY: 
Comment: registered in MassBank
Num Peaks: 11
59.0155	143
71.0151	390
73.03	69
83.016	58
85.0303	97
89.0252	162
101.0246	691
113.0239	54
119.0352	73
163.06129	124
181.0712	1000

NAME: Kynurenic acid; LC-ESI-QTOF; MS2; CE
PRECURSORMZ: 188.035317
PRECURSORTYPE: [M-H]-
FORMULA: C10H7NO3
Ontology: Quinoline carboxylic acids
INCHIKEY: HCZHHEIFKROPDY-UHFFFAOYSA-N
SMILES: OC(=O)C1=CC(=O)C2=CC=CC=C2N1
RETENTIONTIME: 
CCS: 137.578899
IONMODE: Negative
INSTRUMENTTYPE: LC-ESI-QTOF
INSTRUMENT: 
COLLISIONENERGY: 
Comment: registered in MassBank
Num Peaks: 2
144.0444	1000
188.03481	87

NAME: Phosphocholine; LC-ESI-QTOF; MS2; CE
PRECURSORMZ: 182.058219
PRECURSORTYPE: [M-2H]-
FORMULA: C5H15NO4P
Ontology: Phosphocholines
INCHIKEY: YHHSONZFOIEMCP-UHFFFAOYSA-O
SMILES: C[N+](C)(C)CCOP(O)(O)=O
RETENTIONTIME: 
CCS: -1
IONMODE: Negative
INSTRUMENTTYPE: LC-ESI-QTOF
INSTRUMENT: 
COLLISIONENERGY: 
Comment: registered in MassBank
Num Peaks: 8
52.9646	167
59.5593	167
65.8643	167
66.3496	167
78.9429	167
81.1398	167
87.5454	167
181.8149	1000

NAME: Glycocyamine; LC-ESI-QTOF; MS2; CE
PRECURSORMZ: 116.04655
PRECURSORTYPE: [M-H]-
FORMULA: C3H7N3O2
Ontology: Alpha amino acids and derivatives
INCHIKEY: BPMFZUMJYQTVII-UHFFFAOYSA-N
SMILES: NC(=N)NCC(O)=O
RETENTIONTIME: 
CCS: 122.8268293
IONMODE: Negative
INSTRUMENTTYPE: LC-ESI-QTOF
INSTRUMENT: 
COLLISIONENERGY: 
Comment: registered in MassBank
Num Peaks: 3
74.0261	1000
115.9213	43
116.046	87

NAME: 1,3-Dimethyluric acid; LC-ESI-QTOF; MS2; CE
PRECURSORMZ: 193.036714
PRECURSORTYPE: [M-H]-
FORMULA: C7H6N4O3
Ontology: Xanthines
INCHIKEY: XNSYLGPLANWBHH-UHFFFAOYSA-N
SMILES: CN1C2=NC(=O)N=C2C(=O)N(C)C1=O
RETENTIONTIME: 
CCS: -1
IONMODE: Negative
INSTRUMENTTYPE: LC-ESI-QTOF
INSTRUMENT: 
COLLISIONENERGY: 
Comment: registered in MassBank
Num Peaks: 5
110.0371	155
137.0235	104
138.0318	123
180.0298	310
195.0518	1000

NAME: 1,3-Dimethyluric acid; LC-ESI-QTOF; MS2; CE
PRECURSORMZ: 193.036714
PRECURSORTYPE: [M-H]-
FORMULA: C7H6N4O3
Ontology: Xanthines
INCHIKEY: XNSYLGPLANWBHH-UHFFFAOYSA-N
SMILES: CN1C2=NC(=O)N=C2C(=O)N(C)C1=O
RETENTIONTIME: 
CCS: -1
IONMODE: Negative
INSTRUMENTTYPE: LC-ESI-QTOF
INSTRUMENT: 
COLLISIONENERGY: 30
Comment: registered in MassBank
Num Peaks: 11
68.0022	140
83.0252	252
94.0047	126
110.0355	937
111.0192	162
121.9998	63
123.0073	252
137.02229	1000
138.03	149
180.02789	333
195.0518	63

NAME: ParaXanthine; LC-ESI-QTOF; MS2; CE
PRECURSORMZ: 179.057449
PRECURSORTYPE: [M-H]-
FORMULA: C7H8N4O2
Ontology: Xanthines
INCHIKEY: QUNWUDVFRNGTCO-UHFFFAOYSA-N
SMILES: CN1C=NC2=C1C(=O)N(C)C(O)=N2
RETENTIONTIME: 
CCS: 136.8254768
IONMODE: Negative
INSTRUMENTTYPE: LC-ESI-QTOF
INSTRUMENT: 
COLLISIONENERGY: 
Comment: registered in MassBank
Num Peaks: 10
107.0114	35
108.0235	59
122.0357	1000
135.0126	35
161.88609	118
162.8907	35
164.0334	212
178.8629	24
178.8889	47
179.0569	988

NAME: 3-Methylxanthine; LC-ESI-QTOF; MS2; CE
PRECURSORMZ: 165.041799
PRECURSORTYPE: [M-H]-
FORMULA: C6H6N4O2
Ontology: Xanthines
INCHIKEY: GMSNIKWWOQHZGF-UHFFFAOYSA-N
SMILES: CN1C2=C(N=CN2)C(O)=NC1=O
RETENTIONTIME: 
CCS: 130.6250655
IONMODE: Negative
INSTRUMENTTYPE: LC-ESI-QTOF
INSTRUMENT: 
COLLISIONENERGY: 
Comment: registered in MassBank
Num Peaks: 8
79.0185	41
94.0422	83
122.0361	346
147.89461	30
149.00999	31
150.0186	170
164.8959	63
165.04131	1000

NAME: DL-3,4-Dihydroxymandelic acid; LC-ESI-QTOF; MS2; CE
PRECURSORMZ: 183.029897
PRECURSORTYPE: [M-H]-
FORMULA: C8H8O5
Ontology: Catechols
INCHIKEY: RGHMISIYKIHAJW-UHFFFAOYNA-N
SMILES: OC(C(O)=O)C1=CC(O)=C(O)C=C1
RETENTIONTIME: 
CCS: 135.0396027
IONMODE: Negative
INSTRUMENTTYPE: LC-ESI-QTOF
INSTRUMENT: 
COLLISIONENERGY: 
Comment: registered in MassBank
Num Peaks: 3
137.0242	1000
139.03999	66
183.0294	305

NAME: 3-Hydroxymandelic acid; LC-ESI-QTOF; MS2; CE
PRECURSORMZ: 167.034982
PRECURSORTYPE: [M-H]-
FORMULA: C8H8O4
Ontology: 1-hydroxy-4-unsubstituted benzenoids
INCHIKEY: OLSDAJRAVOVKLG-UHFFFAOYNA-N
SMILES: OC(C(O)=O)C1=CC(O)=CC=C1
RETENTIONTIME: 
CCS: 138.0367895
IONMODE: Negative
INSTRUMENTTYPE: LC-ESI-QTOF
INSTRUMENT: 
COLLISIONENERGY: 
Comment: registered in MassBank
Num Peaks: 3
121.0287	1000
123.0441	235
167.0345	121

NAME: DL-Mandelic acid; LC-ESI-QTOF; MS2; CE
PRECURSORMZ: 151.040068
PRECURSORTYPE: [M-H]-
FORMULA: C8H8O3
Ontology: Benzene and substituted derivatives
INCHIKEY: IWYDHOAUDWTVEP-UHFFFAOYNA-N
SMILES: OC(C(O)=O)C1=CC=CC=C1
RETENTIONTIME: 
CCS: 128.8584023
IONMODE: Negative
INSTRUMENTTYPE: LC-ESI-QTOF
INSTRUMENT: 
COLLISIONENERGY: 
Comment: registered in MassBank
Num Peaks: 3
107.0502	417
148.9006	24
151.03951	1000

NAME: L-(-)-Mandelic acid; LC-ESI-QTOF; MS2; CE
PRECURSORMZ: 151.040068
PRECURSORTYPE: [M-H]-
FORMULA: C8H8O3
Ontology: Benzene and substituted derivatives
INCHIKEY: IWYDHOAUDWTVEP-SSDOTTSWSA-N
SMILES: O[C@@H](C(O)=O)C1=CC=CC=C1
RETENTIONTIME: 
CCS: 128.8584023
IONMODE: Negative
INSTRUMENTTYPE: LC-ESI-QTOF
INSTRUMENT: 
COLLISIONENERGY: 
Comment: registered in MassBank
Num Peaks: 2
107.0502	409
151.03951	1000

NAME: 4-Pyridoxic acid; LC-ESI-QTOF; MS2; CE
PRECURSORMZ: 182.045881
PRECURSORTYPE: [M-H]-
FORMULA: C8H9NO4
Ontology: Pyridinecarboxylic acids
INCHIKEY: HXACOUQIXZGNBF-UHFFFAOYSA-N
SMILES: CC1=C(O)C(C(O)=O)=C(CO)C=N1
RETENTIONTIME: 
CCS: 135.626139
IONMODE: Negative
INSTRUMENTTYPE: LC-ESI-QTOF
INSTRUMENT: 
COLLISIONENERGY: 
Comment: registered in MassBank
Num Peaks: 3
108.0458	725
138.0558	1000
182.04539	486

NAME: Mucic acid; LC-ESI-QTOF; MS2; CE
PRECURSORMZ: 209.030291
PRECURSORTYPE: [M-H]-
FORMULA: C6H10O8
Ontology: Glucuronic acid derivatives
INCHIKEY: DSLZVSRJTYRBFB-DUHBMQHGNA-N
SMILES: O[C@@H]([C@@H](O)[C@H](O)C(O)=O)[C@@H](O)C(O)=O
RETENTIONTIME: 
CCS: 135.2008683
IONMODE: Negative
INSTRUMENTTYPE: LC-ESI-QTOF
INSTRUMENT: 
COLLISIONENERGY: 
Comment: registered in MassBank
Num Peaks: 7
71.0149	266
72.9944	94
85.0297	1000
133.01131	125
191.01891	172
197.80499	78
209.0298	609

NAME: N-Acetyl-DL-glutamic acid; LC-ESI-QTOF; MS2; CE
PRECURSORMZ: 188.056446
PRECURSORTYPE: [M-H]-
FORMULA: C7H11NO5
Ontology: Glutamic acid and derivatives
INCHIKEY: RFMMMVDNIPUKGG-UHFFFAOYNA-N
SMILES: CC(O)=NC(CCC(O)=O)C(O)=O
RETENTIONTIME: 
CCS: 137.2412138
IONMODE: Negative
INSTRUMENTTYPE: LC-ESI-QTOF
INSTRUMENT: 
COLLISIONENERGY: 
Comment: registered in MassBank
Num Peaks: 7
100.0766	211
102.0561	1000
128.0347	995
144.0657	321
146.0462	96
170.0453	316
188.05589	679

NAME: N-Carbamoyl-DL-aspartic acid; LC-ESI-QTOF; MS2; CE
PRECURSORMZ: 175.036045
PRECURSORTYPE: [M-H]-
FORMULA: C5H8N2O5
Ontology: Aspartic acid and derivatives
INCHIKEY: HLKXYZVTANABHZ-UHFFFAOYNA-N
SMILES: OC(=O)CC(NC(O)=N)C(O)=O
RETENTIONTIME: 
CCS: 130.7802539
IONMODE: Negative
INSTRUMENTTYPE: LC-ESI-QTOF
INSTRUMENT: 
COLLISIONENERGY: 
Comment: registered in MassBank
Num Peaks: 4
88.0422	447
115.0052	121
132.03169	1000
175.03551	53

NAME: D-Tartaric acid; LC-ESI-QTOF; MS2; CE
PRECURSORMZ: 149.009161
PRECURSORTYPE: [M-H]-
FORMULA: C4H6O6
Ontology: Sugar acids and derivatives
INCHIKEY: FEWJPZIEWOKRBE-LWMBPPNESA-N
SMILES: O[C@@H]([C@H](O)C(O)=O)C(O)=O
RETENTIONTIME: 
CCS: 122.508185
IONMODE: Negative
INSTRUMENTTYPE: LC-ESI-QTOF
INSTRUMENT: 
COLLISIONENERGY: 
Comment: registered in MassBank
Num Peaks: 8
59.0158	61
72.9935	303
74.9899	30
87.0094	636
103.0044	61
104.9287	61
148.903	152
149.00861	1000

NAME: 3,5-Dibromo-L-tyrosine; LC-ESI-QTOF; MS2; CE
PRECURSORMZ: 335.887642
PRECURSORTYPE: [M-H]-
FORMULA: C9H9Br2NO3
Ontology: Tyrosine and derivatives
INCHIKEY: COESHZUDRKCEPA-ZETCQYMHSA-N
SMILES: N[C@@H](CC1=CC(Br)=C(O)C(Br)=C1)C(O)=O
RETENTIONTIME: 
CCS: 156.7979205
IONMODE: Negative
INSTRUMENTTYPE: LC-ESI-QTOF
INSTRUMENT: 
COLLISIONENERGY: 
Comment: registered in MassBank
Num Peaks: 4
78.92	1000
261.8645	93
274.8714	188
335.88708	387

NAME: 3-Chloro-L-tyrosine; LC-ESI-QTOF; MS2; CE
PRECURSORMZ: 214.027644
PRECURSORTYPE: [M-H]-
FORMULA: C9H10ClNO3
Ontology: Tyrosine and derivatives
INCHIKEY: ACWBBAGYTKWBCD-ZETCQYMHSA-N
SMILES: N[C@@H](CC1=CC(Cl)=C(O)C=C1)C(O)=O
RETENTIONTIME: 
CCS: 145.6636431
IONMODE: Negative
INSTRUMENTTYPE: LC-ESI-QTOF
INSTRUMENT: 
COLLISIONENERGY: 
Comment: registered in MassBank
Num Peaks: 7
72.0097	143
89.0396	174
117.0339	584
134.0603	93
153.0103	267
197.0006	584
214.0271	1000

NAME: But-3-enylglucosinolate; LC-ESI-QTOF; MS2; CE
PRECURSORMZ: 409.998728
PRECURSORTYPE: [M+K-2H]-
FORMULA: C11H19NO9S2
Ontology: Alkylglucosinolates
INCHIKEY: PLYQBXHVYUJNQB-BZVDQRPCSA-N
SMILES: OC[C@H]1O[C@@H](S\C(CCC=C)=N\OS(O)(=O)=O)[C@H](O)[C@@H](O)[C@@H]1O
RETENTIONTIME: 
CCS: -1
IONMODE: Negative
INSTRUMENTTYPE: LC-ESI-QTOF
INSTRUMENT: 
COLLISIONENERGY: 
Comment: registered in MassBank
Num Peaks: 7
63.9637	200
79.9599	133
95.9541	200
96.9628	133
134.91611	467
247.94501	1000
409.9982	67

NAME: (2R)-2-Hydroxybut-3-enylglucosinolate; LC-ESI-QTOF; MS2; CE
PRECURSORMZ: 425.993642
PRECURSORTYPE: [M+K-2H]-
FORMULA: C11H19NO10S2
Ontology: Alkylglucosinolates
INCHIKEY: MYHSVHWQEVDFQT-KBHNZSCUSA-N
SMILES: OC[C@H]1O[C@@H](S\C(C[C@H](O)C=C)=N/OS(O)(=O)=O)[C@H](O)[C@@H](O)[C@@H]1O
RETENTIONTIME: 
CCS: -1
IONMODE: Negative
INSTRUMENTTYPE: LC-ESI-QTOF
INSTRUMENT: 
COLLISIONENERGY: 
Comment: registered in MassBank
Num Peaks: 15
63.9656	100
71.9916	200
79.953	100
95.9553	100
96.8322	100
96.9578	800
98.9543	100
134.9138	900
135.97411	200
161.9234	100
167.8958	100
207.9108	600
245.9359	100
263.9386	1000
425.9931	100

NAME: (2S)-2-Hydroxybut-3-enylglucosinolate; LC-ESI-QTOF; MS2; CE
PRECURSORMZ: 425.993642
PRECURSORTYPE: [M+K-2H]-
FORMULA: C11H19NO10S2
Ontology: Alkylglucosinolates
INCHIKEY: MYHSVHWQEVDFQT-QSKOKFRPSA-N
SMILES: OC[C@H]1O[C@@H](S\C(C[C@H](O)C=C)=N\OS(O)(=O)=O)[C@H](O)[C@@H](O)[C@@H]1O
RETENTIONTIME: 
CCS: -1
IONMODE: Negative
INSTRUMENTTYPE: LC-ESI-QTOF
INSTRUMENT: 
COLLISIONENERGY: 
Comment: registered in MassBank
Num Peaks: 12
63.9582	182
71.9806	91
74.987	182
95.9418	455
96.951	909
97.9443	91
98.9487	273
134.9032	273
190.8317	455
207.8909	182
263.91861	273
425.9931	1000

NAME: Gluconasturtiin; LC-ESI-QTOF; MS2; CE
PRECURSORMZ: 460.014378
PRECURSORTYPE: [M+K-2H]-
FORMULA: C15H21NO9S2
Ontology: Alkylglucosinolates
INCHIKEY: CKIJIGYDFNXSET-MFIRQCQASA-N
SMILES: OC[C@H]1O[C@@H](S\C(CCC2=CC=CC=C2)=N\OS(O)(=O)=O)[C@H](O)[C@@H](O)[C@@H]1O
RETENTIONTIME: 
CCS: -1
IONMODE: Negative
INSTRUMENTTYPE: LC-ESI-QTOF
INSTRUMENT: 
COLLISIONENERGY: 
Comment: registered in MassBank
Num Peaks: 6
63.9636	240
79.9577	120
96.9582	40
134.91229	600
297.95599	1000
460.01389	40

NAME: Maleic acid; LC-ESI-QTOF; MS2; CE
PRECURSORMZ: 115.003682
PRECURSORTYPE: [M-H]-
FORMULA: C4H4O4
Ontology: Dicarboxylic acids and derivatives
INCHIKEY: VZCYOOQTPOCHFL-UPHRSURJSA-N
SMILES: OC(=O)\C=C/C(O)=O
RETENTIONTIME: 
CCS: 121.1574639
IONMODE: Negative
INSTRUMENTTYPE: LC-ESI-QTOF
INSTRUMENT: 
COLLISIONENERGY: 
Comment: registered in MassBank
Num Peaks: 3
71.0156	1000
114.9329	40
115.0032	440

NAME: D-(+)-Raffinose; LC-ESI-QTOF; MS2; CE
PRECURSORMZ: 503.161759
PRECURSORTYPE: [M-H]-
FORMULA: C18H32O16
Ontology: Oligosaccharides
INCHIKEY: MUPFEKGTMRGPLJ-ZQSKZDJDSA-N
SMILES: OC[C@H]1O[C@@](CO)(O[C@H]2O[C@H](CO[C@H]3O[C@H](CO)[C@H](O)[C@H](O)[C@H]3O)[C@@H](O)[C@H](O)[C@H]2O)[C@@H](O)[C@@H]1O
RETENTIONTIME: 
CCS: 206.4958187
IONMODE: Negative
INSTRUMENTTYPE: LC-ESI-QTOF
INSTRUMENT: 
COLLISIONENERGY: 
Comment: registered in MassBank
Num Peaks: 10
59.016	176
71.0156	373
87.0101	110
89.0256	384
101.0254	387
113.0253	198
161.0463	149
179.05701	578
221.06841	446
503.16119	1000

NAME: alpha-D-Glucose 1-phosphate; LC-ESI-QTOF; MS2; CE
PRECURSORMZ: 259.022442
PRECURSORTYPE: [M-H]-
FORMULA: C6H13O9P
Ontology: Monosaccharide phosphates
INCHIKEY: HXXFSFRBOHSIMQ-VFUOTHLCSA-N
SMILES: OC[C@H]1O[C@H](OP(O)(O)=O)[C@H](O)[C@@H](O)[C@@H]1O
RETENTIONTIME: 
CCS: 146.1664715
IONMODE: Negative
INSTRUMENTTYPE: LC-ESI-QTOF
INSTRUMENT: 
COLLISIONENERGY: 
Comment: registered in MassBank
Num Peaks: 5
78.9599	1000
96.9702	230
138.9801	93
241.0119	151
259.02191	300

NAME: Cyanidin-3-O-rhamnoside; LC-ESI-QTOF; MS2; CE
PRECURSORMZ: 431.097822
PRECURSORTYPE: [M-2H]-
FORMULA: C21H21O10
Ontology: Anthocyanidin-3-O-glycosides
INCHIKEY: USWXMMRFOWNEOR-VWLKIGRWSA-O
SMILES: C[C@@H]1O[C@@H](OC2=C([O+]=C3C=C(O)C=C(O)C3=C2)C2=CC(O)=C(O)C=C2)[C@H](O)[C@H](O)[C@H]1O
RETENTIONTIME: 
CCS: -1
IONMODE: Negative
INSTRUMENTTYPE: LC-ESI-QTOF
INSTRUMENT: 
COLLISIONENERGY: 
Comment: registered in MassBank
Num Peaks: 6
147.0089	186
211.0405	120
255.03059	163
284.0336	915
285.04169	1000
431.09781	722

NAME: Zearalenone; LC-ESI-QTOF; MS2; CE
PRECURSORMZ: 317.139447
PRECURSORTYPE: [M-H]-
FORMULA: C18H22O5
Ontology: Zearalenones
INCHIKEY: MBMQEIFVQACCCH-QBODLPLBSA-N
SMILES: C[C@H]1CCCC(=O)CCC\C=C\C2=CC(O)=CC(O)=C2C(=O)O1
RETENTIONTIME: 
CCS: 182.635361
IONMODE: Negative
INSTRUMENTTYPE: LC-ESI-QTOF
INSTRUMENT: 
COLLISIONENERGY: 
Comment: registered in MassBank
Num Peaks: 9
130.0453	171
131.0527	381
147.0482	107
149.0641	111
160.0201	163
175.0435	321
187.0442	137
273.1557	189
317.13889	1000

NAME: 4-Coumaric acid; LC-ESI-QTOF; MS2; CE
PRECURSORMZ: 163.040068
PRECURSORTYPE: [M-H]-
FORMULA: C9H8O3
Ontology: Hydroxycinnamic acids
INCHIKEY: NGSWKAQJJWESNS-ZZXKWVIFSA-N
SMILES: OC(=O)\C=C\C1=CC=C(O)C=C1
RETENTIONTIME: 
CCS: 132.7145287
IONMODE: Negative
INSTRUMENTTYPE: LC-ESI-QTOF
INSTRUMENT: 
COLLISIONENERGY: 
Comment: registered in MassBank
Num Peaks: 5
101.0121	10
118.9791	10
145.8717	472
162.8717	1000
163.03951	12

NAME: 4-Coumaric acid; LC-ESI-QTOF; MS2; CE
PRECURSORMZ: 163.040068
PRECURSORTYPE: [M-H]-
FORMULA: C9H8O3
Ontology: Hydroxycinnamic acids
INCHIKEY: NGSWKAQJJWESNS-ZZXKWVIFSA-N
SMILES: OC(=O)\C=C\C1=CC=C(O)C=C1
RETENTIONTIME: 
CCS: 132.7145287
IONMODE: Negative
INSTRUMENTTYPE: LC-ESI-QTOF
INSTRUMENT: 
COLLISIONENERGY: 30
Comment: registered in MassBank
Num Peaks: 2
145.9019	1000
162.90581	94

NAME: D-Glucuronic acid; LC-ESI-QTOF; MS2; CE
PRECURSORMZ: 193.035376
PRECURSORTYPE: [M-H]-
FORMULA: C6H10O7
Ontology: Glucuronic acid derivatives
INCHIKEY: AEMOLEFTQBMNLQ-AQKNRBDQSA-N
SMILES: OC1O[C@@H]([C@@H](O)[C@H](O)[C@H]1O)C(O)=O
RETENTIONTIME: 
CCS: 132.9513007
IONMODE: Negative
INSTRUMENTTYPE: LC-ESI-QTOF
INSTRUMENT: 
COLLISIONENERGY: 
Comment: registered in MassBank
Num Peaks: 12
59.016	345
71.0157	681
72.9947	824
73.031	311
85.0303	597
89.0246	160
95.0144	160
101.025	319
103.0044	286
113.0249	1000
131.036	252
193.0349	513

NAME: DL-Glyceric acid; LC-ESI-QTOF; MS2; CE
PRECURSORMZ: 105.019332
PRECURSORTYPE: [M-H]-
FORMULA: C3H6O4
Ontology: Sugar acids and derivatives
INCHIKEY: RBNPOMFGQQGHHO-UHFFFAOYNA-N
SMILES: OCC(O)C(O)=O
RETENTIONTIME: 
CCS: 120.699586
IONMODE: Negative
INSTRUMENTTYPE: LC-ESI-QTOF
INSTRUMENT: 
COLLISIONENERGY: 
Comment: registered in MassBank
Num Peaks: 3
72.9937	95
75.0082	95
105.0188	1000

NAME: Adenosine 3'-monophosphate; LC-ESI-QTOF; MS2; CE
PRECURSORMZ: 346.055808
PRECURSORTYPE: [M-H]-
FORMULA: C10H14N5O7P
Ontology: Ribonucleoside 3'-phosphates
INCHIKEY: LNQVTSROQXJCDD-KQYNXXCUSA-N
SMILES: NC1=C2N=CN([C@@H]3O[C@H](CO)[C@@H](OP(O)(O)=O)[C@H]3O)C2=NC=N1
RETENTIONTIME: 
CCS: 169.5964052
IONMODE: Negative
INSTRUMENTTYPE: LC-ESI-QTOF
INSTRUMENT: 
COLLISIONENERGY: 
Comment: registered in MassBank
Num Peaks: 5
78.9602	1000
96.9704	259
134.0473	572
211.0013	956
346.0553	491

NAME: Arachidonic acid; LC-ESI-QTOF; MS2; CE
PRECURSORMZ: 303.232954
PRECURSORTYPE: [M-H]-
FORMULA: C20H32O2
Ontology: Long-chain fatty acids
INCHIKEY: YZXBAPSDXZZRGB-DOFZRALJSA-N
SMILES: CCCCC\C=C/C\C=C/C\C=C/C\C=C/CCCC(O)=O
RETENTIONTIME: 
CCS: 183.124838
IONMODE: Negative
INSTRUMENTTYPE: LC-ESI-QTOF
INSTRUMENT: 
COLLISIONENERGY: 
Comment: registered in MassBank
Num Peaks: 8
156.8889	333
159.8858	833
160.8858	1000
161.8904	167
162.88789	500
234.9044	333
272.785	333
302.77441	667

NAME: Quercetin-3-D-xyloside; LC-ESI-QTOF; MS2; CE
PRECURSORMZ: 433.077635
PRECURSORTYPE: [M-H]-
FORMULA: C20H18O11
Ontology: Flavonoid-3-O-glycosides
INCHIKEY: PZZRDJXEMZMZFD-BWYUNELBSA-N
SMILES: O[C@@H]1CO[C@@H](OC2=C(OC3=CC(O)=CC(O)=C3C2=O)C2=CC(O)=C(O)C=C2)[C@H](O)[C@H]1O
RETENTIONTIME: 
CCS: 215.6517048
IONMODE: Negative
INSTRUMENTTYPE: LC-ESI-QTOF
INSTRUMENT: 
COLLISIONENERGY: 
Comment: registered in MassBank
Num Peaks: 10
151.0056	120
179.0009	59
199.0434	51
227.0377	80
243.0329	233
255.0331	369
271.02759	767
300.03	1000
301.03909	590
433.07709	704

NAME: L-Citrulline; LC-ESI-QTOF; MS2; CE
PRECURSORMZ: 174.088415
PRECURSORTYPE: [M-H]-
FORMULA: C6H13N3O3
Ontology: L-alpha-amino acids
INCHIKEY: RHGKLRLOHDJJDR-BYPYZUCNSA-N
SMILES: N[C@@H](CCCNC(O)=N)C(O)=O
RETENTIONTIME: 
CCS: 135.3693852
IONMODE: Negative
INSTRUMENTTYPE: LC-ESI-QTOF
INSTRUMENT: 
COLLISIONENERGY: 
Comment: registered in MassBank
Num Peaks: 2
131.082	1000
174.08791	50

NAME: Galactinol; LC-ESI-QTOF; MS2; CE
PRECURSORMZ: 341.108935
PRECURSORTYPE: [M-H]-
FORMULA: C12H22O11
Ontology: O-glycosyl compounds
INCHIKEY: VCWMRQDBPZKXKG-DXNLKLAMSA-N
SMILES: OC[C@H]1O[C@H](O[C@H]2[C@@H](O)[C@@H](O)[C@H](O)[C@@H](O)[C@@H]2O)[C@H](O)[C@@H](O)[C@H]1O
RETENTIONTIME: 
CCS: 173.6643073
IONMODE: Negative
INSTRUMENTTYPE: LC-ESI-QTOF
INSTRUMENT: 
COLLISIONENERGY: 
Comment: registered in MassBank
Num Peaks: 15
59.0154	282
71.0151	534
73.031	62
85.0302	170
87.0093	207
89.0248	445
97.03	52
101.0247	519
113.0246	209
119.0352	112
125.0248	86
143.0347	126
161.0452	401
179.0563	601
341.1084	1000

NAME: D-(+)-Melezitose; LC-ESI-QTOF; MS2; CE
PRECURSORMZ: 503.161759
PRECURSORTYPE: [M-H]-
FORMULA: C18H32O16
Ontology: Oligosaccharides
INCHIKEY: QWIZNVHXZXRPDR-WSCXOGSTSA-N
SMILES: OC[C@H]1O[C@@](CO)(O[C@H]2O[C@H](CO)[C@@H](O)[C@H](O)[C@H]2O)[C@@H](O[C@H]2O[C@H](CO)[C@@H](O)[C@H](O)[C@H]2O)[C@@H]1O
RETENTIONTIME: 
CCS: 206.2594522
IONMODE: Negative
INSTRUMENTTYPE: LC-ESI-QTOF
INSTRUMENT: 
COLLISIONENERGY: 
Comment: registered in MassBank
Num Peaks: 12
59.0161	198
71.0158	361
89.0257	351
101.0256	576
113.0255	365
119.036	148
131.0363	165
143.0363	126
161.0468	140
179.0578	253
323.1015	470
503.16119	1000

NAME: D-(-)-Mannitol; LC-ESI-QTOF; MS2; CE
PRECURSORMZ: 181.071762
PRECURSORTYPE: [M-H]-
FORMULA: C6H14O6
Ontology: Sugar alcohols
INCHIKEY: FBPFZTCFMRRESA-KVTDHHQDSA-N
SMILES: OC[C@@H](O)[C@@H](O)[C@H](O)[C@H](O)CO
RETENTIONTIME: 
CCS: 132.9250301
IONMODE: Negative
INSTRUMENTTYPE: LC-ESI-QTOF
INSTRUMENT: 
COLLISIONENERGY: 
Comment: registered in MassBank
Num Peaks: 10
59.0155	157
71.015	562
73.0307	86
85.0297	105
89.0247	262
101.0247	471
113.0245	57
119.0359	76
163.0605	124
181.0712	1000

NAME: Galactinol; LC-ESI-QTOF; MS2; CE
PRECURSORMZ: 341.108935
PRECURSORTYPE: [M-H]-
FORMULA: C12H22O11
Ontology: O-glycosyl compounds
INCHIKEY: VCWMRQDBPZKXKG-DXNLKLAMSA-N
SMILES: OC[C@H]1O[C@H](O[C@H]2[C@@H](O)[C@@H](O)[C@H](O)[C@@H](O)[C@@H]2O)[C@H](O)[C@@H](O)[C@H]1O
RETENTIONTIME: 
CCS: 173.6643073
IONMODE: Negative
INSTRUMENTTYPE: LC-ESI-QTOF
INSTRUMENT: 
COLLISIONENERGY: 
Comment: registered in MassBank
Num Peaks: 12
59.0154	296
71.0153	509
85.0303	171
87.0095	216
89.025	446
101.025	535
113.0249	204
119.0351	109
143.0351	128
161.04559	420
179.0563	593
341.1084	1000

NAME: Folic acid; LC-ESI-QTOF; MS2; CE
PRECURSORMZ: 440.132405
PRECURSORTYPE: [M-H]-
FORMULA: C19H19N7O6
Ontology: Glutamic acid and derivatives
INCHIKEY: OVBPIULPVIDEAO-LBPRGKRZSA-N
SMILES: OC(=O)CC[C@H](NC(=O)C1=CC=C(NCC2=NC3=C(NC(=N)N=C3O)N=C2)C=C1)C(O)=O
RETENTIONTIME: 
CCS: 194.849157
IONMODE: Negative
INSTRUMENTTYPE: LC-ESI-QTOF
INSTRUMENT: 
COLLISIONENERGY: 
Comment: registered in MassBank
Num Peaks: 8
132.0442	443
175.0497	443
195.8123	228
197.8094	241
199.80859	114
311.09079	456
396.14389	177
440.1319	1000

NAME: Peonidin; LC-ESI-QTOF; MS2; CE
PRECURSORMZ: 299.055563
PRECURSORTYPE: [M-2H]-
FORMULA: C16H13O6
Ontology: 3'-O-methylated flavonoids
INCHIKEY: XFDQJKDGGOEYPI-UHFFFAOYSA-O
SMILES: COC1=C(O)C=CC(=C1)C1=C(O)C=C2C(O)=CC(O)=CC2=[O+]1
RETENTIONTIME: 
CCS: -1
IONMODE: Negative
INSTRUMENTTYPE: LC-ESI-QTOF
INSTRUMENT: 
COLLISIONENERGY: 
Comment: registered in MassBank
Num Peaks: 9
134.9682	194
151.0029	278
207.02811	250
208.9967	111
256.06201	83
266.9895	250
283.02249	556
284.0571	167
299.0556	1000

NAME: Delphinidin; LC-ESI-QTOF; MS2; CE
PRECURSORMZ: 301.034828
PRECURSORTYPE: [M-2H]-
FORMULA: C15H11O7
Ontology: 7-hydroxyflavonoids
INCHIKEY: JKHRCGUTYDNCLE-UHFFFAOYSA-O
SMILES: OC1=CC2=[O+]C(=C(O)C=C2C(O)=C1)C1=CC(O)=C(O)C(O)=C1
RETENTIONTIME: 
CCS: -1
IONMODE: Negative
INSTRUMENTTYPE: LC-ESI-QTOF
INSTRUMENT: 
COLLISIONENERGY: 
Comment: registered in MassBank
Num Peaks: 9
156.89931	364
160.894	273
208.9769	182
268.95169	182
283.0015	636
284.9957	364
300.7894	364
300.9888	182
301.03491	1000

NAME: Cyanidin-3-O-alpha-arabinopyranoside; LC-ESI-QTOF; MS2; CE
PRECURSORMZ: 417.082172
PRECURSORTYPE: [M-2H]-
FORMULA: C20H19O10
Ontology: Flavonoid-3-O-glycosides
INCHIKEY: KUCVMQMKRICXJC-DEYWJSPQSA-O
SMILES: O[C@H]1CO[C@@H](OC2=C([O+]=C3C=C(O)C=C(O)C3=C2)C2=CC(O)=C(O)C=C2)[C@H](O)[C@H]1O
RETENTIONTIME: 
CCS: -1
IONMODE: Negative
INSTRUMENTTYPE: LC-ESI-QTOF
INSTRUMENT: 
COLLISIONENERGY: 
Comment: registered in MassBank
Num Peaks: 13
125.025	50
147.0085	101
148.0162	60
183.0464	51
211.04131	85
227.03529	86
239.0367	58
255.03059	163
256.03839	69
283.02551	106
284.03381	1000
285.0412	244
417.08221	493

NAME: Peonidin-3-O-beta-galactopyranoside; LC-ESI-QTOF; MS2; CE
PRECURSORMZ: 461.108387
PRECURSORTYPE: [M-2H]-
FORMULA: C22H23O11
Ontology: Anthocyanidin-3-O-glycosides
INCHIKEY: ZZWPMFROUHHAKY-VRRLNDPFSA-O
SMILES: COC1=C(O)C=CC(=C1)C1=C(O[C@@H]2O[C@H](CO)[C@H](O)[C@H](O)[C@H]2O)C=C2C(O)=CC(O)=CC2=[O+]1
RETENTIONTIME: 
CCS: -1
IONMODE: Negative
INSTRUMENTTYPE: LC-ESI-QTOF
INSTRUMENT: 
COLLISIONENERGY: 
Comment: registered in MassBank
Num Peaks: 9
211.0406	159
227.0354	262
239.03661	107
255.0311	361
283.02631	657
284.03421	229
298.04971	1000
299.05789	639
461.1084	762

NAME: Peonidin-3-O-alpha-arabinopyranoside; LC-ESI-QTOF; MS2; CE
PRECURSORMZ: 431.097822
PRECURSORTYPE: [M-2H]-
FORMULA: C21H21O10
Ontology: Flavonoid-3-O-glycosides
INCHIKEY: KRUPPTWQKIEURV-UHFFFAOYNA-O
SMILES: COC1=C(O)C=CC(=C1)C1=C(OC2OCC(O)C(O)C2O)C=C2C(O)=CC(O)=CC2=[O+]1
RETENTIONTIME: 
CCS: -1
IONMODE: Negative
INSTRUMENTTYPE: LC-ESI-QTOF
INSTRUMENT: 
COLLISIONENERGY: 
Comment: registered in MassBank
Num Peaks: 10
183.0451	111
199.0407	96
211.04089	153
227.0354	303
255.0305	334
283.0264	691
284.03171	210
298.04919	1000
299.05701	679
431.09781	573

NAME: Delphinidin-3-O-beta-glucopyranoside; LC-ESI-QTOF; MS2; CE
PRECURSORMZ: 463.087651
PRECURSORTYPE: [M-2H]-
FORMULA: C21H21O12
Ontology: Anthocyanidin-3-O-glycosides
INCHIKEY: XENHPQQLDPAYIJ-PEVLUNPASA-O
SMILES: OC[C@H]1O[C@@H](OC2=C([O+]=C3C=C(O)C=C(O)C3=C2)C2=CC(O)=C(O)C(O)=C2)[C@H](O)[C@@H](O)[C@@H]1O
RETENTIONTIME: 
CCS: -1
IONMODE: Negative
INSTRUMENTTYPE: LC-ESI-QTOF
INSTRUMENT: 
COLLISIONENERGY: 
Comment: registered in MassBank
Num Peaks: 9
125.0252	160
147.0079	90
227.03371	90
255.03059	108
271.02689	184
299.01971	132
300.02841	1000
301.03571	462
463.08771	741

NAME: Petunidin-3-O-beta-glucopyranoside; LC-ESI-QTOF; MS2; CE
PRECURSORMZ: 477.103301
PRECURSORTYPE: [M-2H]-
FORMULA: C22H23O12
Ontology: Anthocyanidin-3-O-glycosides
INCHIKEY: CCQDWIRWKWIUKK-QKYBYQKWSA-O
SMILES: COC1=CC(=CC(O)=C1O)C1=C(O[C@@H]2O[C@H](CO)[C@@H](O)[C@H](O)[C@H]2O)C=C2C(O)=CC(O)=CC2=[O+]1
RETENTIONTIME: 
CCS: -1
IONMODE: Negative
INSTRUMENTTYPE: LC-ESI-QTOF
INSTRUMENT: 
COLLISIONENERGY: 
Comment: registered in MassBank
Num Peaks: 15
125.0244	224
187.0401	96
199.03999	76
215.034	125
227.0363	113
243.0302	233
253.0157	64
255.0291	110
271.02649	323
272.0314	64
299.0209	628
300.02789	244
314.04379	1000
315.05219	814
477.1033	997

NAME: Quercetin-3,4'-O-di-beta-glucopyranoside; LC-ESI-QTOF; MS2; CE
PRECURSORMZ: 625.141023
PRECURSORTYPE: [M-H]-
FORMULA: C27H30O17
Ontology: Flavonoid-3-O-glycosides
INCHIKEY: RPVIQWDFJPYNJM-DEFKTLOSSA-N
SMILES: OC[C@H]1O[C@@H](OC2=C(O)C=C(C=C2)C2=C(O[C@@H]3O[C@H](CO)[C@@H](O)[C@H](O)[C@H]3O)C(=O)C3=C(O)C=C(O)C=C3O2)[C@H](O)[C@@H](O)[C@@H]1O
RETENTIONTIME: 
CCS: 246.2328397
IONMODE: Negative
INSTRUMENTTYPE: LC-ESI-QTOF
INSTRUMENT: 
COLLISIONENERGY: 
Comment: registered in MassBank
Num Peaks: 10
151.0036	171
178.9998	118
255.0343	105
271.02869	329
299.02551	382
300.03149	934
301.03909	934
462.0816	105
463.09189	1000
625.1474	658

NAME: Quercetin-3,4'-O-di-beta-glucopyranoside; LC-ESI-QTOF; MS2; CE
PRECURSORMZ: 625.141023
PRECURSORTYPE: [M-H]-
FORMULA: C27H30O17
Ontology: Flavonoid-3-O-glycosides
INCHIKEY: RPVIQWDFJPYNJM-DEFKTLOSSA-N
SMILES: OC[C@H]1O[C@@H](OC2=C(O)C=C(C=C2)C2=C(O[C@@H]3O[C@H](CO)[C@@H](O)[C@H](O)[C@H]3O)C(=O)C3=C(O)C=C(O)C=C3O2)[C@H](O)[C@@H](O)[C@@H]1O
RETENTIONTIME: 
CCS: 246.2328397
IONMODE: Negative
INSTRUMENTTYPE: LC-ESI-QTOF
INSTRUMENT: 
COLLISIONENERGY: 30
Comment: registered in MassBank
Num Peaks: 9
150.9969	56
178.9904	74
299.00659	290
300.01169	648
301.02039	1000
302.02341	25
462.05579	43
463.06519	340
625.09991	43

NAME: Cyanidin-3-O-(2''-O-beta-xylopyranosyl-beta-glucopyranoside); LC-ESI-QTOF; MS2; CE
PRECURSORMZ: 579.134995
PRECURSORTYPE: [M-2H]-
FORMULA: C26H29O15
Ontology: Anthocyanidin-3-O-glycosides
INCHIKEY: ZPPQIOUITZSYAO-AOBOYTTNSA-O
SMILES: OC[C@H]1O[C@@H](OC2=C([O+]=C3C=C(O)C=C(O)C3=C2)C2=CC(O)=C(O)C=C2)[C@H](O[C@@H]2OC[C@@H](O)[C@H](O)[C@H]2O)[C@@H](O)[C@@H]1O
RETENTIONTIME: 
CCS: -1
IONMODE: Negative
INSTRUMENTTYPE: LC-ESI-QTOF
INSTRUMENT: 
COLLISIONENERGY: 
Comment: registered in MassBank
Num Peaks: 5
255.02991	127
283.02701	109
284.034	1000
339.05219	99
579.13501	747

NAME: Cyanidin-3-O-(2''-O-beta-glucopyranosyl-beta-glucopyranoside); LC-ESI-QTOF; MS2; CE
PRECURSORMZ: 609.14556
PRECURSORTYPE: [M-2H]-
FORMULA: C27H31O16
Ontology: Anthocyanidin-3-O-glycosides
INCHIKEY: SXYMMDGPXYVCER-WGNLCONDSA-O
SMILES: OC[C@H]1O[C@@H](O[C@H]2[C@H](OC3=C([O+]=C4C=C(O)C=C(O)C4=C3)C3=CC(O)=C(O)C=C3)O[C@H](CO)[C@@H](O)[C@@H]2O)[C@H](O)[C@@H](O)[C@@H]1O
RETENTIONTIME: 
CCS: -1
IONMODE: Negative
INSTRUMENTTYPE: LC-ESI-QTOF
INSTRUMENT: 
COLLISIONENERGY: 
Comment: registered in MassBank
Num Peaks: 8
147.00929	52
255.0323	106
256.03922	62
283.02551	118
284.03381	1000
285.0416	76
339.05331	130
609.14563	798

NAME: Peonidin-3,5-O-di-beta-glucopyranoside; LC-ESI-QTOF; MS2; CE
PRECURSORMZ: 623.16121
PRECURSORTYPE: [M-2H]-
FORMULA: C28H33O16
Ontology: Anthocyanidin-5-O-glycosides
INCHIKEY: IPVSUYLZIAYTOK-DPOJTEBASA-O
SMILES: COC1=C(O)C=CC(=C1)C1=C(O[C@@H]2O[C@H](CO)[C@@H](O)[C@H](O)[C@H]2O)C=C2C(O[C@@H]3O[C@H](CO)[C@@H](O)[C@H](O)[C@H]3O)=CC(O)=CC2=[O+]1
RETENTIONTIME: 
CCS: -1
IONMODE: Negative
INSTRUMENTTYPE: LC-ESI-QTOF
INSTRUMENT: 
COLLISIONENERGY: 
Comment: registered in MassBank
Num Peaks: 9
147.00729	51
283.02719	91
284.03421	227
297.04211	358
298.05209	108
299.05688	1000
460.10211	148
461.1102	835
623.16132	301

NAME: Delphinidin-3-O-(6''-O-alpha-rhamnopyranosyl-beta-glucopyranoside); LC-ESI-QTOF; MS2; CE
PRECURSORMZ: 609.14556
PRECURSORTYPE: [M-2H]-
FORMULA: C27H31O16
Ontology: Anthocyanidin-3-O-glycosides
INCHIKEY: PLKUTZNSKRWCCA-LTSKFBHWSA-O
SMILES: C[C@@H]1O[C@@H](OC[C@H]2O[C@@H](OC3=C([O+]=C4C=C(O)C=C(O)C4=C3)C3=CC(O)=C(O)C(O)=C3)[C@H](O)[C@@H](O)[C@@H]2O)[C@H](O)[C@H](O)[C@H]1O
RETENTIONTIME: 
CCS: -1
IONMODE: Negative
INSTRUMENTTYPE: LC-ESI-QTOF
INSTRUMENT: 
COLLISIONENERGY: 
Comment: registered in MassBank
Num Peaks: 5
125.0249	105
299.02081	97
300.02899	709
301.03729	261
609.14563	1000

NAME: Delphinidin-3-O-(6''-O-alpha-rhamnopyranosyl-beta-glucopyranoside); LC-ESI-QTOF; MS2; CE
PRECURSORMZ: 609.14556
PRECURSORTYPE: [M-2H]-
FORMULA: C27H31O16
Ontology: Anthocyanidin-3-O-glycosides
INCHIKEY: PLKUTZNSKRWCCA-LTSKFBHWSA-O
SMILES: C[C@@H]1O[C@@H](OC[C@H]2O[C@@H](OC3=C([O+]=C4C=C(O)C=C(O)C4=C3)C3=CC(O)=C(O)C(O)=C3)[C@H](O)[C@@H](O)[C@@H]2O)[C@H](O)[C@H](O)[C@H]1O
RETENTIONTIME: 
CCS: -1
IONMODE: Negative
INSTRUMENTTYPE: LC-ESI-QTOF
INSTRUMENT: 
COLLISIONENERGY: 30
Comment: registered in MassBank
Num Peaks: 6
125.0246	107
299.0199	36
300.02859	1000
301.03641	325
315.05179	57
609.14563	43

NAME: Delphinidin-3-O-(2''-O-beta-xylopyranosyl-beta-glucopyranoside); LC-ESI-QTOF; MS2; CE
PRECURSORMZ: 595.12991
PRECURSORTYPE: [M-2H]-
FORMULA: C26H29O16
Ontology: Anthocyanidin-3-O-glycosides
INCHIKEY: TWYYVOVDSNRIJM-AFAGGVQESA-O
SMILES: OC[C@H]1O[C@@H](OC2=C([O+]=C3C=C(O)C=C(O)C3=C2)C2=CC(O)=C(O)C(O)=C2)[C@H](O[C@@H]2OC[C@@H](O)[C@H](O)[C@H]2O)[C@@H](O)[C@@H]1O
RETENTIONTIME: 
CCS: -1
IONMODE: Negative
INSTRUMENTTYPE: LC-ESI-QTOF
INSTRUMENT: 
COLLISIONENERGY: 
Comment: registered in MassBank
Num Peaks: 5
271.02539	123
299.02191	140
300.0285	1000
355.04889	113
595.12988	881

NAME: Cyanidin-3-O-(2''-O-beta-xylopyranosyl-beta-glucopyranoside)-5-O-beta-glucopyranoside; LC-ESI-QTOF; MS2; CE
PRECURSORMZ: 741.187819
PRECURSORTYPE: [M-2H]-
FORMULA: C32H39O20
Ontology: Anthocyanidin-5-O-glycosides
INCHIKEY: OLBLWNPOURNBCY-MRBLLYQQSA-O
SMILES: OC[C@H]1O[C@@H](OC2=CC(O)=CC3=[O+]C(=C(O[C@@H]4O[C@H](CO)[C@@H](O)[C@H](O)[C@H]4O[C@@H]4OC[C@@H](O)[C@H](O)[C@H]4O)C=C23)C2=CC(O)=C(O)C=C2)[C@H](O)[C@@H](O)[C@@H]1O
RETENTIONTIME: 
CCS: -1
IONMODE: Negative
INSTRUMENTTYPE: LC-ESI-QTOF
INSTRUMENT: 
COLLISIONENERGY: 
Comment: registered in MassBank
Num Peaks: 6
283.0271	708
284.03448	475
339.05389	90
446.08749	512
579.13788	1000
741.18781	684

NAME: Cyanidin-3-O-[6''-O-(E-p-coum)-2''-O-(beta-xylopyranosyl)-beta-glucopyranoside]-5-O-beta-glucopyranoside; LC-ESI-QTOF; MS2; CE
PRECURSORMZ: 887.224598
PRECURSORTYPE: [M-2H]-
FORMULA: C41H45O22
Ontology: Anthocyanidin 3-O-6-p-coumaroyl glycosides
INCHIKEY: JSYDBTWJIIAZPU-NEVABJEQSA-O
SMILES: OC[C@H]1O[C@@H](OC2=CC(O)=CC3=[O+]C(=C(O[C@@H]4O[C@H](COC(=O)C=CC5=CC=C(O)C=C5)[C@@H](O)[C@H](O)[C@H]4O[C@@H]4OC[C@@H](O)[C@H](O)[C@H]4O)C=C23)C2=CC(O)=C(O)C=C2)[C@H](O)[C@@H](O)[C@@H]1O
RETENTIONTIME: 
CCS: -1
IONMODE: Negative
INSTRUMENTTYPE: LC-ESI-QTOF
INSTRUMENT: 
COLLISIONENERGY: 
Comment: registered in MassBank
Num Peaks: 7
283.026	194
284.03339	1000
285.0405	60
339.05161	87
446.08691	171
725.172	968
887.22461	878

NAME: Cyanidin-3-O-[6''-O-(E-p-coum)-2''-O-(beta-xylopyranosyl)-beta-glucopyranoside]-5-O-beta-glucopyranoside; LC-ESI-QTOF; MS2; CE
PRECURSORMZ: 887.224598
PRECURSORTYPE: [M-2H]-
FORMULA: C41H45O22
Ontology: Anthocyanidin 3-O-6-p-coumaroyl glycosides
INCHIKEY: JSYDBTWJIIAZPU-NEVABJEQSA-O
SMILES: OC[C@H]1O[C@@H](OC2=CC(O)=CC3=[O+]C(=C(O[C@@H]4O[C@H](COC(=O)C=CC5=CC=C(O)C=C5)[C@@H](O)[C@H](O)[C@H]4O[C@@H]4OC[C@@H](O)[C@H](O)[C@H]4O)C=C23)C2=CC(O)=C(O)C=C2)[C@H](O)[C@@H](O)[C@@H]1O
RETENTIONTIME: 
CCS: -1
IONMODE: Negative
INSTRUMENTTYPE: LC-ESI-QTOF
INSTRUMENT: 
COLLISIONENERGY: 30
Comment: registered in MassBank
Num Peaks: 9
283.02969	27
284.03629	345
285.04449	25
309.04431	32
339.05469	75
446.0921	104
579.14258	52
725.17767	1000
887.22461	16

NAME: Petunidin-3-O-(6''-O-(4'''-O-E-coum)-alpha-rhamnopyranosyl-beta-glucopyranosyl)-5-O-beta-glucopyranoside; LC-ESI-QTOF; MS2; CE
PRECURSORMZ: 931.250813
PRECURSORTYPE: [M-2H]-
FORMULA: C43H49O23
Ontology: Anthocyanidin-5-O-glycosides
INCHIKEY: BXEZTCOKOLHMKY-PJUZUSDESA-O
SMILES: COC1=CC(=CC(O)=C1O)C1=C(O[C@@H]2O[C@H](CO[C@@H]3O[C@@H](C)[C@H](OC(=O)C=CC4=CC=C(O)C=C4)[C@@H](O)[C@H]3O)[C@@H](O)[C@H](O)[C@H]2O)C=C2C(O[C@@H]3O[C@H](CO)[C@@H](O)[C@H](O)[C@H]3O)=CC(O)=CC2=[O+]1
RETENTIONTIME: 
CCS: -1
IONMODE: Negative
INSTRUMENTTYPE: LC-ESI-QTOF
INSTRUMENT: 
COLLISIONENERGY: 
Comment: registered in MassBank
Num Peaks: 14
125.0238	100
207.0256	29
299.02499	64
300.02951	43
313.0379	50
314.04379	329
315.05161	814
329.073	29
476.0928	50
477.1069	564
623.16412	171
643.17859	36
769.19733	643
931.25092	1000

NAME: Petunidin-3-O-(6''-O-(4'''-O-E-coum)-alpha-rhamnopyranosyl-beta-glucopyranosyl)-5-O-beta-glucopyranoside; LC-ESI-QTOF; MS2; CE
PRECURSORMZ: 931.250813
PRECURSORTYPE: [M-2H]-
FORMULA: C43H49O23
Ontology: Anthocyanidin-5-O-glycosides
INCHIKEY: BXEZTCOKOLHMKY-PJUZUSDESA-O
SMILES: COC1=CC(=CC(O)=C1O)C1=C(O[C@@H]2O[C@H](CO[C@@H]3O[C@@H](C)[C@H](OC(=O)C=CC4=CC=C(O)C=C4)[C@@H](O)[C@H]3O)[C@@H](O)[C@H](O)[C@H]2O)C=C2C(O[C@@H]3O[C@H](CO)[C@@H](O)[C@H](O)[C@H]3O)=CC(O)=CC2=[O+]1
RETENTIONTIME: 
CCS: -1
IONMODE: Negative
INSTRUMENTTYPE: LC-ESI-QTOF
INSTRUMENT: 
COLLISIONENERGY: 30
Comment: registered in MassBank
Num Peaks: 10
125.0277	86
314.0509	123
315.06049	747
476.10809	43
477.11621	1000
623.1734	296
643.18878	68
769.21472	852
931.25092	37
931.28558	37

NAME: E-3,4,5'-Trihydroxy-3'-glucopyranosylstilbene; LC-ESI-QTOF; MS2; CE
PRECURSORMZ: 405.119106
PRECURSORTYPE: [M-H]-
FORMULA: C20H22O9
Ontology: Stilbene glycosides
INCHIKEY: PERPNFLGJXUDDW-CUYWLFDKSA-N
SMILES: OC[C@H]1O[C@@H](OC2=CC(\C=C\C3=CC(O)=C(O)C=C3)=CC(O)=C2)[C@H](O)[C@@H](O)[C@@H]1O
RETENTIONTIME: 
CCS: 191.7544671
IONMODE: Negative
INSTRUMENTTYPE: LC-ESI-QTOF
INSTRUMENT: 
COLLISIONENERGY: 
Comment: registered in MassBank
Num Peaks: 6
159.0434	161
201.05589	118
241.0499	452
242.0522	301
243.0645	1000
405.11581	204

NAME: alpha-D-Galactose-1-phosphate; LC-ESI-QTOF; MS2; CE
PRECURSORMZ: 259.022442
PRECURSORTYPE: [M-H]-
FORMULA: C6H13O9P
Ontology: Monosaccharide phosphates
INCHIKEY: HXXFSFRBOHSIMQ-FPRJBGLDSA-N
SMILES: OC[C@H]1O[C@H](OP(O)(O)=O)[C@H](O)[C@@H](O)[C@H]1O
RETENTIONTIME: 
CCS: 146.1664715
IONMODE: Negative
INSTRUMENTTYPE: LC-ESI-QTOF
INSTRUMENT: 
COLLISIONENERGY: 
Comment: registered in MassBank
Num Peaks: 5
78.96	1000
96.9701	348
138.98019	71
241.0117	71
259.02191	394

NAME: Methyl Salicylate; LC-ESI-QTOF; MS2; CE
PRECURSORMZ: 151.040068
PRECURSORTYPE: [M-H]-
FORMULA: C8H8O3
Ontology: o-Hydroxybenzoic acid esters
INCHIKEY: OSWPMRLSEDHDFF-UHFFFAOYSA-N
SMILES: COC(=O)C1=CC=CC=C1O
RETENTIONTIME: 
CCS: 128.829496
IONMODE: Negative
INSTRUMENTTYPE: LC-ESI-QTOF
INSTRUMENT: 
COLLISIONENERGY: 
Comment: registered in MassBank
Num Peaks: 6
67.0363	212
95.0369	333
123.0373	1000
134.99159	61
136.0484	91
151.03951	515

NAME: L-Ethionine; LC-ESI-QTOF; MS2; CE
PRECURSORMZ: 162.059423
PRECURSORTYPE: [M-H]-
FORMULA: C6H13NO2S
Ontology: L-alpha-amino acids
INCHIKEY: GGLZPLKKBSSKCX-YFKPBYRVSA-N
SMILES: CCSCC[C@H](N)C(O)=O
RETENTIONTIME: 
CCS: 138.2833556
IONMODE: Negative
INSTRUMENTTYPE: LC-ESI-QTOF
INSTRUMENT: 
COLLISIONENERGY: 
Comment: registered in MassBank
Num Peaks: 4
61.0135	1000
144.8911	279
161.8938	649
162.0589	405

NAME: Deoxycholic acid; LC-ESI-QTOF; MS2; CE
PRECURSORMZ: 391.285383
PRECURSORTYPE: [M-H]-
FORMULA: C24H40O4
Ontology: Dihydroxy bile acids, alcohols and derivatives
INCHIKEY: KXGVEGMKQFWNSR-LLQZFEROSA-N
SMILES: C[C@H](CCC(O)=O)[C@H]1CC[C@H]2[C@@H]3CC[C@@H]4C[C@H](O)CC[C@]4(C)[C@H]3C[C@H](O)[C@]12C
RETENTIONTIME: 
CCS: 198.9146199
IONMODE: Negative
INSTRUMENTTYPE: LC-ESI-QTOF
INSTRUMENT: 
COLLISIONENERGY: 
Comment: registered in MassBank
Num Peaks: 4
327.271	51
343.2659	56
345.28229	121
391.28491	1000

NAME: Deoxycholic acid; LC-ESI-QTOF; MS2; CE
PRECURSORMZ: 391.285383
PRECURSORTYPE: [M-H]-
FORMULA: C24H40O4
Ontology: Dihydroxy bile acids, alcohols and derivatives
INCHIKEY: KXGVEGMKQFWNSR-LLQZFEROSA-N
SMILES: C[C@H](CCC(O)=O)[C@H]1CC[C@H]2[C@@H]3CC[C@@H]4C[C@H](O)CC[C@]4(C)[C@H]3C[C@H](O)[C@]12C
RETENTIONTIME: 
CCS: 198.9146199
IONMODE: Negative
INSTRUMENTTYPE: LC-ESI-QTOF
INSTRUMENT: 
COLLISIONENERGY: 30
Comment: registered in MassBank
Num Peaks: 7
327.26941	281
329.28439	99
343.2641	304
345.28049	727
347.29669	177
355.2648	156
391.28491	1000

NAME: Palatinose; LC-ESI-QTOF; MS2; CE
PRECURSORMZ: 341.108935
PRECURSORTYPE: [M-H]-
FORMULA: C12H22O11
Ontology: O-glycosyl compounds
INCHIKEY: PVXPPJIGRGXGCY-TZLCEDOOSA-N
SMILES: OC[C@H]1O[C@H](OC[C@H]2OC(O)(CO)[C@@H](O)[C@@H]2O)[C@H](O)[C@@H](O)[C@@H]1O
RETENTIONTIME: 
CCS: 175.2062965
IONMODE: Negative
INSTRUMENTTYPE: LC-ESI-QTOF
INSTRUMENT: 
COLLISIONENERGY: 
Comment: registered in MassBank
Num Peaks: 15
59.015	370
71.0148	826
73.0305	76
83.0141	54
85.0298	98
89.0237	598
101.0234	1000
113.0233	293
119.0333	272
131.0331	87
143.0345	120
161.04469	207
179.05389	848
221.06461	587
341.1084	54

NAME: Scopoletin; LC-ESI-QTOF; MS2; CE
PRECURSORMZ: 191.034982
PRECURSORTYPE: [M-H]-
FORMULA: C10H8O4
Ontology: 7-hydroxycoumarins
INCHIKEY: RODXRVNMMDRFIK-UHFFFAOYSA-N
SMILES: COC1=C(O)C=C2OC(=O)C=CC2=C1
RETENTIONTIME: 
CCS: 139.9525062
IONMODE: Negative
INSTRUMENTTYPE: LC-ESI-QTOF
INSTRUMENT: 
COLLISIONENERGY: 
Comment: registered in MassBank
Num Peaks: 5
104.0268	344
120.0218	106
148.0159	281
176.0106	1000
191.0345	351

NAME: Daphnetin; LC-ESI-QTOF; MS2; CE
PRECURSORMZ: 177.019332
PRECURSORTYPE: [M-H]-
FORMULA: C9H6O4
Ontology: 7,8-dihydroxycoumarins
INCHIKEY: ATEFPOUAMCWAQS-UHFFFAOYSA-N
SMILES: OC1=C(O)C2=C(C=CC(=O)O2)C=C1
RETENTIONTIME: 
CCS: 132.7052217
IONMODE: Negative
INSTRUMENTTYPE: LC-ESI-QTOF
INSTRUMENT: 
COLLISIONENERGY: 
Comment: registered in MassBank
Num Peaks: 6
93.0357	106
105.0356	107
121.0301	202
133.0304	101
149.0251	106
177.0188	1000

NAME: Daphnetin; LC-ESI-QTOF; MS2; CE
PRECURSORMZ: 177.019332
PRECURSORTYPE: [M-H]-
FORMULA: C9H6O4
Ontology: 7,8-dihydroxycoumarins
INCHIKEY: ATEFPOUAMCWAQS-UHFFFAOYSA-N
SMILES: OC1=C(O)C2=C(C=CC(=O)O2)C=C1
RETENTIONTIME: 
CCS: 132.7052217
IONMODE: Negative
INSTRUMENTTYPE: LC-ESI-QTOF
INSTRUMENT: 
COLLISIONENERGY: 30
Comment: registered in MassBank
Num Peaks: 12
65.0409	77
67.0195	126
75.0245	49
77.0402	121
79.0195	77
92.0261	69
93.0344	660
105.0338	121
121.0286	1000
132.02049	170
149.0239	142
177.0188	69

NAME: 6,7-Dihydroxycoumarin; LC-ESI-QTOF; MS2; CE
PRECURSORMZ: 177.019332
PRECURSORTYPE: [M-H]-
FORMULA: C9H6O4
Ontology: 6,7-dihydroxycoumarins
INCHIKEY: ILEDWLMCKZNDJK-UHFFFAOYSA-N
SMILES: OC1=CC2=C(C=CC(=O)O2)C=C1O
RETENTIONTIME: 
CCS: 133.7248242
IONMODE: Negative
INSTRUMENTTYPE: LC-ESI-QTOF
INSTRUMENT: 
COLLISIONENERGY: 
Comment: registered in MassBank
Num Peaks: 12
77.0411	36
79.0206	13
81.0363	33
89.0412	126
93.0361	41
105.0357	198
107.0145	30
121.0304	32
133.03059	308
149.0251	59
177.0188	1000
177.2365	15

NAME: 6,7-Dihydroxycoumarin; LC-ESI-QTOF; MS2; CE
PRECURSORMZ: 177.019332
PRECURSORTYPE: [M-H]-
FORMULA: C9H6O4
Ontology: 6,7-dihydroxycoumarins
INCHIKEY: ILEDWLMCKZNDJK-UHFFFAOYSA-N
SMILES: OC1=CC2=C(C=CC(=O)O2)C=C1O
RETENTIONTIME: 
CCS: 133.7248242
IONMODE: Negative
INSTRUMENTTYPE: LC-ESI-QTOF
INSTRUMENT: 
COLLISIONENERGY: 30
Comment: registered in MassBank
Num Peaks: 23
65.0044	33
65.0418	73
67.0193	86
68.9981	26
75.0246	53
77.0404	424
79.0197	397
81.0352	291
82.0074	60
89.0397	1000
91.0192	33
93.0346	483
95.0125	33
103.0186	46
104.0265	66
105.0347	709
107.014	205
109.0303	33
121.0292	272
131.0141	33
133.02879	417
149.0237	172
177.0188	86

NAME: Esculin; LC-ESI-QTOF; MS2; CE
PRECURSORMZ: 339.072156
PRECURSORTYPE: [M-H]-
FORMULA: C15H16O9
Ontology: Coumarin glycosides
INCHIKEY: XHCADAYNFIFUHF-TVKJYDDYSA-N
SMILES: OC[C@H]1O[C@@H](OC2=C(O)C=C3OC(=O)C=CC3=C2)[C@H](O)[C@@H](O)[C@@H]1O
RETENTIONTIME: 
CCS: 174.8050887
IONMODE: Negative
INSTRUMENTTYPE: LC-ESI-QTOF
INSTRUMENT: 
COLLISIONENERGY: 
Comment: registered in MassBank
Num Peaks: 6
89.0409	53
105.0354	86
133.0304	155
177.0192	1000
177.3528	41
339.07159	206

NAME: Kaempferol-7-O-alpha-L-rhamnoside; LC-ESI-QTOF; MS2; CE
PRECURSORMZ: 431.09837
PRECURSORTYPE: [M-H]-
FORMULA: C21H20O10
Ontology: Flavonoid-7-O-glycosides
INCHIKEY: HQNOUCSPWAGQND-GKLNBGJFSA-N
SMILES: C[C@@H]1O[C@@H](OC2=CC(O)=C3C(=O)C(O)=C(OC3=C2)C2=CC=C(O)C=C2)[C@H](O)[C@H](O)[C@H]1O
RETENTIONTIME: 
CCS: 208.4711434
IONMODE: Negative
INSTRUMENTTYPE: LC-ESI-QTOF
INSTRUMENT: 
COLLISIONENERGY: 
Comment: registered in MassBank
Num Peaks: 6
107.0147	209
151.0041	538
257.04739	252
284.0347	452
285.0416	642
431.09781	1000

NAME: Kaempferol-7-O-alpha-L-rhamnoside; LC-ESI-QTOF; MS2; CE
PRECURSORMZ: 431.09837
PRECURSORTYPE: [M-H]-
FORMULA: C21H20O10
Ontology: Flavonoid-7-O-glycosides
INCHIKEY: HQNOUCSPWAGQND-GKLNBGJFSA-N
SMILES: C[C@@H]1O[C@@H](OC2=CC(O)=C3C(=O)C(O)=C(OC3=C2)C2=CC=C(O)C=C2)[C@H](O)[C@H](O)[C@H]1O
RETENTIONTIME: 
CCS: 208.4711434
IONMODE: Negative
INSTRUMENTTYPE: LC-ESI-QTOF
INSTRUMENT: 
COLLISIONENERGY: 30
Comment: registered in MassBank
Num Peaks: 32
63.026	22
65.005	13
83.0147	52
107.0137	187
123.0087	11
132.0215	18
133.02831	11
149.9949	26
151.0027	1000
152.006	34
163.00281	26
164.0107	59
171.04379	11
185.0602	43
199.04021	13
212.0482	10
213.05521	112
227.0349	36
228.04311	17
229.0507	92
239.0349	11
240.0435	30
241.0506	68
255.0302	69
256.03619	25
257.04501	571
258.0495	33
283.02591	14
284.03229	804
285.04041	638
286.04379	40
431.09781	13

NAME: Kaempferitrin; LC-ESI-QTOF; MS2; CE
PRECURSORMZ: 577.156279
PRECURSORTYPE: [M-H]-
FORMULA: C27H30O14
Ontology: Flavonoid-7-O-glycosides
INCHIKEY: PUPKKEQDLNREIM-QNSQPKOQSA-N
SMILES: C[C@@H]1O[C@@H](OC2=CC(O)=C3C(=O)C(O[C@@H]4O[C@@H](C)[C@H](O)[C@@H](O)[C@H]4O)=C(OC3=C2)C2=CC=C(O)C=C2)[C@H](O)[C@H](O)[C@H]1O
RETENTIONTIME: 
CCS: 223.3329166
IONMODE: Negative
INSTRUMENTTYPE: LC-ESI-QTOF
INSTRUMENT: 
COLLISIONENERGY: 
Comment: registered in MassBank
Num Peaks: 8
255.03101	275
283.02591	705
284.03259	124
285.0416	1000
286.047	116
430.0936	236
431.10059	493
577.1557	760

NAME: Kaempferitrin; LC-ESI-QTOF; MS2; CE
PRECURSORMZ: 577.156279
PRECURSORTYPE: [M-H]-
FORMULA: C27H30O14
Ontology: Flavonoid-7-O-glycosides
INCHIKEY: PUPKKEQDLNREIM-QNSQPKOQSA-N
SMILES: C[C@@H]1O[C@@H](OC2=CC(O)=C3C(=O)C(O[C@@H]4O[C@@H](C)[C@H](O)[C@@H](O)[C@H]4O)=C(OC3=C2)C2=CC=C(O)C=C2)[C@H](O)[C@H](O)[C@H]1O
RETENTIONTIME: 
CCS: 223.3329166
IONMODE: Negative
INSTRUMENTTYPE: LC-ESI-QTOF
INSTRUMENT: 
COLLISIONENERGY: 30
Comment: registered in MassBank
Num Peaks: 42
213.0537	7
255.02879	20
257.04391	9
283.02319	467
284.03	91
284.84311	5
284.90909	6
284.96371	8
285.0386	1000
285.22311	8
285.3082	10
285.4603	15
285.65909	5
285.694	5
285.76001	6
285.8205	6
285.90381	7
285.92569	7
285.97961	8
286.04431	125
286.12451	7
286.17291	6
286.24521	8
286.29401	7
286.32269	7
286.40521	7
286.46899	7
286.51221	6
286.53079	5
286.55569	6
286.59161	6
286.62421	6
286.70041	6
286.7561	5
286.80469	5
286.85071	5
286.90829	6
286.95059	5
430.08899	313
431.09659	225
432.10071	29
577.1557	6

NAME: Kaempferol-3-O-beta-glucopyranosyl-7-O-alpha-rhamnopyranoside; LC-ESI-QTOF; MS2; CE
PRECURSORMZ: 593.151194
PRECURSORTYPE: [M-H]-
FORMULA: C27H30O15
Ontology: Flavonoid-7-O-glycosides
INCHIKEY: JYXSWDCPHRTYGU-RVCYDTIBSA-N
SMILES: C[C@@H]1O[C@@H](OC2=CC(O)=C3C(=O)C(O[C@@H]4O[C@H](CO)[C@@H](O)[C@H](O)[C@H]4O)=C(OC3=C2)C2=CC=C(O)C=C2)[C@H](O)[C@H](O)[C@H]1O
RETENTIONTIME: 
CCS: 239.2707965
IONMODE: Negative
INSTRUMENTTYPE: LC-ESI-QTOF
INSTRUMENT: 
COLLISIONENERGY: 
Comment: registered in MassBank
Num Peaks: 9
255.0312	324
283.02579	1000
284.03369	209
285.04269	753
286.04779	84
430.09421	393
431.10211	322
447.0972	330
593.15057	959

NAME: Kaempferol-3-O-beta-D-galactoside-7-O-alpha-L-rhamnoside; LC-ESI-QTOF; MS2; CE
PRECURSORMZ: 593.151194
PRECURSORTYPE: [M-H]-
FORMULA: C27H30O15
Ontology: Flavonoid-7-O-glycosides
INCHIKEY: JYXSWDCPHRTYGU-VYARGGPUSA-N
SMILES: C[C@@H]1O[C@@H](OC2=CC(O)=C3C(=O)C(O[C@@H]4O[C@H](CO)[C@H](O)[C@H](O)[C@H]4O)=C(OC3=C2)C2=CC=C(O)C=C2)[C@H](O)[C@H](O)[C@H]1O
RETENTIONTIME: 
CCS: 239.2707965
IONMODE: Negative
INSTRUMENTTYPE: LC-ESI-QTOF
INSTRUMENT: 
COLLISIONENERGY: 
Comment: registered in MassBank
Num Peaks: 12
227.0365	64
255.03081	338
256.03699	52
283.02579	1000
284.03381	275
285.04279	538
286.0473	60
430.09341	402
431.1008	150
447.09561	618
448.1012	90
593.15057	896

NAME: Kaempferol-3-O-beta-D-galactoside-7-O-alpha-L-rhamnoside; LC-ESI-QTOF; MS2; CE
PRECURSORMZ: 593.151194
PRECURSORTYPE: [M-H]-
FORMULA: C27H30O15
Ontology: Flavonoid-7-O-glycosides
INCHIKEY: JYXSWDCPHRTYGU-VYARGGPUSA-N
SMILES: C[C@@H]1O[C@@H](OC2=CC(O)=C3C(=O)C(O[C@@H]4O[C@H](CO)[C@H](O)[C@H](O)[C@H]4O)=C(OC3=C2)C2=CC=C(O)C=C2)[C@H](O)[C@H](O)[C@H]1O
RETENTIONTIME: 
CCS: 239.2707965
IONMODE: Negative
INSTRUMENTTYPE: LC-ESI-QTOF
INSTRUMENT: 
COLLISIONENERGY: 30
Comment: registered in MassBank
Num Peaks: 15
151.0029	32
255.03011	44
256.03839	10
257.0455	11
283.02469	1000
284.0322	378
285.04071	802
286.04471	82
327.05191	31
430.09149	965
431.0979	280
432.10489	25
447.0943	704
448.09851	109
593.15057	24

NAME: Hyperoside; LC-ESI-QTOF; MS2; CE
PRECURSORMZ: 463.0882
PRECURSORTYPE: [M-H]-
FORMULA: C21H20O12
Ontology: Flavonoid-3-O-glycosides
INCHIKEY: OVSQVDMCBVZWGM-DTGCRPNFSA-N
SMILES: OC[C@H]1O[C@@H](OC2=C(OC3=CC(O)=CC(O)=C3C2=O)C2=CC(O)=C(O)C=C2)[C@H](O)[C@@H](O)[C@H]1O
RETENTIONTIME: 
CCS: 201.8799825
IONMODE: Negative
INSTRUMENTTYPE: LC-ESI-QTOF
INSTRUMENT: 
COLLISIONENERGY: 
Comment: registered in MassBank
Num Peaks: 10
151.0047	116
178.9994	58
227.0367	65
243.03191	175
255.032	349
271.02661	695
272.03271	71
300.02881	1000
301.0383	513
463.08759	817

NAME: 4-Methylthiobutyl glucosinolate; LC-ESI-QTOF; MS2; CE
PRECURSORMZ: 420.046217
PRECURSORTYPE: [M-H]-
FORMULA: C12H23NO9S3
Ontology: Alkylglucosinolates
INCHIKEY: GKUMMDFLKGFCKH-JYRVWZFONA-N
SMILES: CSCCCC\C(SC1OC(CO)C(O)C(O)C1O)=N\OS(O)(=O)=O
RETENTIONTIME: 
CCS: 182.4290747
IONMODE: Negative
INSTRUMENTTYPE: LC-ESI-QTOF
INSTRUMENT: 
COLLISIONENERGY: 
Comment: registered in MassBank
Num Peaks: 5
74.9939	560
79.9601	148
95.9546	641
96.9622	1000
420.04568	815

NAME: 4-Methylsulfinylbutyl glucosinolate; LC-ESI-QTOF; MS2; CE
PRECURSORMZ: 436.041132
PRECURSORTYPE: [M-H]-
FORMULA: C12H23NO10S3
Ontology: Alkylglucosinolates
INCHIKEY: GMMLNKINDDUDCF-RFOBZYEESA-N
SMILES: CS(=O)CCCCC(S[C@@H]1O[C@H](CO)[C@@H](O)[C@H](O)[C@H]1O)=NOS(O)(=O)=O
RETENTIONTIME: 
CCS: 184.6848416
IONMODE: Negative
INSTRUMENTTYPE: LC-ESI-QTOF
INSTRUMENT: 
COLLISIONENERGY: 
Comment: registered in MassBank
Num Peaks: 7
74.9931	336
79.959	106
95.9534	789
96.9612	819
178.0188	271
372.04599	256
436.04059	1000

NAME: Isorhamnetin-3-Galactoside-6''-Rhamnoside; LC-ESI-QTOF; MS2; CE
PRECURSORMZ: 623.161759
PRECURSORTYPE: [M-H]-
FORMULA: C28H32O16
Ontology: Flavonoid-3-O-glycosides
INCHIKEY: UIDGLYUNOUKLBM-ZLADREHTSA-N
SMILES: COC1=C(O)C=CC(=C1)C1=C(O[C@@H]2O[C@H](CO[C@@H]3O[C@@H](C)[C@H](O)[C@@H](O)[C@H]3O)[C@H](O)[C@H](O)[C@H]2O)C(=O)C2=C(O)C=C(O)C=C2O1
RETENTIONTIME: 
CCS: 223.4724829
IONMODE: Negative
INSTRUMENTTYPE: LC-ESI-QTOF
INSTRUMENT: 
COLLISIONENERGY: 
Comment: registered in MassBank
Num Peaks: 10
243.0309	122
255.03149	62
271.02649	192
285.0426	62
299.02151	416
300.0293	199
314.04471	518
315.0528	457
316.05881	55
623.16119	1000

NAME: Isorhamnetin-3-Galactoside-6''-Rhamnoside; LC-ESI-QTOF; MS2; CE
PRECURSORMZ: 623.161759
PRECURSORTYPE: [M-H]-
FORMULA: C28H32O16
Ontology: Flavonoid-3-O-glycosides
INCHIKEY: UIDGLYUNOUKLBM-ZLADREHTSA-N
SMILES: COC1=C(O)C=CC(=C1)C1=C(O[C@@H]2O[C@H](CO[C@@H]3O[C@@H](C)[C@H](O)[C@@H](O)[C@H]3O)[C@H](O)[C@H](O)[C@H]2O)C(=O)C2=C(O)C=C(O)C=C2O1
RETENTIONTIME: 
CCS: 223.4724829
IONMODE: Negative
INSTRUMENTTYPE: LC-ESI-QTOF
INSTRUMENT: 
COLLISIONENERGY: 30
Comment: registered in MassBank
Num Peaks: 6
299.01981	179
300.02609	97
314.04199	1000
315.05029	910
316.0553	119
623.16119	316

NAME: Isorhamnetin-3-Glucoside-4'-Glucoside; LC-ESI-QTOF; MS2; CE
PRECURSORMZ: 639.156673
PRECURSORTYPE: [M-H]-
FORMULA: C28H32O17
Ontology: Flavonoid-3-O-glycosides
INCHIKEY: VKVBSQRURLRCHO-QDYVESOYSA-N
SMILES: COC1=C(O[C@@H]2O[C@H](CO)[C@@H](O)[C@H](O)[C@H]2O)C=CC(=C1)C1=C(O[C@@H]2O[C@H](CO)[C@@H](O)[C@H](O)[C@H]2O)C(=O)C2=C(O)C=C(O)C=C2O1
RETENTIONTIME: 
CCS: 245.7668738
IONMODE: Negative
INSTRUMENTTYPE: LC-ESI-QTOF
INSTRUMENT: 
COLLISIONENERGY: 
Comment: registered in MassBank
Num Peaks: 10
243.0271	84
255.0282	72
271.02521	169
299.0206	273
300.02609	265
314.04419	317
315.0506	775
316.05389	100
623.16119	1000
624.16278	245

NAME: Isorhamnetin-3-Glucoside-4'-Glucoside; LC-ESI-QTOF; MS2; CE
PRECURSORMZ: 639.156673
PRECURSORTYPE: [M-H]-
FORMULA: C28H32O17
Ontology: Flavonoid-3-O-glycosides
INCHIKEY: VKVBSQRURLRCHO-QDYVESOYSA-N
SMILES: COC1=C(O[C@@H]2O[C@H](CO)[C@@H](O)[C@H](O)[C@H]2O)C=CC(=C1)C1=C(O[C@@H]2O[C@H](CO)[C@@H](O)[C@H](O)[C@H]2O)C(=O)C2=C(O)C=C(O)C=C2O1
RETENTIONTIME: 
CCS: 245.7668738
IONMODE: Negative
INSTRUMENTTYPE: LC-ESI-QTOF
INSTRUMENT: 
COLLISIONENERGY: 30
Comment: registered in MassBank
Num Peaks: 6
299.01859	72
300.02811	99
314.04489	388
315.05219	1000
316.05771	129
623.16119	86

NAME: Kaempferol-3-Galactoside-6''-Rhamnoside-3'''-Rhamnoside; LC-ESI-QTOF; MS2; CE
PRECURSORMZ: 739.209103
PRECURSORTYPE: [M-H]-
FORMULA: C33H40O19
Ontology: Flavonoid-3-O-glycosides
INCHIKEY: UYVBMGULWGRDQT-KABOUGNXSA-N
SMILES: C[C@@H]1O[C@@H](O[C@@H]2[C@@H](O)[C@H](C)O[C@@H](OC[C@H]3O[C@@H](OC4=C(OC5=CC(O)=CC(O)=C5C4=O)C4=CC=C(O)C=C4)[C@H](O)[C@@H](O)[C@H]3O)[C@@H]2O)[C@H](O)[C@H](O)[C@H]1O
RETENTIONTIME: 
CCS: 270.1631514
IONMODE: Negative
INSTRUMENTTYPE: LC-ESI-QTOF
INSTRUMENT: 
COLLISIONENERGY: 
Comment: registered in MassBank
Num Peaks: 6
227.03619	59
255.0309	142
284.0336	489
285.04111	847
286.0473	124
739.20862	1000

NAME: Kaempferol-3-Galactoside-6''-Rhamnoside-3'''-Rhamnoside; LC-ESI-QTOF; MS2; CE
PRECURSORMZ: 739.209103
PRECURSORTYPE: [M-H]-
FORMULA: C33H40O19
Ontology: Flavonoid-3-O-glycosides
INCHIKEY: UYVBMGULWGRDQT-KABOUGNXSA-N
SMILES: C[C@@H]1O[C@@H](O[C@@H]2[C@@H](O)[C@H](C)O[C@@H](OC[C@H]3O[C@@H](OC4=C(OC5=CC(O)=CC(O)=C5C4=O)C4=CC=C(O)C=C4)[C@H](O)[C@@H](O)[C@H]3O)[C@@H]2O)[C@H](O)[C@H](O)[C@H]1O
RETENTIONTIME: 
CCS: 270.1631514
IONMODE: Negative
INSTRUMENTTYPE: LC-ESI-QTOF
INSTRUMENT: 
COLLISIONENERGY: 30
Comment: registered in MassBank
Num Peaks: 4
284.03189	250
285.03922	1000
286.0448	147
739.20862	590

NAME: Kaempferol-3-Glucoside-2''-Rhamnoside-7-Rhamnoside; LC-ESI-QTOF; MS2; CE
PRECURSORMZ: 739.209103
PRECURSORTYPE: [M-H]-
FORMULA: C33H40O19
Ontology: Flavonoid-7-O-glycosides
INCHIKEY: DDELFAUOHDSZJL-CPGGTDLHSA-N
SMILES: C[C@@H]1O[C@@H](O[C@@H]2[C@@H](O)[C@H](O)[C@@H](CO)O[C@H]2OC2=C(OC3=CC(O[C@@H]4O[C@@H](C)[C@H](O)[C@@H](O)[C@H]4O)=CC(O)=C3C2=O)C2=CC=C(O)C=C2)[C@H](O)[C@H](O)[C@H]1O
RETENTIONTIME: 
CCS: 262.3878514
IONMODE: Negative
INSTRUMENTTYPE: LC-ESI-QTOF
INSTRUMENT: 
COLLISIONENERGY: 
Comment: registered in MassBank
Num Peaks: 9
255.0309	150
283.02509	697
284.03339	702
285.04141	293
430.09369	343
431.0993	79
593.15228	958
594.16052	262
739.20862	1000

NAME: Kaempferol-3-Glucoside-2''-Rhamnoside-7-Rhamnoside; LC-ESI-QTOF; MS2; CE
PRECURSORMZ: 739.209103
PRECURSORTYPE: [M-H]-
FORMULA: C33H40O19
Ontology: Flavonoid-7-O-glycosides
INCHIKEY: DDELFAUOHDSZJL-CPGGTDLHSA-N
SMILES: C[C@@H]1O[C@@H](O[C@@H]2[C@@H](O)[C@H](O)[C@@H](CO)O[C@H]2OC2=C(OC3=CC(O[C@@H]4O[C@@H](C)[C@H](O)[C@@H](O)[C@H]4O)=CC(O)=C3C2=O)C2=CC=C(O)C=C2)[C@H](O)[C@H](O)[C@H]1O
RETENTIONTIME: 
CCS: 262.3878514
IONMODE: Negative
INSTRUMENTTYPE: LC-ESI-QTOF
INSTRUMENT: 
COLLISIONENERGY: 30
Comment: registered in MassBank
Num Peaks: 8
283.02451	104
284.03171	279
285.03961	146
430.09061	322
431.0957	77
593.15167	1000
594.15698	291
739.20862	60

NAME: Kaempferol-3-Glucoside-2''-p-coumaroyl; LC-ESI-QTOF; MS2; CE
PRECURSORMZ: 593.130064
PRECURSORTYPE: [M-H]-
FORMULA: C30H26O13
Ontology: Flavonoid-3-O-glycosides
INCHIKEY: IKONEAPXVKTZFF-NLGJGAJZSA-N
SMILES: OC[C@H]1O[C@@H](OC2=C(OC3=CC(O)=CC(O)=C3C2=O)C2=CC=C(O)C=C2)[C@H](OC(=O)\C=C\C2=CC=C(O)C=C2)[C@@H](O)[C@@H]1O
RETENTIONTIME: 
CCS: 253.0815568
IONMODE: Negative
INSTRUMENTTYPE: LC-ESI-QTOF
INSTRUMENT: 
COLLISIONENERGY: 
Comment: registered in MassBank
Num Peaks: 8
145.0294	95
151.0033	85
229.0507	68
257.04599	69
285.04019	1000
286.0448	120
307.08389	95
593.12952	304

NAME: Kaempferol-3-Glucoside-3''-Rhamnoside; LC-ESI-QTOF; MS2; CE
PRECURSORMZ: 593.151194
PRECURSORTYPE: [M-H]-
FORMULA: C27H30O15
Ontology: Flavonoid-3-O-glycosides
INCHIKEY: YFPYXTNSQOUHPS-NIILUQFKSA-N
SMILES: C[C@@H]1O[C@@H](O[C@H]2[C@H](O)[C@@H](CO)O[C@@H](OC3=C(OC4=CC(O)=CC(O)=C4C3=O)C3=CC=C(O)C=C3)[C@@H]2O)[C@H](O)[C@H](O)[C@H]1O
RETENTIONTIME: 
CCS: 231.9720965
IONMODE: Negative
INSTRUMENTTYPE: LC-ESI-QTOF
INSTRUMENT: 
COLLISIONENERGY: 
Comment: registered in MassBank
Num Peaks: 6
227.03641	165
255.0313	348
284.03439	605
285.04199	818
286.04739	97
593.15057	1000

NAME: Kaempferol-3-Rhamnoside-4''-Rhamnoside-7-Rhamnoside; LC-ESI-QTOF; MS2; CE
PRECURSORMZ: 723.214188
PRECURSORTYPE: [M-H]-
FORMULA: C33H40O18
Ontology: Flavonoid-7-O-glycosides
INCHIKEY: NLJNYZLJCNVCNR-UHFFFAOYNA-N
SMILES: CC1OC(OC2C(C)OC(OC3=C(OC4=CC(OC5OC(C)C(O)C(O)C5O)=CC(O)=C4C3=O)C3=CC=C(O)C=C3)C(O)C2O)C(O)C(O)C1O
RETENTIONTIME: 
CCS: 278.9023007
IONMODE: Negative
INSTRUMENTTYPE: LC-ESI-QTOF
INSTRUMENT: 
COLLISIONENERGY: 
Comment: registered in MassBank
Num Peaks: 7
285.03922	1000
286.04391	138
431.09741	964
432.10291	206
577.15521	466
578.16022	130
723.21362	236

NAME: Kaempferol-3-O-alpha-L-arabinoside; LC-ESI-QTOF; MS2; CE
PRECURSORMZ: 417.08272
PRECURSORTYPE: [M-H]-
FORMULA: C20H18O10
Ontology: Flavonoid-3-O-glycosides
INCHIKEY: RNVUDWOQYYWXBJ-BWYUNELBSA-N
SMILES: O[C@@H]1CO[C@@H](OC2=C(OC3=CC(O)=CC(O)=C3C2=O)C2=CC=C(O)C=C2)[C@H](O)[C@H]1O
RETENTIONTIME: 
CCS: 194.2118837
IONMODE: Negative
INSTRUMENTTYPE: LC-ESI-QTOF
INSTRUMENT: 
COLLISIONENERGY: 
Comment: registered in MassBank
Num Peaks: 7
183.04539	98
227.0349	902
255.0304	906
256.03671	127
284.03271	889
285.04059	266
417.08221	1000

NAME: Kaempferol-3-Glucuronide; LC-ESI-QTOF; MS2; CE
PRECURSORMZ: 461.07255
PRECURSORTYPE: [M-H]-
FORMULA: C21H18O12
Ontology: Flavonoid-3-O-glucuronides
INCHIKEY: FNTJVYCFNVUBOL-ZUGPOPFOSA-N
SMILES: O[C@@H]1[C@@H](O)[C@H](OC2=C(OC3=CC(O)=CC(O)=C3C2=O)C2=CC=C(O)C=C2)O[C@@H]([C@H]1O)C(O)=O
RETENTIONTIME: 
CCS: 213.7236997
IONMODE: Negative
INSTRUMENTTYPE: LC-ESI-QTOF
INSTRUMENT: 
COLLISIONENERGY: 
Comment: registered in MassBank
Num Peaks: 4
113.0247	129
229.0511	143
285.0405	1000
461.07199	322

NAME: Tiliroside; LC-ESI-QTOF; MS2; CE
PRECURSORMZ: 593.130064
PRECURSORTYPE: [M-H]-
FORMULA: C30H26O13
Ontology: Flavonoid 3-O-p-coumaroyl glycosides
INCHIKEY: DVGGLGXQSFURLP-VWMSDXGPSA-N
SMILES: O[C@@H]1[C@@H](COC(=O)\C=C\C2=CC=C(O)C=C2)O[C@@H](OC2=C(OC3=CC(O)=CC(O)=C3C2=O)C2=CC=C(O)C=C2)[C@H](O)[C@H]1O
RETENTIONTIME: 
CCS: 226.2850981
IONMODE: Negative
INSTRUMENTTYPE: LC-ESI-QTOF
INSTRUMENT: 
COLLISIONENERGY: 
Comment: registered in MassBank
Num Peaks: 5
227.035	204
255.0307	383
284.03271	622
285.04111	771
593.12952	1000

NAME: Tiliroside; LC-ESI-QTOF; MS2; CE
PRECURSORMZ: 593.130064
PRECURSORTYPE: [M-H]-
FORMULA: C30H26O13
Ontology: Flavonoid 3-O-p-coumaroyl glycosides
INCHIKEY: DVGGLGXQSFURLP-VWMSDXGPSA-N
SMILES: O[C@@H]1[C@@H](COC(=O)\C=C\C2=CC=C(O)C=C2)O[C@@H](OC2=C(OC3=CC(O)=CC(O)=C3C2=O)C2=CC=C(O)C=C2)[C@H](O)[C@H]1O
RETENTIONTIME: 
CCS: 226.2850981
IONMODE: Negative
INSTRUMENTTYPE: LC-ESI-QTOF
INSTRUMENT: 
COLLISIONENERGY: 30
Comment: registered in MassBank
Num Peaks: 13
145.0282	79
151.0025	38
163.039	32
227.0347	27
255.0293	82
256.0368	37
257.04431	37
284.03131	848
285.039	1000
286.04459	110
307.08221	35
447.09399	41
593.12952	44

NAME: Kaempferol-3-O-alpha-L-rhamnoside; LC-ESI-QTOF; MS2; CE
PRECURSORMZ: 431.09837
PRECURSORTYPE: [M-H]-
FORMULA: C21H20O10
Ontology: Flavonoid-3-O-glycosides
INCHIKEY: SOSLMHZOJATCCP-AEIZVZFYSA-N
SMILES: C[C@@H]1O[C@@H](OC2=C(OC3=CC(O)=CC(O)=C3C2=O)C2=CC=C(O)C=C2)[C@H](O)[C@H](O)[C@H]1O
RETENTIONTIME: 
CCS: 198.5171793
IONMODE: Negative
INSTRUMENTTYPE: LC-ESI-QTOF
INSTRUMENT: 
COLLISIONENERGY: 
Comment: registered in MassBank
Num Peaks: 11
183.04469	65
211.04041	59
227.0352	564
229.0517	111
255.03059	712
256.0369	88
257.04681	70
284.03339	634
285.04099	1000
286.04529	68
431.09781	747

NAME: Kaempferol-3-O-glucoside; LC-ESI-QTOF; MS2; CE
PRECURSORMZ: 447.093285
PRECURSORTYPE: [M-H]-
FORMULA: C21H20O11
Ontology: Flavonoid-3-O-glycosides
INCHIKEY: JPUKWEQWGBDDQB-QSOFNFLRSA-N
SMILES: OC[C@H]1O[C@@H](OC2=C(OC3=CC(O)=CC(O)=C3C2=O)C2=CC=C(O)C=C2)[C@H](O)[C@@H](O)[C@@H]1O
RETENTIONTIME: 
CCS: 199.6625881
IONMODE: Negative
INSTRUMENTTYPE: LC-ESI-QTOF
INSTRUMENT: 
COLLISIONENERGY: 
Comment: registered in MassBank
Num Peaks: 8
183.0461	87
227.0359	845
228.04089	61
255.0314	909
256.03891	135
284.034	736
285.04321	345
447.09271	1000

NAME: Myricetin-3-Galactoside; LC-ESI-QTOF; MS2; CE
PRECURSORMZ: 479.083114
PRECURSORTYPE: [M-H]-
FORMULA: C21H20O13
Ontology: Flavonoid-3-O-glycosides
INCHIKEY: FOHXFLPXBUAOJM-LIBJPBHASA-N
SMILES: OC[C@H]1O[C@@H](OC2=C(OC3=CC(O)=CC(O)=C3C2=O)C2=CC(O)=C(O)C(O)=C2)[C@H](O)[C@@H](O)[C@@H]1O
RETENTIONTIME: 
CCS: 213.7724379
IONMODE: Negative
INSTRUMENTTYPE: LC-ESI-QTOF
INSTRUMENT: 
COLLISIONENERGY: 
Comment: registered in MassBank
Num Peaks: 12
151.00349	61
178.9982	57
214.02789	85
242.02251	69
243.03	60
259.0256	92
270.0177	74
271.02509	449
287.02039	266
316.02249	1000
317.02939	232
479.08261	878

NAME: Myricitrin; LC-ESI-QTOF; MS2; CE
PRECURSORMZ: 463.0882
PRECURSORTYPE: [M-H]-
FORMULA: C21H20O12
Ontology: Flavonoid-3-O-glycosides
INCHIKEY: DCYOADKBABEMIQ-OWMUPTOHSA-N
SMILES: C[C@@H]1O[C@@H](OC2=C(OC3=CC(O)=CC(O)=C3C2=O)C2=CC(O)=C(O)C(O)=C2)[C@H](O)[C@H](O)[C@H]1O
RETENTIONTIME: 
CCS: 202.9005839
IONMODE: Negative
INSTRUMENTTYPE: LC-ESI-QTOF
INSTRUMENT: 
COLLISIONENERGY: 
Comment: registered in MassBank
Num Peaks: 13
151.0036	94
178.99831	86
214.0278	96
242.0228	79
243.03101	78
259.02551	107
270.01871	88
271.02579	491
272.03131	53
287.02081	304
316.0228	1000
317.03149	317
463.08759	887

NAME: Myricetin-3-Xyloside; LC-ESI-QTOF; MS2; CE
PRECURSORMZ: 449.07255
PRECURSORTYPE: [M-H]-
FORMULA: C20H18O12
Ontology: Flavonoid-3-O-glycosides
INCHIKEY: SBEOEJNITMVWLK-CFSKSFDZSA-N
SMILES: O[C@@H]1CO[C@@H](OC2=C(OC3=CC(O)=CC(O)=C3C2=O)C2=CC(O)=C(O)C(O)=C2)[C@H](O)[C@H]1O
RETENTIONTIME: 
CCS: 211.7918085
IONMODE: Negative
INSTRUMENTTYPE: LC-ESI-QTOF
INSTRUMENT: 
COLLISIONENERGY: 
Comment: registered in MassBank
Num Peaks: 10
214.02699	90
242.02251	71
243.0298	70
259.02521	98
270.01761	78
271.0257	442
287.02051	278
316.02261	1000
317.03061	149
449.07199	763

NAME: 7-Methylquercetin-3-Galactoside-6''-Rhamnoside-3'''-Rhamnoside; LC-ESI-QTOF; MS2; CE
PRECURSORMZ: 769.219667
PRECURSORTYPE: [M-H]-
FORMULA: C34H42O20
Ontology: Flavonoid-3-O-glycosides
INCHIKEY: NMGVHLDIHNFGQB-OTCPXFHUSA-N
SMILES: COC1=CC(O)=C2C(=O)C(O[C@@H]3O[C@H](CO[C@@H]4O[C@@H](C)[C@H](O)[C@@H](O[C@@H]5O[C@@H](C)[C@H](O)[C@@H](O)[C@H]5O)[C@H]4O)[C@H](O)[C@H](O)[C@H]3O)=C(OC2=C1)C1=CC(O)=C(O)C=C1
RETENTIONTIME: 
CCS: 321.6107132
IONMODE: Negative
INSTRUMENTTYPE: LC-ESI-QTOF
INSTRUMENT: 
COLLISIONENERGY: 
Comment: registered in MassBank
Num Peaks: 5
271.02609	50
299.02011	223
314.04349	508
315.05179	378
769.21912	1000

NAME: 7-Methylquercetin-3-Galactoside-6''-Rhamnoside-3'''-Rhamnoside; LC-ESI-QTOF; MS2; CE
PRECURSORMZ: 769.219667
PRECURSORTYPE: [M-H]-
FORMULA: C34H42O20
Ontology: Flavonoid-3-O-glycosides
INCHIKEY: NMGVHLDIHNFGQB-OTCPXFHUSA-N
SMILES: COC1=CC(O)=C2C(=O)C(O[C@@H]3O[C@H](CO[C@@H]4O[C@@H](C)[C@H](O)[C@@H](O[C@@H]5O[C@@H](C)[C@H](O)[C@@H](O)[C@H]5O)[C@H]4O)[C@H](O)[C@H](O)[C@H]3O)=C(OC2=C1)C1=CC(O)=C(O)C=C1
RETENTIONTIME: 
CCS: 321.6107132
IONMODE: Negative
INSTRUMENTTYPE: LC-ESI-QTOF
INSTRUMENT: 
COLLISIONENERGY: 30
Comment: registered in MassBank
Num Peaks: 4
314.04279	385
315.05029	561
316.05469	62
769.21912	1000

NAME: Quercetin-3-Arabinoside; LC-ESI-QTOF; MS2; CE
PRECURSORMZ: 433.077635
PRECURSORTYPE: [M-H]-
FORMULA: C20H18O11
Ontology: Flavonoid-3-O-glycosides
INCHIKEY: PZZRDJXEMZMZFD-IEGSVRCHSA-N
SMILES: O[C@H]1CO[C@@H](OC2=C(OC3=CC(O)=CC(O)=C3C2=O)C2=CC(O)=C(O)C=C2)[C@H](O)[C@H]1O
RETENTIONTIME: 
CCS: 215.6517048
IONMODE: Negative
INSTRUMENTTYPE: LC-ESI-QTOF
INSTRUMENT: 
COLLISIONENERGY: 
Comment: registered in MassBank
Num Peaks: 9
151.00369	72
227.03619	67
243.03101	194
255.0312	323
271.026	674
272.03171	65
300.0282	1000
301.0369	307
433.07709	721

NAME: Quercetin-3-Glucuronide; LC-ESI-QTOF; MS2; CE
PRECURSORMZ: 477.067464
PRECURSORTYPE: [M-H]-
FORMULA: C21H18O13
Ontology: Flavonoid-3-O-glucuronides
INCHIKEY: DUBCCGAQYVUYEU-ZUGPOPFOSA-N
SMILES: O[C@@H]1[C@@H](O)[C@H](OC2=C(OC3=CC(O)=CC(O)=C3C2=O)C2=CC(O)=C(O)C=C2)O[C@@H]([C@H]1O)C(O)=O
RETENTIONTIME: 
CCS: 216.3003442
IONMODE: Negative
INSTRUMENTTYPE: LC-ESI-QTOF
INSTRUMENT: 
COLLISIONENERGY: 
Comment: registered in MassBank
Num Peaks: 10
107.0143	79
109.0299	57
121.0298	84
151.00349	352
163.0036	63
178.9989	169
255.0311	71
301.03531	1000
302.04321	82
477.06689	473

NAME: Quercetin-3-(6''-malonyl)-Glucoside; LC-ESI-QTOF; MS2; CE
PRECURSORMZ: 549.088594
PRECURSORTYPE: [M-H]-
FORMULA: C24H22O15
Ontology: Flavonoid-3-O-glycosides
INCHIKEY: NBQPHANHNTWDML-UJKBSQBPSA-N
SMILES: O[C@H]1[C@H](O)[C@@H](COC(=O)CC(O)=O)O[C@@H](OC2=C(OC3=CC(O)=CC(O)=C3C2=O)C2=CC(O)=C(O)C=C2)[C@@H]1O
RETENTIONTIME: 
CCS: 216.8049517
IONMODE: Negative
INSTRUMENTTYPE: LC-ESI-QTOF
INSTRUMENT: 
COLLISIONENERGY: 
Comment: registered in MassBank
Num Peaks: 12
101.0141	143
181.1069	143
225.0899	214
255.00841	286
271.00409	500
300.00421	1000
301.0112	500
302.01361	143
387.12311	286
505.05951	929
549.08807	214
549.16803	500

NAME: Quercitrin; LC-ESI-QTOF; MS2; CE
PRECURSORMZ: 447.093285
PRECURSORTYPE: [M-H]-
FORMULA: C21H20O11
Ontology: Flavonoid-3-O-glycosides
INCHIKEY: OXGUCUVFOIWWQJ-HQBVPOQASA-N
SMILES: C[C@@H]1O[C@@H](OC2=C(OC3=CC(O)=CC(O)=C3C2=O)C2=CC(O)=C(O)C=C2)[C@H](O)[C@H](O)[C@H]1O
RETENTIONTIME: 
CCS: 200.6827075
IONMODE: Negative
INSTRUMENTTYPE: LC-ESI-QTOF
INSTRUMENT: 
COLLISIONENERGY: 
Comment: registered in MassBank
Num Peaks: 7
151.0043	200
243.0318	202
255.0321	405
271.0267	723
300.02921	1000
301.03741	810
447.09271	976

NAME: Kaempferitrin; LC-ESI-QTOF; MS2; CE
PRECURSORMZ: 577.156279
PRECURSORTYPE: [M-H]-
FORMULA: C27H30O14
Ontology: Flavonoid-7-O-glycosides
INCHIKEY: PUPKKEQDLNREIM-QNSQPKOQSA-N
SMILES: C[C@@H]1O[C@@H](OC2=CC(O)=C3C(=O)C(O[C@@H]4O[C@@H](C)[C@H](O)[C@@H](O)[C@H]4O)=C(OC3=C2)C2=CC=C(O)C=C2)[C@H](O)[C@H](O)[C@H]1O
RETENTIONTIME: 
CCS: 223.3329166
IONMODE: Negative
INSTRUMENTTYPE: LC-ESI-QTOF
INSTRUMENT: 
COLLISIONENERGY: 
Comment: registered in MassBank
Num Peaks: 6
255.03081	261
283.0257	688
285.04169	1000
430.0936	225
431.10031	482
577.1557	774

NAME: S-Sulforaphene; LC-ESI-QTOF; MS2; CE
PRECURSORMZ: 174.005279
PRECURSORTYPE: [M-H]-
FORMULA: C6H9NOS2
Ontology: Sulfoxides
INCHIKEY: QKGJFQMGPDVOQE-HWKANZRONA-N
SMILES: CS(=O)\C=C\CCN=C=S
RETENTIONTIME: 
CCS: 137.9856049
IONMODE: Negative
INSTRUMENTTYPE: LC-ESI-QTOF
INSTRUMENT: 
COLLISIONENERGY: 
Comment: registered in MassBank
Num Peaks: 6
110.0065	423
112.9933	500
128.01711	192
143.8969	192
158.9809	1000
174.0047	731

NAME: Syringaldehyde; LC-ESI-QTOF; MS2; CE
PRECURSORMZ: 181.050632
PRECURSORTYPE: [M-H]-
FORMULA: C9H10O4
Ontology: Methoxyphenols
INCHIKEY: KCDXJAYRVLXPFO-UHFFFAOYSA-N
SMILES: COC1=CC(C=O)=CC(OC)=C1O
RETENTIONTIME: 
CCS: 147.0736695
IONMODE: Negative
INSTRUMENTTYPE: LC-ESI-QTOF
INSTRUMENT: 
COLLISIONENERGY: 
Comment: registered in MassBank
Num Peaks: 4
123.0081	425
151.0027	981
166.02631	1000
181.05009	373

NAME: Sinapic acid; LC-ESI-QTOF; MS2; CE
PRECURSORMZ: 223.061197
PRECURSORTYPE: [M-H]-
FORMULA: C11H12O5
Ontology: Hydroxycinnamic acids
INCHIKEY: PCMORTLOPMLEFB-ONEGZZNKSA-N
SMILES: COC1=CC(\C=C\C(O)=O)=CC(OC)=C1O
RETENTIONTIME: 
CCS: 148.2422518
IONMODE: Negative
INSTRUMENTTYPE: LC-ESI-QTOF
INSTRUMENT: 
COLLISIONENERGY: 
Comment: registered in MassBank
Num Peaks: 11
93.0364	815
121.031	824
135.0472	169
149.0258	876
163.0419	225
164.0498	934
165.0217	217
179.07381	174
193.0166	869
208.04021	1000
223.0607	912

NAME: Indole-3-carboxyaldehyde; LC-ESI-QTOF; MS2; CE
PRECURSORMZ: 144.045487
PRECURSORTYPE: [M-H]-
FORMULA: C9H7NO
Ontology: Indoles
INCHIKEY: OLNJUISKUQQNIM-UHFFFAOYSA-N
SMILES: O=CC1=CNC2=CC=CC=C12
RETENTIONTIME: 
CCS: 128.1238663
IONMODE: Negative
INSTRUMENTTYPE: LC-ESI-QTOF
INSTRUMENT: 
COLLISIONENERGY: 
Comment: registered in MassBank
Num Peaks: 2
115.0453	58
144.04491	1000

NAME: Indole-3-carboxyaldehyde; LC-ESI-QTOF; MS2; CE
PRECURSORMZ: 144.045487
PRECURSORTYPE: [M-H]-
FORMULA: C9H7NO
Ontology: Indoles
INCHIKEY: OLNJUISKUQQNIM-UHFFFAOYSA-N
SMILES: O=CC1=CNC2=CC=CC=C12
RETENTIONTIME: 
CCS: 128.1238663
IONMODE: Negative
INSTRUMENTTYPE: LC-ESI-QTOF
INSTRUMENT: 
COLLISIONENERGY: 30
Comment: registered in MassBank
Num Peaks: 8
65.9999	71
114.0352	146
115.0424	883
116.0507	199
117.0346	62
126.0344	243
142.0302	75
144.04491	1000

NAME: 1-Methoxy-3-carbaldehyde; LC-ESI-QTOF; MS2; CE
PRECURSORMZ: 174.056052
PRECURSORTYPE: [M-H]-
FORMULA: C10H9NO2
Ontology: Indoles
INCHIKEY: NFGIENSPALNOON-UHFFFAOYSA-N
SMILES: CON1C=C(C=O)C2=CC=CC=C12
RETENTIONTIME: 
CCS: 141.1296398
IONMODE: Negative
INSTRUMENTTYPE: LC-ESI-QTOF
INSTRUMENT: 
COLLISIONENERGY: 
Comment: registered in MassBank
Num Peaks: 4
131.0385	178
143.8994	44
159.03391	1000
174.0555	422

NAME: Indole-3-carboxylic acid; LC-ESI-QTOF; MS2; CE
PRECURSORMZ: 160.040402
PRECURSORTYPE: [M-H]-
FORMULA: C9H7NO2
Ontology: Indolecarboxylic acids and derivatives
INCHIKEY: KMAKOBLIOCQGJP-UHFFFAOYSA-N
SMILES: OC(=O)C1=CNC2=CC=CC=C12
RETENTIONTIME: 
CCS: 131.1429342
IONMODE: Negative
INSTRUMENTTYPE: LC-ESI-QTOF
INSTRUMENT: 
COLLISIONENERGY: 
Comment: registered in MassBank
Num Peaks: 6
116.0502	1000
116.2225	12
116.3211	25
117.0547	10
159.8945	20
160.0399	193

NAME: Kaempferitrin; LC-ESI-QTOF; MS2; CE
PRECURSORMZ: 577.156279
PRECURSORTYPE: [M-H]-
FORMULA: C27H30O14
Ontology: Flavonoid-7-O-glycosides
INCHIKEY: PUPKKEQDLNREIM-QNSQPKOQSA-N
SMILES: C[C@@H]1O[C@@H](OC2=CC(O)=C3C(=O)C(O[C@@H]4O[C@@H](C)[C@H](O)[C@@H](O)[C@H]4O)=C(OC3=C2)C2=CC=C(O)C=C2)[C@H](O)[C@H](O)[C@H]1O
RETENTIONTIME: 
CCS: 223.3329166
IONMODE: Negative
INSTRUMENTTYPE: LC-ESI-QTOF
INSTRUMENT: 
COLLISIONENERGY: 
Comment: registered in MassBank
Num Peaks: 9
255.0311	264
283.02591	717
284.0325	133
285.0416	1000
286.047	123
430.0936	236
431.1004	490
432.10791	73
577.1557	756

NAME: Quercitrin; LC-ESI-QTOF; MS2; CE
PRECURSORMZ: 447.093285
PRECURSORTYPE: [M-H]-
FORMULA: C21H20O11
Ontology: Flavonoid-3-O-glycosides
INCHIKEY: OXGUCUVFOIWWQJ-HQBVPOQASA-N
SMILES: C[C@@H]1O[C@@H](OC2=C(OC3=CC(O)=CC(O)=C3C2=O)C2=CC(O)=C(O)C=C2)[C@H](O)[C@H](O)[C@H]1O
RETENTIONTIME: 
CCS: 200.6827075
IONMODE: Negative
INSTRUMENTTYPE: LC-ESI-QTOF
INSTRUMENT: 
COLLISIONENERGY: 
Comment: registered in MassBank
Num Peaks: 13
151.0042	171
178.99899	83
227.0368	266
243.0318	161
255.0316	524
256.03781	57
271.02689	612
272.03159	55
284.03531	194
285.0426	84
300.02951	858
301.0376	686
447.09271	1000

NAME: Quercetin-3,7-O-alpha-L-dirhamnopyranoside; LC-ESI-QTOF; MS2; CE
PRECURSORMZ: 593.151194
PRECURSORTYPE: [M-H]-
FORMULA: C27H30O15
Ontology: Flavonoid-7-O-glycosides
INCHIKEY: GXLQUHPXGLZNGE-BJBZVNFPSA-N
SMILES: C[C@@H]1O[C@@H](OC2=CC(O)=C3C(=O)C(O[C@@H]4O[C@@H](C)[C@H](O)[C@@H](O)[C@H]4O)=C(OC3=C2)C2=CC(O)=C(O)C=C2)[C@H](O)[C@H](O)[C@H]1O
RETENTIONTIME: 
CCS: 255.9400965
IONMODE: Negative
INSTRUMENTTYPE: LC-ESI-QTOF
INSTRUMENT: 
COLLISIONENERGY: 
Comment: registered in MassBank
Num Peaks: 9
255.0312	54
271.02621	239
283.0275	68
299.02081	646
300.03021	68
301.03769	530
446.0878	354
447.09671	318
593.15057	1000

NAME: Quercetin-3,7-O-alpha-L-dirhamnopyranoside; LC-ESI-QTOF; MS2; CE
PRECURSORMZ: 593.151194
PRECURSORTYPE: [M-H]-
FORMULA: C27H30O15
Ontology: Flavonoid-7-O-glycosides
INCHIKEY: GXLQUHPXGLZNGE-BJBZVNFPSA-N
SMILES: C[C@@H]1O[C@@H](OC2=CC(O)=C3C(=O)C(O[C@@H]4O[C@@H](C)[C@H](O)[C@@H](O)[C@H]4O)=C(OC3=C2)C2=CC(O)=C(O)C=C2)[C@H](O)[C@H](O)[C@H]1O
RETENTIONTIME: 
CCS: 255.9400965
IONMODE: Negative
INSTRUMENTTYPE: LC-ESI-QTOF
INSTRUMENT: 
COLLISIONENERGY: 30
Comment: registered in MassBank
Num Peaks: 9
283.02441	65
285.03931	93
299.01849	662
300.02689	94
301.03448	1000
430.08939	69
446.08411	935
447.09299	508
593.15057	79

NAME: Quercetin-7-O-rhamnoside; LC-ESI-QTOF; MS2; CE
PRECURSORMZ: 447.093285
PRECURSORTYPE: [M-H]-
FORMULA: C21H20O11
Ontology: Flavonoid-7-O-glycosides
INCHIKEY: QPHXPNUXTNHJOF-XNFUJFQVSA-N
SMILES: C[C@@H]1O[C@@H](OC2=CC(O)=C3C(=O)C(O)=C(OC3=C2)C2=CC(O)=C(O)C=C2)[C@H](O)[C@H](O)[C@H]1O
RETENTIONTIME: 
CCS: 229.3568295
IONMODE: Negative
INSTRUMENTTYPE: LC-ESI-QTOF
INSTRUMENT: 
COLLISIONENERGY: 
Comment: registered in MassBank
Num Peaks: 11
107.0141	114
121.0286	90
151.0025	493
178.99969	52
227.0329	57
255.0275	85
271.02328	137
300.0275	427
301.03479	853
302.0419	57
447.09271	1000

NAME: Kaempferol-3-O-alpha-L-rhamnopyranosyl(1-2)-beta-D-glucopyranoside-7-O-alpha-L-rhamnopyranoside; LC-ESI-QTOF; MS2; CE
PRECURSORMZ: 739.209103
PRECURSORTYPE: [M-H]-
FORMULA: C33H40O19
Ontology: Flavonoid-7-O-glycosides
INCHIKEY: DDELFAUOHDSZJL-CPGGTDLHSA-N
SMILES: C[C@@H]1O[C@@H](O[C@@H]2[C@@H](O)[C@H](O)[C@@H](CO)O[C@H]2OC2=C(OC3=CC(O[C@@H]4O[C@@H](C)[C@H](O)[C@@H](O)[C@H]4O)=CC(O)=C3C2=O)C2=CC=C(O)C=C2)[C@H](O)[C@H](O)[C@H]1O
RETENTIONTIME: 
CCS: 262.3878514
IONMODE: Negative
INSTRUMENTTYPE: LC-ESI-QTOF
INSTRUMENT: 
COLLISIONENERGY: 
Comment: registered in MassBank
Num Peaks: 9
255.03011	142
283.02521	711
284.03311	705
285.04099	247
430.0928	353
431.09811	90
593.15222	1000
594.15979	263
739.20862	994

NAME: Kaempferol-3-O-alpha-L-rhamnopyranosyl(1-2)-beta-D-glucopyranoside-7-O-alpha-L-rhamnopyranoside; LC-ESI-QTOF; MS2; CE
PRECURSORMZ: 739.209103
PRECURSORTYPE: [M-H]-
FORMULA: C33H40O19
Ontology: Flavonoid-7-O-glycosides
INCHIKEY: DDELFAUOHDSZJL-CPGGTDLHSA-N
SMILES: C[C@@H]1O[C@@H](O[C@@H]2[C@@H](O)[C@H](O)[C@@H](CO)O[C@H]2OC2=C(OC3=CC(O[C@@H]4O[C@@H](C)[C@H](O)[C@@H](O)[C@H]4O)=CC(O)=C3C2=O)C2=CC=C(O)C=C2)[C@H](O)[C@H](O)[C@H]1O
RETENTIONTIME: 
CCS: 262.3878514
IONMODE: Negative
INSTRUMENTTYPE: LC-ESI-QTOF
INSTRUMENT: 
COLLISIONENERGY: 30
Comment: registered in MassBank
Num Peaks: 9
283.0246	95
284.0321	255
285.039	101
429.08389	37
430.09061	310
431.09589	75
593.15112	1000
594.15668	289
739.20862	36

NAME: Quercetin-3-O-alpha-L-rhamnopyranosyl(1-2)-beta-D-glucopyranoside-7-O-alpha-L-rhamnopyranoside; LC-ESI-QTOF; MS2; CE
PRECURSORMZ: 755.204017
PRECURSORTYPE: [M-H]-
FORMULA: C33H40O20
Ontology: Flavonoid-7-O-glycosides
INCHIKEY: WLPJMCCYDZFCBL-HTMUFORZSA-N
SMILES: C[C@@H]1O[C@@H](O[C@@H]2[C@@H](O)[C@H](O)[C@@H](CO)O[C@H]2OC2=C(OC3=CC(O[C@@H]4O[C@@H](C)[C@H](O)[C@@H](O)[C@H]4O)=CC(O)=C3C2=O)C2=CC(O)=C(O)C=C2)[C@H](O)[C@H](O)[C@H]1O
RETENTIONTIME: 
CCS: 275.6590459
IONMODE: Negative
INSTRUMENTTYPE: LC-ESI-QTOF
INSTRUMENT: 
COLLISIONENERGY: 
Comment: registered in MassBank
Num Peaks: 9
271.02521	75
299.01941	627
300.02701	196
301.03561	60
446.08621	505
447.09271	121
609.14752	139
610.15192	33
755.20343	1000

NAME: Quercetin-3-O-alpha-L-rhamnopyranosyl(1-2)-beta-D-glucopyranoside-7-O-alpha-L-rhamnopyranoside; LC-ESI-QTOF; MS2; CE
PRECURSORMZ: 755.204017
PRECURSORTYPE: [M-H]-
FORMULA: C33H40O20
Ontology: Flavonoid-7-O-glycosides
INCHIKEY: WLPJMCCYDZFCBL-HTMUFORZSA-N
SMILES: C[C@@H]1O[C@@H](O[C@@H]2[C@@H](O)[C@H](O)[C@@H](CO)O[C@H]2OC2=C(OC3=CC(O[C@@H]4O[C@@H](C)[C@H](O)[C@@H](O)[C@H]4O)=CC(O)=C3C2=O)C2=CC(O)=C(O)C=C2)[C@H](O)[C@H](O)[C@H]1O
RETENTIONTIME: 
CCS: 275.6590459
IONMODE: Negative
INSTRUMENTTYPE: LC-ESI-QTOF
INSTRUMENT: 
COLLISIONENERGY: 30
Comment: registered in MassBank
Num Peaks: 9
299.01901	175
300.02679	110
301.03439	55
445.0777	25
446.08459	1000
447.09009	236
609.14532	423
610.1496	99
755.20343	690

NAME: Quercetin-3-O-beta-glucopyranosyl-7-O-alpha-rhamnopyranoside; LC-ESI-QTOF; MS2; CE
PRECURSORMZ: 609.146108
PRECURSORTYPE: [M-H]-
FORMULA: C27H30O16
Ontology: Flavonoid-7-O-glycosides
INCHIKEY: OTUCXMIQUNROBJ-JFNZIVIESA-N
SMILES: C[C@@H]1O[C@@H](OC2=CC(O)=C3C(=O)C(O[C@@H]4O[C@H](CO)[C@@H](O)[C@H](O)[C@H]4O)=C(OC3=C2)C2=CC(O)=C(O)C=C2)[C@H](O)[C@H](O)[C@H]1O
RETENTIONTIME: 
CCS: 248.634902
IONMODE: Negative
INSTRUMENTTYPE: LC-ESI-QTOF
INSTRUMENT: 
COLLISIONENERGY: 
Comment: registered in MassBank
Num Peaks: 13
151.0034	30
255.0307	24
271.0249	278
272.02939	30
299.01971	818
300.02609	149
301.03629	383
302.03909	41
446.08649	412
447.09369	246
448.09799	30
463.08951	108
609.14563	1000

NAME: Quercetin-3-O-beta-glucopyranosyl-7-O-alpha-rhamnopyranoside; LC-ESI-QTOF; MS2; CE
PRECURSORMZ: 609.146108
PRECURSORTYPE: [M-H]-
FORMULA: C27H30O16
Ontology: Flavonoid-7-O-glycosides
INCHIKEY: OTUCXMIQUNROBJ-JFNZIVIESA-N
SMILES: C[C@@H]1O[C@@H](OC2=CC(O)=C3C(=O)C(O[C@@H]4O[C@H](CO)[C@@H](O)[C@H](O)[C@H]4O)=C(OC3=C2)C2=CC(O)=C(O)C=C2)[C@H](O)[C@H](O)[C@H]1O
RETENTIONTIME: 
CCS: 248.634902
IONMODE: Negative
INSTRUMENTTYPE: LC-ESI-QTOF
INSTRUMENT: 
COLLISIONENERGY: 30
Comment: registered in MassBank
Num Peaks: 9
299.01859	676
300.0256	140
301.03491	638
302.0387	62
446.08481	1000
447.09119	416
448.09589	43
463.08789	186
609.14563	88

NAME: Kaempferol-3-O-beta-glucopyranosyl-7-O-alpha-rhamnopyranoside; LC-ESI-QTOF; MS2; CE
PRECURSORMZ: 593.151194
PRECURSORTYPE: [M-H]-
FORMULA: C27H30O15
Ontology: Flavonoid-7-O-glycosides
INCHIKEY: JYXSWDCPHRTYGU-RVCYDTIBSA-N
SMILES: C[C@@H]1O[C@@H](OC2=CC(O)=C3C(=O)C(O[C@@H]4O[C@H](CO)[C@@H](O)[C@H](O)[C@H]4O)=C(OC3=C2)C2=CC=C(O)C=C2)[C@H](O)[C@H](O)[C@H]1O
RETENTIONTIME: 
CCS: 239.2707965
IONMODE: Negative
INSTRUMENTTYPE: LC-ESI-QTOF
INSTRUMENT: 
COLLISIONENERGY: 
Comment: registered in MassBank
Num Peaks: 8
255.0304	278
283.0253	915
284.03159	177
285.0416	653
430.09189	327
431.10031	282
447.0946	298
593.15057	1000

NAME: Kaempferol-3-O-beta-glucopyranosyl-7-O-alpha-rhamnopyranoside; LC-ESI-QTOF; MS2; CE
PRECURSORMZ: 593.151194
PRECURSORTYPE: [M-H]-
FORMULA: C27H30O15
Ontology: Flavonoid-7-O-glycosides
INCHIKEY: JYXSWDCPHRTYGU-RVCYDTIBSA-N
SMILES: C[C@@H]1O[C@@H](OC2=CC(O)=C3C(=O)C(O[C@@H]4O[C@H](CO)[C@@H](O)[C@H](O)[C@H]4O)=C(OC3=C2)C2=CC=C(O)C=C2)[C@H](O)[C@H](O)[C@H]1O
RETENTIONTIME: 
CCS: 239.2707965
IONMODE: Negative
INSTRUMENTTYPE: LC-ESI-QTOF
INSTRUMENT: 
COLLISIONENERGY: 30
Comment: registered in MassBank
Num Peaks: 14
255.02921	29
283.02328	773
284.02921	183
285.0386	1000
286.04309	105
299.01889	77
301.03439	109
430.08871	733
431.09589	315
432.1008	36
446.08389	89
447.09091	303
448.09521	43
593.15057	30

NAME: Succinic acid; LC-ESI-QTOF; MS2; CE
PRECURSORMZ: 117.019332
PRECURSORTYPE: [M-H]-
FORMULA: C4H6O4
Ontology: Dicarboxylic acids and derivatives
INCHIKEY: KDYFGRWQOYBRFD-UHFFFAOYSA-N
SMILES: OC(=O)CCC(O)=O
RETENTIONTIME: 
CCS: 123.254263
IONMODE: Negative
INSTRUMENTTYPE: LC-ESI-QTOF
INSTRUMENT: 
COLLISIONENERGY: 
Comment: registered in MassBank
Num Peaks: 5
73.0307	1000
99.0091	132
99.9267	99
116.927	297
117.0188	637

NAME: Sinapoyl malate; LC-ESI-QTOF; MS2; CE
PRECURSORMZ: 339.072156
PRECURSORTYPE: [M-H]-
FORMULA: C15H16O9
Ontology: Coumaric acids and derivatives
INCHIKEY: DUDGAPSRYCQPBG-UFFNRZRYSA-N
SMILES: COC1=CC(\C=C\C(=O)O[C@@H](CC(O)=O)C(O)=O)=CC(OC)=C1O
RETENTIONTIME: 
CCS: 175.5834671
IONMODE: Negative
INSTRUMENTTYPE: LC-ESI-QTOF
INSTRUMENT: 
COLLISIONENERGY: 
Comment: registered in MassBank
Num Peaks: 14
71.0153	161
93.0348	46
115.0032	122
121.0289	293
133.0134	143
147.0444	47
149.0235	691
164.04671	504
179.0704	45
193.01311	27
208.037	50
223.0596	1000
224.065	27
339.07159	28

NAME: 1-O-beta-D-Glucopyranosyl sinapate; LC-ESI-QTOF; MS2; CE
PRECURSORMZ: 385.11402
PRECURSORTYPE: [M-H]-
FORMULA: C17H22O10
Ontology: Hydroxycinnamic acid glycosides
INCHIKEY: XRKBRPFTFKKHEF-DGDBGZAXSA-N
SMILES: COC1=CC(\C=C\C(=O)O[C@@H]2O[C@H](CO)[C@@H](O)[C@H](O)[C@H]2O)=CC(OC)=C1O
RETENTIONTIME: 
CCS: 186.3413523
IONMODE: Negative
INSTRUMENTTYPE: LC-ESI-QTOF
INSTRUMENT: 
COLLISIONENERGY: 
Comment: registered in MassBank
Num Peaks: 12
71.0151	56
91.0194	64
119.0138	150
147.0079	90
149.02409	70
164.04739	81
175.00301	334
190.02631	698
205.04939	1000
223.0609	218
247.0612	90
385.11349	323

NAME: Procyanidin C1; LC-ESI-QTOF; MS2; CE
PRECURSORMZ: 865.198538
PRECURSORTYPE: [M-H]-
FORMULA: C45H38O18
Ontology: Biflavonoids and polyflavonoids
INCHIKEY: MOJZMWJRUKIQGL-XILRTYJMSA-N
SMILES: O[C@@H]1CC2=C(O[C@@H]1C1=CC(O)=C(O)C=C1)C([C@@H]1[C@@H](O)[C@H](OC3=C([C@@H]4[C@@H](O)[C@H](OC5=CC(O)=CC(O)=C45)C4=CC(O)=C(O)C=C4)C(O)=CC(O)=C13)C1=CC(O)=C(O)C=C1)=C(O)C=C2O
RETENTIONTIME: 
CCS: 280.9933565
IONMODE: Negative
INSTRUMENTTYPE: LC-ESI-QTOF
INSTRUMENT: 
COLLISIONENERGY: 
Comment: registered in MassBank
Num Peaks: 12
125.0295	508
161.0307	145
243.0406	144
287.06879	261
289.08441	277
407.09601	285
425.10751	108
575.1474	117
577.16089	162
695.17102	103
713.1839	94
865.23541	1000

NAME: Prostaglandin E1; LC-ESI-QTOF; MS2; CE
PRECURSORMZ: 353.233348
PRECURSORTYPE: [M-H]-
FORMULA: C20H34O5
Ontology: Prostaglandins and related compounds
INCHIKEY: GMVPRGQOIOIIMI-DWKJAMRDSA-N
SMILES: CCCCC[C@H](O)\C=C\[C@H]1[C@H](O)CC(=O)[C@@H]1CCCCCCC(O)=O
RETENTIONTIME: 
CCS: 192.3277313
IONMODE: Negative
INSTRUMENTTYPE: LC-ESI-QTOF
INSTRUMENT: 
COLLISIONENERGY: 
Comment: registered in MassBank
Num Peaks: 7
113.0977	103
191.1441	121
235.13409	448
273.2233	339
317.21039	1000
335.22491	273
353.23279	207

NAME: Ginsenoside Rb1; LC-ESI-ITTOF; MS2; [M-H]-
PRECURSORMZ: 1107.595663
PRECURSORTYPE: [M-H]-
FORMULA: C54H92O23
Ontology: Triterpene saponins
INCHIKEY: GZYPWOGIYAIIPV-JBDTYSNRSA-N
SMILES: CC(C)=CCC[C@](C)(O[C@@H]1O[C@H](CO[C@@H]2O[C@H](CO)[C@@H](O)[C@H](O)[C@H]2O)[C@@H](O)[C@H](O)[C@H]1O)[C@H]1CC[C@]2(C)[C@@H]1[C@H](O)C[C@@H]1[C@@]3(C)CC[C@H](O[C@@H]4O[C@H](CO)[C@@H](O)[C@H](O)[C@H]4O[C@@H]4O[C@H](CO)[C@@H](O)[C@H](O)[C@H]4O)C(C)(C)[C@@H]3CC[C@@]21C
RETENTIONTIME: 
CCS: 281.8104483
IONMODE: Negative
INSTRUMENTTYPE: LC-ESI-ITTOF
INSTRUMENT: 
COLLISIONENERGY: 
Comment: registered in MassBank
Num Peaks: 42
323.06189	6
355.2612	7
357.27451	10
373.2699	45
375.2963	321
375.57559	12
376.2836	101
377.29089	34
383.1933	6
407.08649	6
441.35941	17
443.3602	9
459.38589	332
460.375	169
461.38589	34
537.34808	91
538.35089	29
539.3324	10
603.41687	20
604.40881	7
621.4425	300
621.92169	13
622.44897	158
623.43237	51
765.46118	43
766.47192	25
767.48322	16
783.4856	548
784.48108	240
784.72339	10
785.47729	83
786.5011	30
787.4715	12
945.54712	1000
945.81311	16
946.0791	22
946.55212	529
946.81818	17
947.1731	11
947.52802	181
948.5636	46
1226.18103	5

NAME: Ginsenoside Rd; LC-ESI-ITTOF; MS2; [M-H]-
PRECURSORMZ: 945.542839
PRECURSORTYPE: [M-H]-
FORMULA: C48H82O18
Ontology: Triterpene saponins
INCHIKEY: RLDVZILFNVRJTL-IWFVLDDISA-N
SMILES: CC(C)=CCC[C@](C)(O[C@@H]1O[C@H](CO)[C@@H](O)[C@H](O)[C@H]1O)[C@H]1CC[C@]2(C)[C@@H]1[C@H](O)C[C@@H]1[C@@]3(C)CC[C@H](O[C@@H]4O[C@H](CO)[C@@H](O)[C@H](O)[C@H]4O[C@@H]4O[C@H](CO)[C@@H](O)[C@H](O)[C@H]4O)C(C)(C)[C@@H]3CC[C@@]21C
RETENTIONTIME: 
CCS: 255.3927644
IONMODE: Negative
INSTRUMENTTYPE: LC-ESI-ITTOF
INSTRUMENT: 
COLLISIONENERGY: 
Comment: registered in MassBank
Num Peaks: 40
313.2579	8
355.2612	9
357.25641	8
373.2699	36
374.27319	7
375.2963	400
375.6315	12
376.2836	125
377.29089	15
441.35941	17
442.36929	12
443.34	13
459.38589	396
459.73611	9
460.375	148
461.38589	32
462.3978	8
537.34808	83
538.35089	32
539.35468	11
603.41687	12
604.43237	9
605.40143	11
621.4425	325
621.84979	8
622.44897	139
623.43237	46
624.44049	8
765.46118	15
766.47192	8
783.4856	1000
783.75458	19
783.96979	18
784.48108	471
784.75031	10
784.99261	9
785.47729	137
786.5011	26
787.49847	9
981.33881	5

NAME: Ginsenoside Re; LC-ESI-ITTOF; MS2; [M-H]-
PRECURSORMZ: 945.542839
PRECURSORTYPE: [M-H]-
FORMULA: C48H82O18
Ontology: Triterpene saponins
INCHIKEY: PWAOOJDMFUQOKB-WCZZMFLVSA-N
SMILES: C[C@@H]1O[C@@H](O[C@@H]2[C@@H](O)[C@H](O)[C@@H](CO)O[C@H]2O[C@H]2C[C@]3(C)[C@H](C[C@@H](O)[C@@H]4[C@H](CC[C@@]34C)[C@](C)(CCC=C(C)C)O[C@@H]3O[C@H](CO)[C@@H](O)[C@H](O)[C@H]3O)[C@@]3(C)CC[C@H](O)C(C)(C)[C@H]23)[C@H](O)[C@H](O)[C@H]1O
RETENTIONTIME: 
CCS: 256.3793267
IONMODE: Negative
INSTRUMENTTYPE: LC-ESI-ITTOF
INSTRUMENT: 
COLLISIONENERGY: 
Comment: registered in MassBank
Num Peaks: 46
329.2399	7
347.2471	6
373.2699	40
389.2742	40
390.27969	7
391.2865	756
391.45761	11
391.62869	19
391.89499	11
392.12329	5
392.29459	218
393.28491	18
437.33099	6
455.35791	17
457.36969	68
458.3772	19
459.3447	24
460.3544	10
475.38171	1000
475.57031	17
475.75891	24
476.03149	13
476.38791	401
477.0174	7
477.37421	93
478.38251	6
535.32288	11
553.32538	27
554.34308	7
571.39587	12
619.4079	118
620.41278	73
621.41852	15
637.42639	230
638.42151	128
639.44171	32
765.46118	26
766.47192	10
783.4856	144
784.48108	65
785.50421	24
786.47412	6
799.49017	131
800.49591	46
801.47498	19
802.48187	6

NAME: Ginsenoside Rc; LC-ESI-ITTOF; MS2; [M-H]-
PRECURSORMZ: 1077.585099
PRECURSORTYPE: [M-H]-
FORMULA: C53H90O22
Ontology: Triterpene saponins
INCHIKEY: JDCPEKQWFDWQLI-LUQKBWBOSA-N
SMILES: CC(C)=CCC[C@](C)(O[C@@H]1O[C@H](CO[C@@H]2O[C@@H](CO)[C@H](O)[C@H]2O)[C@@H](O)[C@H](O)[C@H]1O)[C@H]1CC[C@]2(C)[C@@H]1[C@H](O)C[C@@H]1[C@@]3(C)CC[C@H](O[C@@H]4O[C@H](CO)[C@@H](O)[C@H](O)[C@H]4O[C@@H]4O[C@H](CO)[C@@H](O)[C@H](O)[C@H]4O)C(C)(C)[C@@H]3CC[C@@]21C
RETENTIONTIME: 
CCS: 343.4310932
IONMODE: Negative
INSTRUMENTTYPE: LC-ESI-ITTOF
INSTRUMENT: 
COLLISIONENERGY: 
Comment: registered in MassBank
Num Peaks: 42
357.27451	17
373.2699	55
375.2963	536
375.61292	17
376.2836	151
377.29089	31
441.35941	26
442.36929	17
443.34	10
459.38589	710
459.75671	16
460.0246	9
460.375	264
461.38589	51
537.34808	144
538.35089	54
603.41687	46
604.43237	26
605.42511	15
621.4425	774
621.87372	19
622.42499	303
623.43237	97
765.46118	231
766.47192	109
767.48322	34
783.4856	1000
783.96979	24
784.48108	528
784.72339	17
785.47729	167
786.47412	48
915.53058	293
916.51947	166
917.53802	47
945.54712	897
946.0791	25
946.55212	451
947.52802	139
948.534	24
958.62329	7
1169.47998	15

NAME: Saikosaponin A; LC-ESI-ITTOF; MS2; [M-H]-
PRECURSORMZ: 779.458716
PRECURSORTYPE: [M-H]-
FORMULA: C42H68O13
Ontology: Triterpene saponins
INCHIKEY: KYWSCMDFVARMPN-MSSMMRRTSA-N
SMILES: C[C@H]1O[C@@H](O[C@H]2CC[C@@]3(C)[C@@H](CC[C@]4(C)[C@@H]3C=C[C@]35OC[C@@]6(CCC(C)(C)C[C@@H]36)[C@@H](O)C[C@@]45C)[C@]2(C)CO)[C@H](O)[C@@H](O[C@@H]2O[C@H](CO)[C@@H](O)[C@H](O)[C@H]2O)[C@H]1O
RETENTIONTIME: 
CCS: 234.1158053
IONMODE: Negative
INSTRUMENTTYPE: LC-ESI-ITTOF
INSTRUMENT: 
COLLISIONENERGY: 
Comment: registered in MassBank
Num Peaks: 22
433.30109	7
439.32269	116
440.33041	52
441.319	8
451.3273	20
471.34671	83
472.3486	40
473.35159	13
513.36359	8
541.34277	25
542.34943	15
617.40057	1000
617.6394	16
617.83051	21
618.16492	12
618.40387	570
618.83411	11
619.16882	8
619.4079	184
619.8385	6
620.41278	43
621.41852	9

NAME: Saikosaponin C; LC-ESI-ITTOF; MS2; [M-H]-
PRECURSORMZ: 925.516625
PRECURSORTYPE: [M-H]-
FORMULA: C48H78O17
Ontology: Triterpene saponins
INCHIKEY: VJEMOEYSQDKAQF-JDRYWMLESA-N
SMILES: C[C@@H]1O[C@@H](O[C@@H]2[C@@H](CO[C@@H]3O[C@H](CO)[C@@H](O)[C@H](O)[C@H]3O)O[C@@H](O[C@H]3CC[C@@]4(C)[C@@H](CC[C@]5(C)[C@@H]4C=C[C@]46OC[C@@]7(CCC(C)(C)C[C@@H]47)[C@@H](O)C[C@@]56C)C3(C)C)[C@H](O)[C@H]2O)[C@H](O)[C@H](O)[C@H]1O
RETENTIONTIME: 
CCS: 306.834599
IONMODE: Negative
INSTRUMENTTYPE: LC-ESI-ITTOF
INSTRUMENT: 
COLLISIONENERGY: 
Comment: registered in MassBank
Num Peaks: 104
146.69389	13
154.8105	13
157.50031	13
162.5571	13
164.91789	13
167.8929	13
177.1821	13
181.8167	13
183.58321	13
213.12	13
217.7462	13
224.9514	13
236.74741	13
253.3521	13
271.40521	13
275.5528	13
307.3504	13
310.0517	13
318.5011	13
327.3421	13
345.3158	13
349.63269	13
355.69611	13
392.3136	13
398.52371	13
421.08679	13
421.46149	13
434.66241	13
443.4614	13
447.03009	13
453.33011	39
454.33319	18
455.35791	97
456.34271	34
457.34909	13
457.71909	13
463.49359	13
490.52271	13
497.3569	13
497.97849	13
528.51892	13
536.85809	13
538.64081	13
561.44739	13
563.36169	13
590.99432	13
591.55511	13
599.38721	13
610.09198	13
614.65778	13
617.40057	589
617.6394	13
617.9021	18
618.0932	13
618.40387	552
618.78632	13
619.04919	13
619.4079	277
620.41278	43
622.1134	13
624.99292	13
648.58649	13
653.68689	13
658.33862	13
671.1723	13
689.01471	13
708.11359	13
718.58508	13
722.0152	13
727.26642	13
745.20508	13
745.44122	30
755.65582	18
761.4519	118
762.43341	43
763.46851	639
763.99969	13
764.21222	13
764.45129	367
765.0625	18
765.46118	147
766.47192	72
767.19043	13
779.45612	1000
779.72443	18
779.88538	18
780.23431	18
780.4491	510
780.87872	18
781.46948	296
782.46381	92
782.7326	13
788.63147	13
809.2746	13
809.9035	13
812.25708	13
843.08148	13
861.62598	13
876.58411	13
877.95032	13
890.75281	13
897.3327	13
913.93213	13
928.86682	13

NAME: Saikosaponin D; LC-ESI-ITTOF; MS2; [M-H]-
PRECURSORMZ: 779.458716
PRECURSORTYPE: [M-H]-
FORMULA: C42H68O13
Ontology: Triterpene saponins
INCHIKEY: KYWSCMDFVARMPN-LCSVLAELSA-N
SMILES: C[C@H]1O[C@@H](O[C@H]2CC[C@@]3(C)[C@@H](CC[C@]4(C)[C@@H]3C=C[C@]35OC[C@@]6(CCC(C)(C)C[C@@H]36)[C@H](O)C[C@@]45C)[C@]2(C)CO)[C@H](O)[C@@H](O[C@@H]2O[C@H](CO)[C@@H](O)[C@H](O)[C@H]2O)[C@H]1O
RETENTIONTIME: 
CCS: 234.1158053
IONMODE: Negative
INSTRUMENTTYPE: LC-ESI-ITTOF
INSTRUMENT: 
COLLISIONENERGY: 
Comment: registered in MassBank
Num Peaks: 20
439.32269	90
440.33041	27
441.319	7
451.3273	11
452.30771	7
471.34671	96
472.3486	52
473.35159	7
541.36517	32
542.34943	16
617.40057	1000
617.6394	14
617.83051	21
618.16492	14
618.40387	564
618.90582	11
619.19269	6
619.4079	183
620.41278	34
621.4425	10

NAME: Astragaloside IV; LC-ESI-ITTOF; MS2; [M+CH3COO]-
PRECURSORMZ: 815.479845
PRECURSORTYPE: [M+CH3COO]-
FORMULA: C41H68O14
Ontology: Cucurbitacin glycosides
INCHIKEY: QMNWISYXSJWHRY-YLNUDOOFSA-N
SMILES: CC(C)(O)[C@@H]1CC[C@@](C)(O1)[C@H]1[C@@H](O)C[C@@]2(C)[C@@H]3C[C@H](O[C@@H]4O[C@H](CO)[C@@H](O)[C@H](O)[C@H]4O)[C@@H]4[C@]5(C[C@@]35CC[C@]12C)CC[C@H](O[C@@H]1OC[C@@H](O)[C@H](O)[C@H]1O)C4(C)C
RETENTIONTIME: 
CCS: -1
IONMODE: Negative
INSTRUMENTTYPE: LC-ESI-ITTOF
INSTRUMENT: 
COLLISIONENERGY: 
Comment: registered in MassBank
Num Peaks: 30
175.1033	6
253.7193	6
267.49341	8
381.27701	6
383.28741	46
383.8331	6
384.30389	21
395.28839	14
435.32379	6
453.33011	14
471.34671	14
472.3486	11
489.35291	255
489.79941	11
490.0546	10
490.35251	132
491.35309	26
544.5448	6
603.41687	9
621.39459	27
622.40112	23
653.41669	6
774.23328	6
783.45868	1000
783.70081	24
783.94287	24
784.45422	518
784.9657	15
785.45038	135
786.47412	37

NAME: Baicalin; LC-ESI-ITTOF; MS2; [2M-H]-
PRECURSORMZ: 891.162546
PRECURSORTYPE: [2M-H]-
FORMULA: C21H18O11
Ontology: Flavonoid-7-O-glucuronides
INCHIKEY: IKIIZLYTISPENI-ZFORQUDYSA-N
SMILES: O[C@@H]1[C@@H](O)[C@H](OC2=C(O)C(O)=C3C(=O)C=C(OC3=C2)C2=CC=CC=C2)O[C@@H]([C@H]1O)C(O)=O
RETENTIONTIME: 
CCS: -1
IONMODE: Negative
INSTRUMENTTYPE: LC-ESI-ITTOF
INSTRUMENT: 
COLLISIONENERGY: 
Comment: registered in MassBank
Num Peaks: 14
269.05151	435
269.3353	9
270.0455	85
271.0412	9
445.0817	1000
445.26419	18
445.44669	25
445.73071	14
446.07571	296
446.2583	7
446.50201	7
447.07071	76
448.08719	6
621.10712	13

NAME: Puerarin; LC-ESI-ITTOF; MS2; [M-H]-
PRECURSORMZ: 415.103456
PRECURSORTYPE: [M-H]-
FORMULA: C21H20O9
Ontology: Isoflavonoid C-glycosides
INCHIKEY: HKEAFJYKMMKDOR-VPRICQMDSA-N
SMILES: OC[C@H]1O[C@H]([C@H](O)[C@@H](O)[C@@H]1O)C1=C(O)C=CC2=C1OC=C(C2=O)C1=CC=C(O)C=C1
RETENTIONTIME: 
CCS: 198.5500912
IONMODE: Negative
INSTRUMENTTYPE: LC-ESI-ITTOF
INSTRUMENT: 
COLLISIONENERGY: 
Comment: registered in MassBank
Num Peaks: 21
208.05811	10
222.0638	14
223.0674	14
224.0444	15
238.0652	8
253.0462	11
266.04941	6
266.9122	7
267.06921	1000
267.21051	15
267.3519	27
267.5719	13
268.0752	157
277.0542	43
293.0495	5
295.05981	592
295.22491	10
295.35699	13
295.58829	9
296.0676	42
307.064	15

NAME: Wogonin; LC-ESI-ITTOF; MS2; [M-H]-
PRECURSORMZ: 283.061197
PRECURSORTYPE: [M-H]-
FORMULA: C16H12O5
Ontology: 8-O-methylated flavonoids
INCHIKEY: XLTFNNCXVBYBSX-UHFFFAOYSA-N
SMILES: COC1=C(O)C=C(O)C2=C1OC(=CC2=O)C1=CC=CC=C1
RETENTIONTIME: 
CCS: 165.0090477
IONMODE: Negative
INSTRUMENTTYPE: LC-ESI-ITTOF
INSTRUMENT: 
COLLISIONENERGY: 
Comment: registered in MassBank
Num Peaks: 17
137.02409	5
163.0107	5
184.0522	12
196.0529	15
198.0358	11
212.0412	5
239.02991	10
240.0412	15
267.02209	21
267.93359	26
268.0437	1000
268.1853	20
268.327	27
268.53159	15
268.75211	6
269.0358	197
270.0455	29

NAME: Liquiritin; LC-ESI-ITTOF; MS2; [M-H]-
PRECURSORMZ: 417.119106
PRECURSORTYPE: [M-H]-
FORMULA: C21H22O9
Ontology: Flavonoid O-glycosides
INCHIKEY: DEMKZLAVQYISIA-ZRWXNEIDSA-N
SMILES: OC[C@H]1O[C@@H](OC2=CC=C(C=C2)[C@@H]2CC(=O)C3=C(O2)C=C(O)C=C3)[C@H](O)[C@@H](O)[C@@H]1O
RETENTIONTIME: 
CCS: 195.6860451
IONMODE: Negative
INSTRUMENTTYPE: LC-ESI-ITTOF
INSTRUMENT: 
COLLISIONENERGY: 
Comment: registered in MassBank
Num Peaks: 8
135.0076	53
254.96449	5
255.0719	1000
255.2101	19
255.3483	25
255.5479	13
256.0705	187
257.07101	29

NAME: Prunin; LC-ESI-ITTOF; MS2; [M-H]-
PRECURSORMZ: 433.11402
PRECURSORTYPE: [M-H]-
FORMULA: C21H22O10
Ontology: Flavonoid-7-O-glycosides
INCHIKEY: DLIKSSGEMUFQOK-SFTVRKLSSA-N
SMILES: OC[C@H]1O[C@@H](OC2=CC(O)=C3C(=O)C[C@H](OC3=C2)C2=CC=C(O)C=C2)[C@H](O)[C@@H](O)[C@@H]1O
RETENTIONTIME: 
CCS: 197.7449222
IONMODE: Negative
INSTRUMENTTYPE: LC-ESI-ITTOF
INSTRUMENT: 
COLLISIONENERGY: 
Comment: registered in MassBank
Num Peaks: 10
151.0013	69
152.0067	6
177.0219	33
270.95721	8
271.0679	1000
271.2103	20
271.35281	23
271.54279	12
272.06561	205
273.06509	16

NAME: Quercetin; LC-ESI-ITTOF; MS2; [M-H]-
PRECURSORMZ: 301.035376
PRECURSORTYPE: [M-H]-
FORMULA: C15H10O7
Ontology: Flavonols
INCHIKEY: REFJWTPEDVJJIY-UHFFFAOYSA-N
SMILES: OC1=CC(O)=C2C(OC(=C(O)C2=O)C2=CC(O)=C(O)C=C2)=C1
RETENTIONTIME: 
CCS: 166.0397546
IONMODE: Negative
INSTRUMENTTYPE: LC-ESI-ITTOF
INSTRUMENT: 
COLLISIONENERGY: 
Comment: registered in MassBank
Num Peaks: 45
107.0129	71
108.0193	6
121.0335	33
125.0305	9
149.0239	8
150.9304	38
151.0013	1000
151.1194	23
151.2139	22
151.37939	8
151.54491	5
152.0067	51
159.04089	12
161.03461	9
163.0162	6
178.9964	680
179.11211	10
179.2408	16
179.4209	7
180.0006	24
183.0432	7
185.0508	8
187.0432	14
192.0041	16
193.0174	47
200.0358	6
201.0565	10
203.03709	6
211.04269	33
212.035	6
215.0401	11
227.0257	9
228.04041	11
229.0428	87
230.04739	8
239.039	14
240.03551	16
245.049	18
255.032	16
257.0463	33
271.02051	12
272.03391	7
273.03339	66
283.03159	7
299.01379	13

NAME: Rhoifolin; LC-ESI-ITTOF; MS2; [M-H]-
PRECURSORMZ: 577.156279
PRECURSORTYPE: [M-H]-
FORMULA: C27H30O14
Ontology: Flavonoid-7-O-glycosides
INCHIKEY: RPMNUQRUHXIGHK-PYXJVEIZSA-N
SMILES: C[C@@H]1O[C@@H](O[C@@H]2[C@@H](O)[C@H](O)[C@@H](CO)O[C@H]2OC2=CC(O)=C3C(=O)C=C(OC3=C2)C2=CC=C(O)C=C2)[C@H](O)[C@H](O)[C@H]1O
RETENTIONTIME: 
CCS: 222.168329
IONMODE: Negative
INSTRUMENTTYPE: LC-ESI-ITTOF
INSTRUMENT: 
COLLISIONENERGY: 
Comment: registered in MassBank
Num Peaks: 11
224.03841	6
268.0387	53
269.0466	1000
269.18839	18
269.33041	24
269.5354	13
270.0405	161
271.05209	15
311.0639	17
413.07809	24
431.10199	8

NAME: Fukugetin; LC-ESI-ITTOF; MS2; [M-H]-
PRECURSORMZ: 555.093285
PRECURSORTYPE: [M-H]-
FORMULA: C30H20O11
Ontology: Biflavonoids and polyflavonoids
INCHIKEY: GFWPWSNIXRDQJC-PXJZQJOASA-N
SMILES: OC1=CC=C(C=C1)[C@@H]1OC2=CC(O)=CC(O)=C2C(=O)[C@H]1C1=C(O)C=C(O)C2=C1OC(=CC2=O)C1=CC(O)=C(O)C=C1
RETENTIONTIME: 
CCS: 248.9807273
IONMODE: Negative
INSTRUMENTTYPE: LC-ESI-ITTOF
INSTRUMENT: 
COLLISIONENERGY: 
Comment: registered in MassBank
Num Peaks: 13
295.01529	15
357.0817	6
401.06879	31
402.0701	8
403.07281	39
404.0766	9
429.06131	1000
429.26041	15
429.47949	22
429.69861	14
430.05719	305
430.4758	7
431.0542	25

NAME: Cosmosiin; LC-ESI-ITTOF; MS2; [M-H]-
PRECURSORMZ: 431.09837
PRECURSORTYPE: [M-H]-
FORMULA: C21H20O10
Ontology: Flavonoid-7-O-glycosides
INCHIKEY: KMOUJOKENFFTPU-QNDFHXLGSA-N
SMILES: OC[C@H]1O[C@@H](OC2=CC(O)=C3C(=O)C=C(OC3=C2)C2=CC=C(O)C=C2)[C@H](O)[C@@H](O)[C@@H]1O
RETENTIONTIME: 
CCS: 197.0643546
IONMODE: Negative
INSTRUMENTTYPE: LC-ESI-ITTOF
INSTRUMENT: 
COLLISIONENERGY: 
Comment: registered in MassBank
Num Peaks: 16
149.0202	5
183.0517	7
224.04739	6
225.0554	18
268.0322	458
268.18961	8
268.33121	11
268.53589	6
269.04001	1000
269.19769	17
269.3396	26
269.54471	12
270.0498	164
271.0455	27
283.05701	16
311.0563	16

NAME: Ginsenoside Rg1; LC-ESI-ITTOF; MS2; [(M+CH3COOH)-H]-
PRECURSORMZ: 831.511145
PRECURSORTYPE: [M+CH3COO]-
FORMULA: C42H72O14
Ontology: Triterpene saponins
INCHIKEY: YURJSTAIMNSZAE-HHNZYBFYSA-N
SMILES: CC(C)=CCC[C@](C)(O[C@@H]1O[C@H](CO)[C@@H](O)[C@H](O)[C@H]1O)[C@H]1CC[C@]2(C)[C@@H]1[C@H](O)C[C@@H]1[C@@]3(C)CC[C@H](O)C(C)(C)[C@@H]3[C@H](C[C@@]21C)O[C@@H]1O[C@H](CO)[C@@H](O)[C@H](O)[C@H]1O
RETENTIONTIME: 
CCS: -1
IONMODE: Negative
INSTRUMENTTYPE: LC-ESI-ITTOF
INSTRUMENT: 
COLLISIONENERGY: 
Comment: registered in MassBank
Num Peaks: 26
389.25531	9
391.2865	175
392.2756	57
393.28491	7
457.36969	10
475.38171	435
475.75891	14
476.0105	7
476.367	242
477.37421	58
478.38251	8
553.34802	7
619.4079	13
620.41278	9
637.42639	324
638.42151	222
638.85858	6
639.44171	74
640.43829	18
799.49017	1000
799.7348	17
799.97937	22
800.49591	678
800.98541	15
801.47498	209
802.48187	44

NAME: Saikosaponin B2; LC-ESI-ITTOF; MS2; [M-H]-
PRECURSORMZ: 779.458716
PRECURSORTYPE: [M-H]-
FORMULA: C42H68O13
Ontology: Triterpene saponins
INCHIKEY: WRYJYFCCMSVEPQ-ORAXXRKOSA-N
SMILES: C[C@H]1O[C@@H](O[C@H]2CC[C@@]3(C)[C@@H](CC[C@]4(C)[C@@H]3C=CC3=C5CC(C)(C)CC[C@]5(CO)[C@H](O)C[C@@]43C)[C@]2(C)CO)[C@H](O)[C@@H](O[C@@H]2O[C@H](CO)[C@@H](O)[C@H](O)[C@H]2O)[C@H]1O
RETENTIONTIME: 
CCS: 269.4216406
IONMODE: Negative
INSTRUMENTTYPE: LC-ESI-ITTOF
INSTRUMENT: 
COLLISIONENERGY: 
Comment: registered in MassBank
Num Peaks: 32
375.27771	17
391.30551	45
392.29459	12
403.29529	12
405.30481	6
406.3114	5
407.2998	14
421.30371	6
423.31799	76
424.3269	28
439.32269	156
440.33041	68
441.319	7
451.3273	15
452.32809	12
465.3367	9
471.34671	69
472.3486	34
473.35159	10
541.34277	26
542.34943	14
617.40057	1000
617.6394	12
617.83051	19
618.16492	12
618.40387	587
618.64288	6
618.85797	13
619.4079	219
619.8385	8
620.41278	36
621.41852	7

NAME: Chikusetsusaponin III; LC-ESI-ITTOF; MS2; [M-H]-
PRECURSORMZ: 915.532275
PRECURSORTYPE: [M-H]-
FORMULA: C47H80O17
Ontology: Triterpene saponins
INCHIKEY: ZICDJKZDHVLVOD-HUGMCNGHSA-N
SMILES: CC(C)=CCC[C@](C)(O)[C@H]1CC[C@]2(C)[C@@H]1[C@H](O)C[C@@H]1[C@@]3(C)CC[C@H](O[C@@H]4O[C@H](CO[C@@H]5OC[C@@H](O)[C@H](O)[C@H]5O)[C@@H](O)[C@H](O)[C@H]4O[C@@H]4O[C@H](CO)[C@@H](O)[C@H](O)[C@H]4O)C(C)(C)[C@@H]3CC[C@@]21C
RETENTIONTIME: 
CCS: 251.0098349
IONMODE: Negative
INSTRUMENTTYPE: LC-ESI-ITTOF
INSTRUMENT: 
COLLISIONENERGY: 
Comment: registered in MassBank
Num Peaks: 49
120.689	6
373.27109	32
374.27441	6
375.27899	459
376.28491	129
377.29221	10
439.34741	6
441.36401	24
443.3447	6
445.28931	8
459.39139	1000
459.55621	19
459.76221	26
460.05069	8
460.38062	446
461.39139	79
494.6459	6
519.3327	33
520.34052	14
529.38879	17
530.38428	8
537.33392	148
537.71259	6
538.33667	44
539.31818	12
556.04962	6
603.42609	60
604.41803	35
605.41071	21
618.50897	6
621.42822	793
621.66772	17
621.85938	19
622.14697	10
622.43469	503
623.44208	162
624.4502	41
735.46692	6
753.47998	234
754.48273	105
754.90509	6
755.48608	44
783.4751	391
784.49762	270
785.00909	6
785.49377	113
786.4906	21
787.51508	6
869.22162	6

NAME: Nodakenin; LC-ESI-ITTOF; MS2; [(M+CH3COOH)-H]-
PRECURSORMZ: 439.160971
PRECURSORTYPE: [M+CH3COO]-
FORMULA: C20H24O9
Ontology: Psoralens
INCHIKEY: HXCGUCZXPFBNRD-DNLMCPORSA-N
SMILES: CC(C)(O[C@@H]1O[C@H](CO)[C@@H](O)[C@H](O)[C@H]1O)[C@H]1CC2=C(O1)C=C1OC(=O)C=CC1=C2
RETENTIONTIME: 
CCS: -1
IONMODE: Negative
INSTRUMENTTYPE: LC-ESI-ITTOF
INSTRUMENT: 
COLLISIONENERGY: 
Comment: registered in MassBank
Num Peaks: 23
167.0473	13
189.01311	6
211.0349	465
211.3002	10
211.4819	5
212.0412	112
213.0499	7
225.05231	13
226.97369	7
227.0751	1000
227.2054	17
227.3358	23
227.5242	12
228.0753	199
229.0777	36
245.0847	52
246.0786	16
257.0824	16
259.08929	10
287.09229	14
407.12531	232
408.13419	65
409.14429	8

NAME: Epihesperidin; LC-ESI-ITTOF; MS2; [M-H]-
PRECURSORMZ: 609.182494
PRECURSORTYPE: [M-H]-
FORMULA: C28H34O15
Ontology: Flavonoid-7-O-glycosides
INCHIKEY: QUQPHWDTPGMPEX-UTWYECKDSA-N
SMILES: COC1=C(O)C=C(C=C1)[C@H]1CC(=O)C2=C(O)C=C(O[C@@H]3O[C@H](CO[C@@H]4O[C@@H](C)[C@H](O)[C@@H](O)[C@H]4O)[C@@H](O)[C@H](O)[C@H]3O)C=C2O1
RETENTIONTIME: 
CCS: 228.0515203
IONMODE: Negative
INSTRUMENTTYPE: LC-ESI-ITTOF
INSTRUMENT: 
COLLISIONENERGY: 
Comment: registered in MassBank
Num Peaks: 34
198.0358	7
199.0377	64
200.04221	14
201.022	14
215.0322	35
216.0338	10
224.0444	9
225.05231	6
227.0316	27
233.0802	6
240.0412	13
241.0547	20
242.0553	57
243.058	11
257.06699	13
258.05399	17
268.0437	22
283.0524	34
284.07181	6
285.0444	6
286.05121	54
287.0434	10
292.03049	7
301.0654	1000
301.23209	18
301.3822	25
301.59909	15
301.83279	6
302.06659	232
302.23361	5
303.06949	27
307.064	9
310.0517	8
325.06851	27

NAME: Hesperidin; LC-ESI-ITTOF; MS2; [M-H]-
PRECURSORMZ: 609.182494
PRECURSORTYPE: [M-H]-
FORMULA: C28H34O15
Ontology: Flavonoid-7-O-glycosides
INCHIKEY: QUQPHWDTPGMPEX-QJBIFVCTSA-N
SMILES: COC1=C(O)C=C(C=C1)[C@@H]1CC(=O)C2=C(O)C=C(O[C@@H]3O[C@H](CO[C@@H]4O[C@@H](C)[C@H](O)[C@@H](O)[C@H]4O)[C@@H](O)[C@H](O)[C@H]3O)C=C2O1
RETENTIONTIME: 
CCS: 228.0515203
IONMODE: Negative
INSTRUMENTTYPE: LC-ESI-ITTOF
INSTRUMENT: 
COLLISIONENERGY: 
Comment: registered in MassBank
Num Peaks: 24
198.0222	11
199.0377	48
200.04221	6
201.022	23
215.0322	23
224.0444	8
226.06261	8
227.0316	19
241.0547	14
242.0553	44
257.0824	10
258.05399	15
268.0437	14
283.0524	25
286.05121	64
301.0654	1000
301.23209	17
301.3822	24
301.59909	11
301.83279	6
302.06659	152
307.064	8
310.0517	8
325.06851	26

NAME: Icariin; LC-ESI-ITTOF; MS2; [(M+CH3COOH)-H]-
PRECURSORMZ: 707.255659
PRECURSORTYPE: [M+CH3COO]-
FORMULA: C33H40O15
Ontology: Flavonoid-7-O-glycosides
INCHIKEY: TZJALUIVHRYQQB-XLRXWWTNSA-N
SMILES: COC1=CC=C(C=C1)C1=C(O[C@@H]2O[C@@H](C)[C@H](O)[C@@H](O)[C@H]2O)C(=O)C2=C(O1)C(CC=C(C)C)=C(O[C@@H]1O[C@H](CO)[C@@H](O)[C@H](O)[C@H]1O)C=C2O
RETENTIONTIME: 
CCS: -1
IONMODE: Negative
INSTRUMENTTYPE: LC-ESI-ITTOF
INSTRUMENT: 
COLLISIONENERGY: 
Comment: registered in MassBank
Num Peaks: 31
279.0296	7
295.04831	9
296.02301	8
297.03241	11
305.0856	8
308.03	10
309.04269	15
311.0563	19
312.05701	7
323.06769	32
324.08759	6
351.0784	39
352.0874	17
366.10849	162
367.12051	177
368.11539	44
369.11169	6
409.13409	42
410.1261	18
433.13159	16
451.1344	6
513.18103	1000
513.37689	15
513.57288	24
513.85602	14
514.1828	480
514.37903	7
514.55328	10
515.18573	86
516.18951	7
675.22552	20

NAME: Fortunellin; LC-ESI-ITTOF; MS2; [M-H]-
PRECURSORMZ: 591.171929
PRECURSORTYPE: [M-H]-
FORMULA: C28H32O14
Ontology: Flavonoid-7-O-glycosides
INCHIKEY: MLWDGPFGTFOLRJ-CUVHLRMHSA-N
SMILES: COC1=CC=C(C=C1)C1=CC(=O)C2=C(O)C=C(O[C@@H]3O[C@H](CO)[C@@H](O)[C@H](O)[C@H]3O[C@@H]3O[C@@H](C)[C@H](O)[C@@H](O)[C@H]3O)C=C2O1
RETENTIONTIME: 
CCS: 252.4212323
IONMODE: Negative
INSTRUMENTTYPE: LC-ESI-ITTOF
INSTRUMENT: 
COLLISIONENERGY: 
Comment: registered in MassBank
Num Peaks: 23
240.04469	12
267.05771	17
268.0322	1000
268.18961	17
268.33121	25
268.53589	13
269.04001	218
269.37109	7
270.034	25
279.06171	6
281.0397	17
282.0556	5
283.05701	866
283.21869	15
283.36429	20
283.57458	11
284.0603	219
285.0654	19
297.06549	8
305.06879	7
325.0744	22
367.08371	7
471.1293	6

NAME: Diosmetin; LC-ESI-ITTOF; MS2; [M-H]-
PRECURSORMZ: 299.056112
PRECURSORTYPE: [M-H]-
FORMULA: C16H12O6
Ontology: 4'-O-methylated flavonoids
INCHIKEY: MBNGWHIJMBWFHU-UHFFFAOYSA-N
SMILES: COC1=C(O)C=C(C=C1)C1=CC(=O)C2=C(O)C=C(O)C=C2O1
RETENTIONTIME: 
CCS: 168.7791022
IONMODE: Negative
INSTRUMENTTYPE: LC-ESI-ITTOF
INSTRUMENT: 
COLLISIONENERGY: 
Comment: registered in MassBank
Num Peaks: 7
283.93079	12
284.02789	1000
284.18991	17
284.33569	24
284.53021	11
285.0329	141
286.0397	24

NAME: Hispidulin acetate; LC-ESI-ITTOF; MS2; [M-C2H3O]-
PRECURSORMZ: 383.077241
PRECURSORTYPE: [M-C2H3O]-
FORMULA: C22H18O9
Ontology: 6-O-methylated flavonoids
INCHIKEY: HIOZFEXHRPPNDN-UHFFFAOYSA-N
SMILES: COC1=C(OC(C)=O)C=C2OC(=CC(=O)C2=C1OC(C)=O)C1=CC=C(OC(C)=O)C=C1
RETENTIONTIME: 
CCS: -1
IONMODE: Negative
INSTRUMENTTYPE: LC-ESI-ITTOF
INSTRUMENT: 
COLLISIONENERGY: 
Comment: registered in MassBank
Num Peaks: 20
255.02589	14
283.02469	223
284.02789	63
285.0329	8
297.08209	11
325.92389	8
326.04541	1000
326.2016	14
326.35779	26
326.60089	12
326.82669	6
327.05261	258
327.34811	6
328.04391	29
341.06769	632
341.22739	9
341.38721	13
341.6358	9
342.06219	140
343.07599	19

NAME: Isofraxidin; LC-ESI-ITTOF; MS2; [M-H]-
PRECURSORMZ: 221.045547
PRECURSORTYPE: [M-H]-
FORMULA: C11H10O5
Ontology: 7-hydroxycoumarins
INCHIKEY: HOEVRHHMDJKUMZ-UHFFFAOYSA-N
SMILES: COC1=C(O)C(OC)=C2OC(=O)C=CC2=C1
RETENTIONTIME: 
CCS: 148.1113949
IONMODE: Negative
INSTRUMENTTYPE: LC-ESI-ITTOF
INSTRUMENT: 
COLLISIONENERGY: 
Comment: registered in MassBank
Num Peaks: 14
163.0107	16
190.99989	267
191.3985	7
191.99719	23
192.99719	5
205.0062	8
205.5845	9
205.9429	42
206.0256	1000
206.1498	19
206.274	21
206.46719	13
207.0199	127
208.0304	9

NAME: [6]-Gingerol; LC-ESI-ITTOF; MS2; [M-H]-
PRECURSORMZ: 293.175833
PRECURSORTYPE: [M-H]-
FORMULA: C17H26O4
Ontology: Gingerols
INCHIKEY: NLDDIKRKFXEWBK-AWEZNQCLSA-N
SMILES: CCCCC[C@H](O)CC(=O)CCC1=CC(OC)=C(O)C=C1
RETENTIONTIME: 
CCS: 176.7270311
IONMODE: Negative
INSTRUMENTTYPE: LC-ESI-ITTOF
INSTRUMENT: 
COLLISIONENERGY: 
Comment: registered in MassBank
Num Peaks: 19
121.03	6
135.04041	51
136.0472	9
162.0307	8
163.0475	14
177.0542	28
178.0657	300
178.1812	6
178.30949	8
179.06731	40
192.77029	6
193.09061	1000
193.2108	20
193.3311	20
193.50481	13
194.0934	148
195.0853	6
275.1701	37
276.1752	7

NAME: Bisdemethoxycurcumin; LC-ESI-ITTOF; MS2; [M-H]-
PRECURSORMZ: 307.097583
PRECURSORTYPE: [M-H]-
FORMULA: C19H16O4
Ontology: Curcuminoids
INCHIKEY: PREBVFJICNPEKM-YDWXAUTNSA-N
SMILES: OC1=CC=C(\C=C\C(=O)CC(=O)\C=C\C2=CC=C(O)C=C2)C=C1
RETENTIONTIME: 
CCS: 206.318181
IONMODE: Negative
INSTRUMENTTYPE: LC-ESI-ITTOF
INSTRUMENT: 
COLLISIONENERGY: 
Comment: registered in MassBank
Num Peaks: 19
115.0586	20
117.0357	24
118.9144	10
119.0507	185
120.0594	16
142.78641	10
143.0506	1000
143.1656	17
143.2921	21
143.43021	12
144.05231	153
145.0343	161
146.0313	11
163.03529	12
187.03661	694
187.168	13
187.28641	15
187.45731	9
188.0499	83

NAME: Curcumin; LC-ESI-ITTOF; MS2; [M-H]-
PRECURSORMZ: 367.118712
PRECURSORTYPE: [M-H]-
FORMULA: C21H20O6
Ontology: Curcuminoids
INCHIKEY: VFLDPWHFBUODDF-FCXRPNKRSA-N
SMILES: COC1=C(O)C=CC(\C=C\C(=O)CC(=O)\C=C\C2=CC(OC)=C(O)C=C2)=C1
RETENTIONTIME: 
CCS: 228.7768835
IONMODE: Negative
INSTRUMENTTYPE: LC-ESI-ITTOF
INSTRUMENT: 
COLLISIONENERGY: 
Comment: registered in MassBank
Num Peaks: 33
130.04021	36
132.0201	27
133.0267	12
133.90379	6
134.0372	161
135.04041	48
149.0661	181
149.3125	6
150.065	15
158.0435	690
158.15221	14
158.261	16
158.4303	10
159.0356	96
160.01871	159
161.017	52
173.062	1000
173.2896	24
173.4541	14
174.0621	144
175.0397	287
176.0455	27
193.0506	28
201.022	50
202.0314	155
203.02969	18
217.0519	592
217.30679	14
217.53349	6
218.0582	75
219.0527	6
241.0397	8
256.06659	20

NAME: Capsaicin; LC-ESI-ITTOF; MS2; [M-H]-
PRECURSORMZ: 304.191817
PRECURSORTYPE: [M-H]-
FORMULA: C18H27NO3
Ontology: Methoxyphenols
INCHIKEY: YKPUWZUDDOIDPM-SOFGYWHQSA-N
SMILES: COC1=C(O)C=CC(CN=C(O)CCCC\C=C\C(C)C)=C1
RETENTIONTIME: 
CCS: 178.4004496
IONMODE: Negative
INSTRUMENTTYPE: LC-ESI-ITTOF
INSTRUMENT: 
COLLISIONENERGY: 
Comment: registered in MassBank
Num Peaks: 8
152.03729	7
168.06731	23
168.142	1000
168.2542	16
168.36639	21
168.5285	13
169.1404	132
170.1416	6

NAME: Scoparin; LC-ESI-ITTOF; MS2; [M-H]-
PRECURSORMZ: 461.108935
PRECURSORTYPE: [M-H]-
FORMULA: C22H22O11
Ontology: Flavonoid 8-C-glycosides
INCHIKEY: YXHFXGHAELQJGK-PGPONNFDSA-N
SMILES: COC1=C(O)C=CC(=C1)C1=CC(=O)C2=C(O1)C([C@@H]1O[C@H](CO)[C@@H](O)[C@H](O)[C@H]1O)=C(O)C=C2O
RETENTIONTIME: 
CCS: 218.8132258
IONMODE: Negative
INSTRUMENTTYPE: LC-ESI-ITTOF
INSTRUMENT: 
COLLISIONENERGY: 
Comment: registered in MassBank
Num Peaks: 14
298.05609	208
298.4046	6
299.05231	68
300.06689	7
313.0723	91
314.07629	26
326.04129	59
327.04849	14
341.0636	1000
341.24109	17
341.40091	23
341.61401	12
342.0759	147
371.08591	18

